*SPEF "ieee 1481-1999"
*DESIGN "soc_top"
*DATE "18:10:56 Saturday September 12, 2026"
*VENDOR "The OpenROAD Project"
*PROGRAM "OpenROAD"
*VERSION "dcf36133a369abc8f3c5e5738cd4d82e4903c0e0"
*DESIGN_FLOW "NAME_SCOPE LOCAL" "PIN_CAP NONE"
*DIVIDER /
*DELIMITER :
*BUS_DELIMITER []
*T_UNIT 1 NS
*C_UNIT 1 PF
*R_UNIT 1 OHM
*L_UNIT 1 HENRY

*NAME_MAP
*3 clk
*4 instruct_en0
*5 instruct_en1
*6 result0[0]
*7 net28
*8 net27
*9 net26
*10 net25
*11 net24
*12 net23
*13 net22
*14 net21
*15 net20
*16 net19
*17 net65
*18 net18
*19 net17
*20 net16
*21 net15
*22 net14
*23 net13
*24 net12
*25 net11
*26 net10
*27 net9
*28 result0[2]
*29 net8
*30 net
*31 net64
*32 net62
*33 net60
*34 net32
*35 net31
*36 net30
*37 net29
*38 result1[0]
*39 net54
*40 net53
*41 net52
*42 net51
*43 net50
*44 net49
*45 net48
*46 net47
*47 net46
*48 net45
*49 net66
*50 net44
*51 net43
*52 net42
*53 net41
*54 net40
*55 net39
*56 net38
*57 net37
*58 net36
*59 net35
*60 result1[2]
*61 net34
*62 net33
*63 net63
*64 net61
*65 net59
*66 net58
*67 net57
*68 net56
*69 net55
*70 rst
*71 _00_
*72 _01_
*73 _02_
*74 _03_
*75 _04_
*76 _05_
*77 _06_
*78 _07_
*79 _08_
*80 _09_
*81 _10_
*82 clknet_0_clk
*83 clknet_1_0__leaf_clk
*84 clknet_1_1__leaf_clk
*85 core0\.pc\[2\]
*86 core0\.pc\[3\]
*87 core0\.pc\[4\]
*88 core1\.pc\[2\]
*89 core1\.pc\[3\]
*90 core1\.pc\[4\]
*91 net1
*92 net2
*93 net3
*94 net4
*95 net5
*96 net6
*97 net67
*98 net68
*99 net69
*100 net7
*101 net70
*102 net71
*103 net72
*104 net73
*105 net74
*106 net75
*107 FILLER_0_16
*108 FILLER_0_22
*109 FILLER_0_29
*110 FILLER_0_34
*111 FILLER_0_40
*112 FILLER_0_46
*113 FILLER_0_52
*114 FILLER_0_57
*115 FILLER_0_6
*116 FILLER_0_70
*117 FILLER_10_19
*118 FILLER_10_54
*119 FILLER_10_57
*120 FILLER_11_11
*121 FILLER_11_49
*122 FILLER_11_52
*123 FILLER_11_57
*124 FILLER_11_70
*125 FILLER_12_29
*126 FILLER_12_3
*127 FILLER_12_40
*128 FILLER_12_54
*129 FILLER_12_65
*130 FILLER_1_11
*131 FILLER_1_14
*132 FILLER_1_17
*133 FILLER_1_20
*134 FILLER_1_23
*135 FILLER_1_26
*136 FILLER_1_29
*137 FILLER_1_32
*138 FILLER_1_35
*139 FILLER_1_38
*140 FILLER_1_41
*141 FILLER_1_44
*142 FILLER_1_47
*143 FILLER_1_50
*144 FILLER_1_53
*145 FILLER_2_12
*146 FILLER_2_15
*147 FILLER_2_18
*148 FILLER_2_21
*149 FILLER_2_24
*150 FILLER_2_27
*151 FILLER_2_29
*152 FILLER_2_3
*153 FILLER_2_32
*154 FILLER_2_35
*155 FILLER_2_38
*156 FILLER_2_41
*157 FILLER_2_44
*158 FILLER_2_47
*159 FILLER_2_50
*160 FILLER_2_53
*161 FILLER_2_56
*162 FILLER_2_59
*163 FILLER_2_6
*164 FILLER_2_62
*165 FILLER_2_9
*166 FILLER_3_12
*167 FILLER_3_15
*168 FILLER_3_18
*169 FILLER_3_21
*170 FILLER_3_24
*171 FILLER_3_27
*172 FILLER_3_3
*173 FILLER_3_30
*174 FILLER_3_33
*175 FILLER_3_36
*176 FILLER_3_51
*177 FILLER_3_54
*178 FILLER_3_57
*179 FILLER_3_6
*180 FILLER_3_60
*181 FILLER_3_63
*182 FILLER_3_9
*183 FILLER_4_13
*184 FILLER_4_16
*185 FILLER_4_19
*186 FILLER_4_22
*187 FILLER_4_25
*188 FILLER_4_29
*189 FILLER_4_3
*190 FILLER_4_32
*191 FILLER_4_35
*192 FILLER_4_38
*193 FILLER_4_6
*194 FILLER_4_73
*195 FILLER_5_34
*196 FILLER_5_37
*197 FILLER_5_40
*198 FILLER_5_43
*199 FILLER_5_57
*200 FILLER_5_60
*201 FILLER_5_63
*202 FILLER_5_66
*203 FILLER_6_29
*204 FILLER_6_3
*205 FILLER_6_32
*206 FILLER_6_47
*207 FILLER_6_50
*208 FILLER_6_57
*209 FILLER_6_6
*210 FILLER_6_60
*211 FILLER_6_63
*212 FILLER_6_66
*213 FILLER_7_10
*214 FILLER_7_13
*215 FILLER_7_57
*216 FILLER_7_60
*217 FILLER_7_63
*218 FILLER_7_66
*219 FILLER_8_22
*220 FILLER_8_25
*221 FILLER_8_29
*222 FILLER_8_3
*223 FILLER_8_32
*224 FILLER_8_35
*225 FILLER_8_62
*226 FILLER_8_65
*227 FILLER_9_11
*228 FILLER_9_46
*229 FILLER_9_53
*230 FILLER_9_57
*231 FILLER_9_60
*232 FILLER_9_63
*233 PHY_EDGE_ROW_0_Left_13
*234 PHY_EDGE_ROW_0_Right_0
*235 PHY_EDGE_ROW_10_Left_23
*236 PHY_EDGE_ROW_10_Right_10
*237 PHY_EDGE_ROW_11_Left_24
*238 PHY_EDGE_ROW_11_Right_11
*239 PHY_EDGE_ROW_12_Left_25
*240 PHY_EDGE_ROW_12_Right_12
*241 PHY_EDGE_ROW_1_Left_14
*242 PHY_EDGE_ROW_1_Right_1
*243 PHY_EDGE_ROW_2_Left_15
*244 PHY_EDGE_ROW_2_Right_2
*245 PHY_EDGE_ROW_3_Left_16
*246 PHY_EDGE_ROW_3_Right_3
*247 PHY_EDGE_ROW_4_Left_17
*248 PHY_EDGE_ROW_4_Right_4
*249 PHY_EDGE_ROW_5_Left_18
*250 PHY_EDGE_ROW_5_Right_5
*251 PHY_EDGE_ROW_6_Left_19
*252 PHY_EDGE_ROW_6_Right_6
*253 PHY_EDGE_ROW_7_Left_20
*254 PHY_EDGE_ROW_7_Right_7
*255 PHY_EDGE_ROW_8_Left_21
*256 PHY_EDGE_ROW_8_Right_8
*257 PHY_EDGE_ROW_9_Left_22
*258 PHY_EDGE_ROW_9_Right_9
*259 TAP_TAPCELL_ROW_0_26
*260 TAP_TAPCELL_ROW_0_27
*261 TAP_TAPCELL_ROW_10_37
*262 TAP_TAPCELL_ROW_11_38
*263 TAP_TAPCELL_ROW_12_39
*264 TAP_TAPCELL_ROW_12_40
*265 TAP_TAPCELL_ROW_1_28
*266 TAP_TAPCELL_ROW_2_29
*267 TAP_TAPCELL_ROW_3_30
*268 TAP_TAPCELL_ROW_4_31
*269 TAP_TAPCELL_ROW_5_32
*270 TAP_TAPCELL_ROW_6_33
*271 TAP_TAPCELL_ROW_7_34
*272 TAP_TAPCELL_ROW_8_35
*273 TAP_TAPCELL_ROW_9_36
*274 _11_
*275 _12_
*276 _13_
*277 _14_
*278 _15_
*279 _16_
*280 _17_
*281 _18_
*282 _19_
*283 _20_
*284 _21_
*285 _22_
*286 _23_
*287 _24_
*288 _25_
*289 _26_
*290 _27_
*291 _28_
*292 _29_
*293 _30_
*294 _31_
*295 clkbuf_0_clk
*296 clkbuf_1_0__f_clk
*297 clkbuf_1_1__f_clk
*298 hold67
*299 hold68
*300 hold69
*301 hold70
*302 hold71
*303 hold72
*304 hold73
*305 hold74
*306 hold75
*307 input1
*308 input2
*309 input3
*310 output4
*311 output5
*312 output6
*313 output7
*314 soc_top
*315 soc_top_10
*316 soc_top_11
*317 soc_top_12
*318 soc_top_13
*319 soc_top_14
*320 soc_top_15
*321 soc_top_16
*322 soc_top_17
*323 soc_top_18
*324 soc_top_19
*325 soc_top_20
*326 soc_top_21
*327 soc_top_22
*328 soc_top_23
*329 soc_top_24
*330 soc_top_25
*331 soc_top_26
*332 soc_top_27
*333 soc_top_28
*334 soc_top_29
*335 soc_top_30
*336 soc_top_31
*337 soc_top_32
*338 soc_top_33
*339 soc_top_34
*340 soc_top_35
*341 soc_top_36
*342 soc_top_37
*343 soc_top_38
*344 soc_top_39
*345 soc_top_40
*346 soc_top_41
*347 soc_top_42
*348 soc_top_43
*349 soc_top_44
*350 soc_top_45
*351 soc_top_46
*352 soc_top_47
*353 soc_top_48
*354 soc_top_49
*355 soc_top_50
*356 soc_top_51
*357 soc_top_52
*358 soc_top_53
*359 soc_top_54
*360 soc_top_55
*361 soc_top_56
*362 soc_top_57
*363 soc_top_58
*364 soc_top_59
*365 soc_top_60
*366 soc_top_61
*367 soc_top_62
*368 soc_top_63
*369 soc_top_64
*370 soc_top_65
*371 soc_top_66
*372 soc_top_8
*373 soc_top_9

*PORTS
clk I
instruct_en0 I
instruct_en1 I
result0[0] O
result0[10] O
result0[11] O
result0[12] O
result0[13] O
result0[14] O
result0[15] O
result0[16] O
result0[17] O
result0[18] O
result0[19] O
result0[1] O
result0[20] O
result0[21] O
result0[22] O
result0[23] O
result0[24] O
result0[25] O
result0[26] O
result0[27] O
result0[28] O
result0[29] O
result0[2] O
result0[30] O
result0[31] O
result0[3] O
result0[4] O
result0[5] O
result0[6] O
result0[7] O
result0[8] O
result0[9] O
result1[0] O
result1[10] O
result1[11] O
result1[12] O
result1[13] O
result1[14] O
result1[15] O
result1[16] O
result1[17] O
result1[18] O
result1[19] O
result1[1] O
result1[20] O
result1[21] O
result1[22] O
result1[23] O
result1[24] O
result1[25] O
result1[26] O
result1[27] O
result1[28] O
result1[29] O
result1[2] O
result1[30] O
result1[31] O
result1[3] O
result1[4] O
result1[5] O
result1[6] O
result1[7] O
result1[8] O
result1[9] O
rst I

*D_NET *3 0.00397071
*CONN
*P clk I
*I *295:A I *D sky130_fd_sc_hd__clkbuf_8
*CAP
1 clk 0.0016754
2 *295:A 9.49426e-05
3 *3:34 0.00177034
4 *295:A *276:B 1.93954e-05
5 *295:A *78:8 3.56402e-05
6 *3:34 result1[19] 5.41023e-05
7 *3:34 result1[23] 0
8 *3:34 result1[24] 0
9 *3:34 result1[28] 0
10 *3:34 result1[29] 9.61191e-05
11 *3:34 result1[30] 0
12 *3:34 result1[31] 2.41053e-05
13 *3:34 *276:B 5.80087e-05
14 *3:34 *305:A 0.000120829
15 *3:34 *309:A 2.18203e-05
*RES
1 clk *3:34 29.6446 
2 *3:34 *295:A 3.445 
*END

*D_NET *4 0.00081548
*CONN
*P instruct_en0 I
*I *307:A I *D sky130_fd_sc_hd__clkdlybuf4s25_1
*CAP
1 instruct_en0 0.00040774
2 *307:A 0.00040774
3 *307:A result0[8] 0
*RES
1 instruct_en0 *307:A 8.66723 
*END

*D_NET *5 0.00117282
*CONN
*P instruct_en1 I
*I *308:A I *D sky130_fd_sc_hd__clkdlybuf4s25_1
*CAP
1 instruct_en1 0.00058641
2 *308:A 0.00058641
*RES
1 instruct_en1 *308:A 12.5557 
*END

*D_NET *6 0.00169263
*CONN
*P result0[0] O
*I *310:X O *D sky130_fd_sc_hd__clkdlybuf4s25_1
*CAP
1 result0[0] 0.000846316
2 *310:X 0.000846316
3 result0[0] result0[1] 0
*RES
1 *310:X result0[0] 18.0375 
*END

*D_NET *7 0.00114883
*CONN
*P result0[10] O
*I *333:LO O *D sky130_fd_sc_hd__conb_1
*CAP
1 result0[10] 0.000550526
2 *333:LO 0.000550526
3 result0[10] result0[8] 4.77757e-05
*RES
1 *333:LO result0[10] 13.05 
*END

*D_NET *8 0.00109664
*CONN
*P result0[11] O
*I *332:LO O *D sky130_fd_sc_hd__conb_1
*CAP
1 result0[11] 0.000548321
2 *332:LO 0.000548321
3 result0[11] result0[12] 0
*RES
1 *332:LO result0[11] 13.05 
*END

*D_NET *9 0.00107417
*CONN
*P result0[12] O
*I *331:LO O *D sky130_fd_sc_hd__conb_1
*CAP
1 result0[12] 0.000537083
2 *331:LO 0.000537083
3 result0[12] result0[13] 0
4 result0[11] result0[12] 0
*RES
1 *331:LO result0[12] 13.05 
*END

*D_NET *10 0.00107417
*CONN
*P result0[13] O
*I *330:LO O *D sky130_fd_sc_hd__conb_1
*CAP
1 result0[13] 0.000537083
2 *330:LO 0.000537083
3 result0[13] result0[14] 0
4 result0[12] result0[13] 0
*RES
1 *330:LO result0[13] 13.05 
*END

*D_NET *11 0.00107417
*CONN
*P result0[14] O
*I *329:LO O *D sky130_fd_sc_hd__conb_1
*CAP
1 result0[14] 0.000537083
2 *329:LO 0.000537083
3 result0[14] result0[15] 0
4 result0[13] result0[14] 0
*RES
1 *329:LO result0[14] 13.05 
*END

*D_NET *12 0.00109755
*CONN
*P result0[15] O
*I *328:LO O *D sky130_fd_sc_hd__conb_1
*CAP
1 result0[15] 0.000548777
2 *328:LO 0.000548777
3 result0[14] result0[15] 0
*RES
1 *328:LO result0[15] 13.05 
*END

*D_NET *13 0.00262314
*CONN
*P result0[16] O
*I *327:LO O *D sky130_fd_sc_hd__conb_1
*CAP
1 result0[16] 0.000926218
2 *327:LO 0.000926218
3 result0[16] result0[17] 0.000211456
4 result0[16] result0[18] 8.92077e-05
5 result0[16] result0[19] 0
6 result0[16] result1[11] 0.000420484
7 result0[16] result1[12] 0
8 result0[16] result1[14] 4.95554e-05
*RES
1 *327:LO result0[16] 12.0878 
*END

*D_NET *14 0.0025627
*CONN
*P result0[17] O
*I *326:LO O *D sky130_fd_sc_hd__conb_1
*CAP
1 result0[17] 0.000658619
2 *326:LO 0.000658619
3 result0[17] result0[18] 0.000232701
4 result0[17] result0[20] 0.000213131
5 result0[17] result0[21] 0.000110722
6 result0[17] result0[24] 0.000410061
7 result0[17] result1[13] 0
8 result0[17] result1[15] 6.73918e-05
9 result0[16] result0[17] 0.000211456
*RES
1 *326:LO result0[17] 16.814 
*END

*D_NET *15 0.00234614
*CONN
*P result0[18] O
*I *325:LO O *D sky130_fd_sc_hd__conb_1
*CAP
1 result0[18] 0.000626118
2 *325:LO 0.000626118
3 result0[18] result0[19] 0.000433517
4 result0[18] result0[20] 8.49689e-05
5 result0[18] result0[22] 1.84465e-05
6 result0[18] result1[12] 0
7 result0[18] result1[13] 0.000235061
8 result0[16] result0[18] 8.92077e-05
9 result0[17] result0[18] 0.000232701
*RES
1 *325:LO result0[18] 11.4116 
*END

*D_NET *16 0.00229169
*CONN
*P result0[19] O
*I *324:LO O *D sky130_fd_sc_hd__conb_1
*CAP
1 result0[19] 0.000647181
2 *324:LO 0.000647181
3 result0[19] result0[20] 0.000252309
4 result0[19] result0[21] 1.32141e-05
5 result0[19] result0[22] 0
6 result0[19] result1[11] 0.000147992
7 result0[19] result1[14] 0.000150294
8 result0[16] result0[19] 0
9 result0[18] result0[19] 0.000433517
*RES
1 *324:LO result0[19] 7.6143 
*END

*D_NET *17 0.00198109
*CONN
*P result0[1] O
*I *370:LO O *D sky130_fd_sc_hd__conb_1
*CAP
1 result0[1] 0.000689107
2 *370:LO 0.000689107
3 result0[1] result0[2] 0.000465232
4 result0[1] *310:A 0.000137647
5 result0[0] result0[1] 0
*RES
1 *370:LO result0[1] 19.7925 
*END

*D_NET *18 0.00182811
*CONN
*P result0[20] O
*I *323:LO O *D sky130_fd_sc_hd__conb_1
*CAP
1 result0[20] 0.000426883
2 *323:LO 0.000426883
3 result0[20] result0[21] 0.000353083
4 result0[20] result0[25] 7.08554e-05
5 result0[17] result0[20] 0.000213131
6 result0[18] result0[20] 8.49689e-05
7 result0[19] result0[20] 0.000252309
*RES
1 *323:LO result0[20] 11.1722 
*END

*D_NET *19 0.00226943
*CONN
*P result0[21] O
*I *322:LO O *D sky130_fd_sc_hd__conb_1
*CAP
1 result0[21] 0.000630793
2 *322:LO 0.000630793
3 result0[21] result0[22] 0.000247332
4 result0[21] result0[23] 0
5 result0[21] result0[24] 5.70461e-06
6 result0[21] result0[25] 0.000184728
7 result0[21] result0[27] 0
8 result0[21] result0[29] 9.10058e-05
9 result0[21] result1[15] 2.05839e-06
10 result0[17] result0[21] 0.000110722
11 result0[19] result0[21] 1.32141e-05
12 result0[20] result0[21] 0.000353083
*RES
1 *322:LO result0[21] 13.9455 
*END

*D_NET *20 0.00139526
*CONN
*P result0[22] O
*I *321:LO O *D sky130_fd_sc_hd__conb_1
*CAP
1 result0[22] 0.000405319
2 *321:LO 0.000405319
3 result0[22] result0[23] 0.000318841
4 result0[22] result0[26] 0
5 result0[18] result0[22] 1.84465e-05
6 result0[19] result0[22] 0
7 result0[21] result0[22] 0.000247332
*RES
1 *321:LO result0[22] 5.44337 
*END

*D_NET *21 0.00133719
*CONN
*P result0[23] O
*I *320:LO O *D sky130_fd_sc_hd__conb_1
*CAP
1 result0[23] 0.000395263
2 *320:LO 0.000395263
3 result0[23] result0[24] 0.000190104
4 result0[23] result0[25] 3.77129e-05
5 result0[21] result0[23] 0
6 result0[22] result0[23] 0.000318841
*RES
1 *320:LO result0[23] 6.79857 
*END

*D_NET *22 0.00161185
*CONN
*P result0[24] O
*I *319:LO O *D sky130_fd_sc_hd__conb_1
*CAP
1 result0[24] 0.000199628
2 *319:LO 0.000199628
3 result0[24] result0[25] 0.000190104
4 result0[24] result1[15] 0.000416622
5 result0[17] result0[24] 0.000410061
6 result0[21] result0[24] 5.70461e-06
7 result0[23] result0[24] 0.000190104
*RES
1 *319:LO result0[24] 9.1807 
*END

*D_NET *23 0.00151425
*CONN
*P result0[25] O
*I *318:LO O *D sky130_fd_sc_hd__conb_1
*CAP
1 result0[25] 0.000370919
2 *318:LO 0.000370919
3 result0[25] result0[26] 0.000289013
4 result0[20] result0[25] 7.08554e-05
5 result0[21] result0[25] 0.000184728
6 result0[23] result0[25] 3.77129e-05
7 result0[24] result0[25] 0.000190104
*RES
1 *318:LO result0[25] 8.27377 
*END

*D_NET *24 0.00141091
*CONN
*P result0[26] O
*I *317:LO O *D sky130_fd_sc_hd__conb_1
*CAP
1 result0[26] 0.000383486
2 *317:LO 0.000383486
3 result0[26] result0[27] 0.000354923
4 result0[26] result0[30] 0
5 result0[22] result0[26] 0
6 result0[25] result0[26] 0.000289013
*RES
1 *317:LO result0[26] 5.44337 
*END

*D_NET *25 0.00129872
*CONN
*P result0[27] O
*I *316:LO O *D sky130_fd_sc_hd__conb_1
*CAP
1 result0[27] 0.000353586
2 *316:LO 0.000353586
3 result0[27] result0[28] 0.000213093
4 result0[27] result0[29] 2.35332e-05
5 result0[27] result0[30] 0
6 result0[21] result0[27] 0
7 result0[26] result0[27] 0.000354923
*RES
1 *316:LO result0[27] 6.79857 
*END

*D_NET *26 0.00107725
*CONN
*P result0[28] O
*I *315:LO O *D sky130_fd_sc_hd__conb_1
*CAP
1 result0[28] 0.000306909
2 *315:LO 0.000306909
3 result0[28] result0[29] 0.000250341
4 result0[27] result0[28] 0.000213093
*RES
1 *315:LO result0[28] 8.5807 
*END

*D_NET *27 0.00125424
*CONN
*P result0[29] O
*I *373:LO O *D sky130_fd_sc_hd__conb_1
*CAP
1 result0[29] 0.000316238
2 *373:LO 0.000316238
3 result0[29] result0[30] 0.000256887
4 result0[29] result1[15] 0
5 result0[21] result0[29] 9.10058e-05
6 result0[27] result0[29] 2.35332e-05
7 result0[28] result0[29] 0.000250341
*RES
1 *373:LO result0[29] 8.84723 
*END

*D_NET *28 0.00144114
*CONN
*P result0[2] O
*I *311:X O *D sky130_fd_sc_hd__clkdlybuf4s25_1
*CAP
1 result0[2] 0.000463489
2 *311:X 0.000463489
3 result0[2] result0[3] 0
4 result0[2] result0[4] 4.89295e-05
5 result0[1] result0[2] 0.000465232
*RES
1 *311:X result0[2] 13.9275 
*END

*D_NET *29 0.00125295
*CONN
*P result0[30] O
*I *372:LO O *D sky130_fd_sc_hd__conb_1
*CAP
1 result0[30] 0.000334304
2 *372:LO 0.000334304
3 result0[30] result0[31] 0.000327451
4 result0[30] result1[18] 0
5 result0[26] result0[30] 0
6 result0[27] result0[30] 0
7 result0[29] result0[30] 0.000256887
*RES
1 *372:LO result0[30] 5.44337 
*END

*D_NET *30 0.00101696
*CONN
*P result0[31] O
*I *314:LO O *D sky130_fd_sc_hd__conb_1
*CAP
1 result0[31] 0.000245302
2 *314:LO 0.000245302
3 result0[31] result1[16] 0.000108153
4 result0[31] result1[17] 9.07469e-05
5 result0[30] result0[31] 0.000327451
*RES
1 *314:LO result0[31] 5.26857 
*END

*D_NET *31 0.00258375
*CONN
*P result0[3] O
*I *369:LO O *D sky130_fd_sc_hd__conb_1
*CAP
1 result0[3] 0.00116617
2 *369:LO 0.00116617
3 result0[3] result0[4] 0
4 result0[3] result0[7] 0.00018048
5 result0[3] result1[0] 0
6 result0[3] *312:A 7.09268e-05
7 result0[2] result0[3] 0
*RES
1 *369:LO result0[3] 27.7075 
*END

*D_NET *32 0.00165845
*CONN
*P result0[4] O
*I *367:LO O *D sky130_fd_sc_hd__conb_1
*CAP
1 result0[4] 0.000769194
2 *367:LO 0.000769194
3 result0[4] result0[5] 0
4 result0[4] *311:A 7.11365e-05
5 result0[2] result0[4] 4.89295e-05
6 result0[3] result0[4] 0
*RES
1 *367:LO result0[4] 16.5975 
*END

*D_NET *33 0.00111708
*CONN
*P result0[5] O
*I *365:LO O *D sky130_fd_sc_hd__conb_1
*CAP
1 result0[5] 0.000555664
2 *365:LO 0.000555664
3 result0[5] result0[6] 0
4 result0[5] *291:D 5.74817e-06
5 result0[4] result0[5] 0
*RES
1 *365:LO result0[5] 13.2375 
*END

*D_NET *34 0.00112499
*CONN
*P result0[6] O
*I *337:LO O *D sky130_fd_sc_hd__conb_1
*CAP
1 result0[6] 0.000562013
2 *337:LO 0.000562013
3 result0[6] result0[7] 0
4 result0[6] *291:D 9.60582e-07
5 result0[5] result0[6] 0
*RES
1 *337:LO result0[6] 13.2375 
*END

*D_NET *35 0.00120957
*CONN
*P result0[7] O
*I *336:LO O *D sky130_fd_sc_hd__conb_1
*CAP
1 result0[7] 0.000514547
2 *336:LO 0.000514547
3 result0[7] result1[0] 0
4 result0[3] result0[7] 0.00018048
5 result0[6] result0[7] 0
*RES
1 *336:LO result0[7] 13.3425 
*END

*D_NET *36 0.0018582
*CONN
*P result0[8] O
*I *335:LO O *D sky130_fd_sc_hd__conb_1
*CAP
1 result0[8] 0.000843811
2 *335:LO 0.000843811
3 result0[8] result0[9] 0.000122801
4 result0[10] result0[8] 4.77757e-05
5 *307:A result0[8] 0
*RES
1 *335:LO result0[8] 18.48 
*END

*D_NET *37 0.00124461
*CONN
*P result0[9] O
*I *334:LO O *D sky130_fd_sc_hd__conb_1
*CAP
1 result0[9] 0.000560903
2 *334:LO 0.000560903
3 result0[8] result0[9] 0.000122801
*RES
1 *334:LO result0[9] 13.74 
*END

*D_NET *38 0.00156273
*CONN
*P result1[0] O
*I *312:X O *D sky130_fd_sc_hd__clkdlybuf4s25_1
*CAP
1 result1[0] 0.000711101
2 *312:X 0.000711101
3 result1[0] result1[1] 8.64599e-05
4 result1[0] *312:A 2.86975e-05
5 result1[0] *93:18 2.53714e-05
6 result0[3] result1[0] 0
7 result0[7] result1[0] 0
*RES
1 *312:X result1[0] 15.9075 
*END

*D_NET *39 0.00107419
*CONN
*P result1[10] O
*I *359:LO O *D sky130_fd_sc_hd__conb_1
*CAP
1 result1[10] 0.000537097
2 *359:LO 0.000537097
3 result1[10] result1[14] 0
4 result1[10] result1[9] 0
*RES
1 *359:LO result1[10] 13.05 
*END

*D_NET *40 0.00156916
*CONN
*P result1[11] O
*I *358:LO O *D sky130_fd_sc_hd__conb_1
*CAP
1 result1[11] 0.000280883
2 *358:LO 0.000280883
3 result1[11] result1[14] 0.000438914
4 result0[16] result1[11] 0.000420484
5 result0[19] result1[11] 0.000147992
*RES
1 *358:LO result1[11] 13.155 
*END

*D_NET *41 0.0012011
*CONN
*P result1[12] O
*I *357:LO O *D sky130_fd_sc_hd__conb_1
*CAP
1 result1[12] 0.000587123
2 *357:LO 0.000587123
3 result1[12] result1[13] 2.68526e-05
4 result0[16] result1[12] 0
5 result0[18] result1[12] 0
*RES
1 *357:LO result1[12] 13.56 
*END

*D_NET *42 0.00153293
*CONN
*P result1[13] O
*I *356:LO O *D sky130_fd_sc_hd__conb_1
*CAP
1 result1[13] 0.000635509
2 *356:LO 0.000635509
3 result0[17] result1[13] 0
4 result0[18] result1[13] 0.000235061
5 result1[12] result1[13] 2.68526e-05
*RES
1 *356:LO result1[13] 14.985 
*END

*D_NET *43 0.00232801
*CONN
*P result1[14] O
*I *355:LO O *D sky130_fd_sc_hd__conb_1
*CAP
1 result1[14] 0.000844621
2 *355:LO 0.000844621
3 result0[16] result1[14] 4.95554e-05
4 result0[19] result1[14] 0.000150294
5 result1[10] result1[14] 0
6 result1[11] result1[14] 0.000438914
*RES
1 *355:LO result1[14] 24.895 
*END

*D_NET *44 0.00281527
*CONN
*P result1[15] O
*I *354:LO O *D sky130_fd_sc_hd__conb_1
*CAP
1 result1[15] 0.0011646
2 *354:LO 0.0011646
3 result0[17] result1[15] 6.73918e-05
4 result0[21] result1[15] 2.05839e-06
5 result0[24] result1[15] 0.000416622
6 result0[29] result1[15] 0
*RES
1 *354:LO result1[15] 23.85 
*END

*D_NET *45 0.00104206
*CONN
*P result1[16] O
*I *353:LO O *D sky130_fd_sc_hd__conb_1
*CAP
1 result1[16] 0.000412879
2 *353:LO 0.000412879
3 result1[16] result1[17] 0.000108153
4 result0[31] result1[16] 0.000108153
*RES
1 *353:LO result1[16] 10.0726 
*END

*D_NET *46 0.00117472
*CONN
*P result1[17] O
*I *352:LO O *D sky130_fd_sc_hd__conb_1
*CAP
1 result1[17] 0.000322117
2 *352:LO 0.000322117
3 result1[17] result1[18] 0.000331586
4 result0[31] result1[17] 9.07469e-05
5 result1[16] result1[17] 0.000108153
*RES
1 *352:LO result1[17] 5.26857 
*END

*D_NET *47 0.00128704
*CONN
*P result1[18] O
*I *351:LO O *D sky130_fd_sc_hd__conb_1
*CAP
1 result1[18] 0.000287731
2 *351:LO 0.000287731
3 result1[18] result1[19] 0.000379989
4 result0[30] result1[18] 0
5 result1[17] result1[18] 0.000331586
*RES
1 *351:LO result1[18] 5.44337 
*END

*D_NET *48 0.00169196
*CONN
*P result1[19] O
*I *350:LO O *D sky130_fd_sc_hd__conb_1
*CAP
1 result1[19] 0.000475859
2 *350:LO 0.000475859
3 result1[19] result1[20] 0.000274339
4 result1[19] result1[21] 3.18155e-05
5 result1[18] result1[19] 0.000379989
6 *3:34 result1[19] 5.41023e-05
*RES
1 *350:LO result1[19] 7.82663 
*END

*D_NET *49 0.0013055
*CONN
*P result1[1] O
*I *371:LO O *D sky130_fd_sc_hd__conb_1
*CAP
1 result1[1] 0.000607315
2 *371:LO 0.000607315
3 result1[1] result1[2] 0
4 result1[1] *93:18 4.40693e-06
5 result1[0] result1[1] 8.64599e-05
*RES
1 *371:LO result1[1] 13.9275 
*END

*D_NET *50 0.00115368
*CONN
*P result1[20] O
*I *349:LO O *D sky130_fd_sc_hd__conb_1
*CAP
1 result1[20] 0.000302598
2 *349:LO 0.000302598
3 result1[20] result1[21] 0.000274143
4 result1[19] result1[20] 0.000274339
*RES
1 *349:LO result1[20] 7.25377 
*END

*D_NET *51 0.00157468
*CONN
*P result1[21] O
*I *348:LO O *D sky130_fd_sc_hd__conb_1
*CAP
1 result1[21] 0.000428381
2 *348:LO 0.000428381
3 result1[21] result1[22] 0.000411962
4 result1[21] result1[29] 0
5 result1[19] result1[21] 3.18155e-05
6 result1[20] result1[21] 0.000274143
*RES
1 *348:LO result1[21] 5.69837 
*END

*D_NET *52 0.00128812
*CONN
*P result1[22] O
*I *347:LO O *D sky130_fd_sc_hd__conb_1
*CAP
1 result1[22] 0.000332001
2 *347:LO 0.000332001
3 result1[22] result1[23] 0.000212159
4 result1[22] result1[25] 0
5 result1[22] result1[27] 0
6 result1[21] result1[22] 0.000411962
*RES
1 *347:LO result1[22] 5.44337 
*END

*D_NET *53 0.00168308
*CONN
*P result1[23] O
*I *346:LO O *D sky130_fd_sc_hd__conb_1
*CAP
1 result1[23] 0.000244126
2 *346:LO 0.000244126
3 result1[23] result1[24] 0.000524277
4 result1[23] result1[25] 1.32141e-05
5 result1[23] result1[28] 0.000100333
6 result1[23] result1[30] 0.000344845
7 result1[22] result1[23] 0.000212159
8 *3:34 result1[23] 0
*RES
1 *346:LO result1[23] 10.2007 
*END

*D_NET *54 0.00118573
*CONN
*P result1[24] O
*I *345:LO O *D sky130_fd_sc_hd__conb_1
*CAP
1 result1[24] 0.000238011
2 *345:LO 0.000238011
3 result1[24] result1[25] 0.000185433
4 result1[23] result1[24] 0.000524277
5 *3:34 result1[24] 0
*RES
1 *345:LO result1[24] 8.17743 
*END

*D_NET *55 0.00136933
*CONN
*P result1[25] O
*I *344:LO O *D sky130_fd_sc_hd__conb_1
*CAP
1 result1[25] 0.000377367
2 *344:LO 0.000377367
3 result1[25] result1[26] 0.000384657
4 result1[25] result1[29] 0
5 result1[25] result1[5] 3.12908e-05
6 result1[22] result1[25] 0
7 result1[23] result1[25] 1.32141e-05
8 result1[24] result1[25] 0.000185433
*RES
1 *344:LO result1[25] 6.54357 
*END

*D_NET *56 0.00182343
*CONN
*P result1[26] O
*I *343:LO O *D sky130_fd_sc_hd__conb_1
*CAP
1 result1[26] 0.000407431
2 *343:LO 0.000407431
3 result1[26] result1[27] 0.000332296
4 result1[26] result1[5] 2.23107e-05
5 result1[26] result1[6] 0.000269299
6 result1[25] result1[26] 0.000384657
*RES
1 *343:LO result1[26] 8.10183 
*END

*D_NET *57 0.00190811
*CONN
*P result1[27] O
*I *342:LO O *D sky130_fd_sc_hd__conb_1
*CAP
1 result1[27] 0.000554209
2 *342:LO 0.000554209
3 result1[27] result1[28] 0.000229217
4 result1[27] result1[29] 7.60604e-06
5 result1[27] result1[30] 8.696e-05
6 result1[27] result1[31] 0
7 result1[27] result1[5] 0.000143612
8 result1[27] result1[7] 0
9 result1[22] result1[27] 0
10 result1[26] result1[27] 0.000332296
*RES
1 *342:LO result1[27] 7.82663 
*END

*D_NET *58 0.00235777
*CONN
*P result1[28] O
*I *341:LO O *D sky130_fd_sc_hd__conb_1
*CAP
1 result1[28] 0.00050454
2 *341:LO 0.00050454
3 result1[28] result1[29] 0.000711027
4 result1[28] result1[30] 0.000258667
5 result1[28] result1[5] 4.94457e-05
6 result1[23] result1[28] 0.000100333
7 result1[27] result1[28] 0.000229217
8 *3:34 result1[28] 0
*RES
1 *341:LO result1[28] 14.2322 
*END

*D_NET *59 0.00257564
*CONN
*P result1[29] O
*I *340:LO O *D sky130_fd_sc_hd__conb_1
*CAP
1 result1[29] 0.00063515
2 *340:LO 0.00063515
3 result1[29] result1[30] 0.000260631
4 result1[29] result1[31] 1.81181e-05
5 result1[29] result1[5] 0
6 result1[29] result1[6] 0.000211843
7 result1[21] result1[29] 0
8 result1[25] result1[29] 0
9 result1[27] result1[29] 7.60604e-06
10 result1[28] result1[29] 0.000711027
11 *3:34 result1[29] 9.61191e-05
*RES
1 *340:LO result1[29] 15.5505 
*END

*D_NET *60 0.00172093
*CONN
*P result1[2] O
*I *313:X O *D sky130_fd_sc_hd__clkdlybuf4s25_1
*CAP
1 result1[2] 0.000834669
2 *313:X 0.000834669
3 result1[2] result1[3] 0
4 result1[2] *93:18 5.15942e-05
5 result1[1] result1[2] 0
*RES
1 *313:X result1[2] 16.3425 
*END

*D_NET *61 0.00242268
*CONN
*P result1[30] O
*I *339:LO O *D sky130_fd_sc_hd__conb_1
*CAP
1 result1[30] 0.000615215
2 *339:LO 0.000615215
3 result1[30] result1[31] 0.000211236
4 result1[30] result1[6] 2.99137e-05
5 result1[23] result1[30] 0.000344845
6 result1[27] result1[30] 8.696e-05
7 result1[28] result1[30] 0.000258667
8 result1[29] result1[30] 0.000260631
9 *3:34 result1[30] 0
*RES
1 *339:LO result1[30] 15.044 
*END

*D_NET *62 0.00288306
*CONN
*P result1[31] O
*I *338:LO O *D sky130_fd_sc_hd__conb_1
*CAP
1 result1[31] 0.000820985
2 *338:LO 0.000820985
3 result1[31] result1[3] 0.000362641
4 result1[31] result1[6] 4.77769e-05
5 result1[31] result1[7] 0.000400796
6 result1[31] *309:A 0.000176421
7 result1[27] result1[31] 0
8 result1[29] result1[31] 1.81181e-05
9 result1[30] result1[31] 0.000211236
10 *3:34 result1[31] 2.41053e-05
*RES
1 *338:LO result1[31] 11.066 
*END

*D_NET *63 0.00174158
*CONN
*P result1[3] O
*I *368:LO O *D sky130_fd_sc_hd__conb_1
*CAP
1 result1[3] 0.000474309
2 *368:LO 0.000474309
3 result1[3] result1[4] 0
4 result1[3] result1[6] 4.77769e-05
5 result1[3] result1[7] 0.000333657
6 result1[3] *313:A 4.88854e-05
7 result1[2] result1[3] 0
8 result1[31] result1[3] 0.000362641
*RES
1 *368:LO result1[3] 15.7875 
*END

*D_NET *64 0.0019126
*CONN
*P result1[4] O
*I *366:LO O *D sky130_fd_sc_hd__conb_1
*CAP
1 result1[4] 0.000628933
2 *366:LO 0.000628933
3 result1[4] result1[5] 0
4 result1[4] result1[6] 0.000123955
5 result1[4] result1[7] 0.00053078
6 result1[3] result1[4] 0
*RES
1 *366:LO result1[4] 18.2625 
*END

*D_NET *65 0.00220878
*CONN
*P result1[5] O
*I *364:LO O *D sky130_fd_sc_hd__conb_1
*CAP
1 result1[5] 0.000885418
2 *364:LO 0.000885418
3 result1[5] result1[6] 0
4 result1[5] *309:A 0.000191284
5 result1[25] result1[5] 3.12908e-05
6 result1[26] result1[5] 2.23107e-05
7 result1[27] result1[5] 0.000143612
8 result1[28] result1[5] 4.94457e-05
9 result1[29] result1[5] 0
10 result1[4] result1[5] 0
*RES
1 *364:LO result1[5] 20.4225 
*END

*D_NET *66 0.00296412
*CONN
*P result1[6] O
*I *363:LO O *D sky130_fd_sc_hd__conb_1
*CAP
1 result1[6] 0.00102574
2 *363:LO 0.00102574
3 result1[6] result1[7] 0
4 result1[6] *309:A 0.000131137
5 result1[6] *313:A 5.09431e-05
6 result1[26] result1[6] 0.000269299
7 result1[29] result1[6] 0.000211843
8 result1[30] result1[6] 2.99137e-05
9 result1[31] result1[6] 4.77769e-05
10 result1[3] result1[6] 4.77769e-05
11 result1[4] result1[6] 0.000123955
12 result1[5] result1[6] 0
*RES
1 *363:LO result1[6] 23.8425 
*END

*D_NET *67 0.00300202
*CONN
*P result1[7] O
*I *362:LO O *D sky130_fd_sc_hd__conb_1
*CAP
1 result1[7] 0.000868395
2 *362:LO 0.000868395
3 result1[27] result1[7] 0
4 result1[31] result1[7] 0.000400796
5 result1[3] result1[7] 0.000333657
6 result1[4] result1[7] 0.00053078
7 result1[6] result1[7] 0
*RES
1 *362:LO result1[7] 28.6675 
*END

*D_NET *68 0.0012057
*CONN
*P result1[8] O
*I *361:LO O *D sky130_fd_sc_hd__conb_1
*CAP
1 result1[8] 0.000602849
2 *361:LO 0.000602849
3 result1[8] result1[9] 0
*RES
1 *361:LO result1[8] 14.46 
*END

*D_NET *69 0.00107417
*CONN
*P result1[9] O
*I *360:LO O *D sky130_fd_sc_hd__conb_1
*CAP
1 result1[9] 0.000537083
2 *360:LO 0.000537083
3 result1[10] result1[9] 0
4 result1[8] result1[9] 0
*RES
1 *360:LO result1[9] 13.05 
*END

*D_NET *70 0.0014459
*CONN
*P rst I
*I *309:A I *D sky130_fd_sc_hd__clkdlybuf4s25_1
*CAP
1 rst 0.000462618
2 *309:A 0.000462618
3 result1[31] *309:A 0.000176421
4 result1[5] *309:A 0.000191284
5 result1[6] *309:A 0.000131137
6 *3:34 *309:A 2.18203e-05
*RES
1 rst *309:A 9.60357 
*END

*D_NET *71 0.000262407
*CONN
*I *301:A I *D sky130_fd_sc_hd__dlygate4sd3_1
*I *285:Y O *D sky130_fd_sc_hd__a31oi_2
*CAP
1 *301:A 4.49257e-05
2 *285:Y 4.49257e-05
3 *301:A *278:A 1.21329e-05
4 *301:A *279:A 5.31158e-06
5 *301:A *85:19 4.47202e-05
6 *301:A *91:21 0.00011039
*RES
1 *285:Y *301:A 8.58 
*END

*D_NET *72 0.00092849
*CONN
*I *290:D I *D sky130_fd_sc_hd__dfrtp_2
*I *287:X O *D sky130_fd_sc_hd__and2b_2
*CAP
1 *290:D 0.000408891
2 *287:X 0.000408891
3 *290:D *82:15 0.000110709
*RES
1 *287:X *290:D 12.225 
*END

*D_NET *73 0.00049498
*CONN
*I *304:A I *D sky130_fd_sc_hd__dlygate4sd3_1
*I *288:Y O *D sky130_fd_sc_hd__xnor2_2
*CAP
1 *304:A 0.00024749
2 *288:Y 0.00024749
3 *304:A *311:A 0
*RES
1 *288:Y *304:A 11.13 
*END

*D_NET *74 0.000480238
*CONN
*I *299:A I *D sky130_fd_sc_hd__dlygate4sd3_1
*I *281:Y O *D sky130_fd_sc_hd__a31oi_2
*CAP
1 *299:A 0.000161797
2 *281:Y 0.000161797
3 *299:A *281:A1 4.77719e-05
4 *299:A *78:29 0.000108872
*RES
1 *281:Y *299:A 6.065 
*END

*D_NET *75 0.000634833
*CONN
*I *306:A I *D sky130_fd_sc_hd__dlygate4sd3_1
*I *283:Y O *D sky130_fd_sc_hd__nor2_2
*CAP
1 *306:A 4.63213e-05
2 *283:Y 4.63213e-05
3 *306:A *283:A 0.000271095
4 *306:A *283:B 0.000271095
*RES
1 *283:Y *306:A 5.72 
*END

*D_NET *76 0.000411935
*CONN
*I *294:D I *D sky130_fd_sc_hd__dfrtp_2
*I *284:X O *D sky130_fd_sc_hd__xor2_2
*CAP
1 *294:D 0.000187534
2 *284:X 0.000187534
3 *294:D *284:B 3.68682e-05
*RES
1 *284:X *294:D 9.825 
*END

*D_NET *77 0.000294855
*CONN
*I *275:B I *D sky130_fd_sc_hd__nor2_2
*I *274:Y O *D sky130_fd_sc_hd__nand2b_2
*CAP
1 *275:B 4.81879e-05
2 *274:Y 4.81879e-05
3 *275:B *274:A_N 1.26626e-05
4 *275:B *276:A 2.42236e-05
5 *275:B *282:A 9.50342e-06
6 *275:B *90:22 5.7344e-05
7 *275:B *100:10 9.47454e-05
*RES
1 *274:Y *275:B 8.835 
*END

*D_NET *78 0.00370133
*CONN
*I *281:A3 I *D sky130_fd_sc_hd__a31oi_2
*I *277:A3 I *D sky130_fd_sc_hd__a31o_2
*I *283:A I *D sky130_fd_sc_hd__nor2_2
*I *276:Y O *D sky130_fd_sc_hd__nor2_2
*CAP
1 *281:A3 0
2 *277:A3 0.000107827
3 *283:A 0.000405418
4 *276:Y 9.26505e-05
5 *78:29 0.000367417
6 *78:8 0.000757658
7 *277:A3 *277:A2 0.000153966
8 *277:A3 *291:CLK 0.000224294
9 *277:A3 *291:RESET_B 1.91597e-05
10 *277:A3 *90:30 5.53249e-06
11 *283:A *283:B 6.65838e-05
12 *283:A *293:RESET_B 3.96214e-05
13 *283:A *294:RESET_B 6.97275e-05
14 *283:A *80:8 5.83121e-06
15 *283:A *82:39 6.47919e-06
16 *78:29 *274:B 1.33285e-05
17 *78:29 *276:A 0.000313702
18 *78:29 *281:A1 8.35068e-05
19 *78:29 *281:B1 4.66108e-05
20 *78:29 *293:RESET_B 6.79907e-05
21 *78:29 *90:30 0.000265549
22 *78:29 *92:10 3.76596e-05
23 *78:29 *93:28 0.00013521
24 *295:A *78:8 3.56402e-05
25 *299:A *78:29 0.000108872
26 *306:A *283:A 0.000271095
*RES
1 *276:Y *78:8 4.74 
2 *78:8 *283:A 11.625 
3 *78:8 *78:29 10.01 
4 *78:29 *277:A3 8.795 
5 *78:29 *281:A3 1.6 
*END

*D_NET *79 0.00221013
*CONN
*I *287:A_N I *D sky130_fd_sc_hd__and2b_2
*I *280:A3 I *D sky130_fd_sc_hd__a31o_2
*I *285:A3 I *D sky130_fd_sc_hd__a31oi_2
*I *279:Y O *D sky130_fd_sc_hd__nor2_2
*CAP
1 *287:A_N 0.000216171
2 *280:A3 0
3 *285:A3 0
4 *279:Y 0.000179659
5 *79:23 0.00041689
6 *79:10 0.000380377
7 *287:A_N *278:A 0.000136685
8 *287:A_N *280:A1 4.40028e-05
9 *287:A_N *280:A2 2.68526e-05
10 *287:A_N *280:B1 0.000157924
11 *287:A_N *86:10 9.98545e-05
12 *79:10 *279:B 0.000182459
13 *79:10 *285:A2 9.12494e-06
14 *79:23 *280:A2 5.83121e-06
15 *79:23 *285:A2 0.000354302
*RES
1 *279:Y *79:10 7.23 
2 *79:10 *285:A3 3.6 
3 *79:10 *79:23 6.635 
4 *79:23 *280:A3 1.6 
5 *79:23 *287:A_N 10.79 
*END

*D_NET *80 0.00204859
*CONN
*I *284:B I *D sky130_fd_sc_hd__xor2_2
*I *283:B I *D sky130_fd_sc_hd__nor2_2
*I *282:X O *D sky130_fd_sc_hd__and2_2
*CAP
1 *284:B 0.000260878
2 *283:B 0.000226384
3 *282:X 0.000213998
4 *80:8 0.00070126
5 *284:B *294:RESET_B 0.000138746
6 *284:B *82:39 4.04902e-05
7 *80:8 *282:B 8.64599e-05
8 *283:A *283:B 6.65838e-05
9 *283:A *80:8 5.83121e-06
10 *294:D *284:B 3.68682e-05
11 *306:A *283:B 0.000271095
*RES
1 *282:X *80:8 4.825 
2 *80:8 *283:B 5.515 
3 *80:8 *284:B 9.715 
*END

*D_NET *81 0.00218192
*CONN
*I *288:B I *D sky130_fd_sc_hd__xnor2_2
*I *287:B I *D sky130_fd_sc_hd__and2b_2
*I *286:Y O *D sky130_fd_sc_hd__nand2_2
*CAP
1 *288:B 9.72336e-05
2 *287:B 0.000172285
3 *286:Y 0.000196298
4 *81:12 0.000465817
5 *288:B *311:A 0.000337531
6 *288:B *87:10 7.08387e-05
7 *288:B *87:20 0.000251432
8 *81:12 *278:A 9.23437e-05
9 *81:12 *278:C_N 8.76936e-05
10 *81:12 *280:B1 9.23635e-05
11 *81:12 *286:A 2.49909e-05
12 *81:12 *310:A 0
13 *81:12 *311:A 8.85462e-05
14 *81:12 *87:20 8.30853e-06
15 *81:12 *91:21 0.000196242
*RES
1 *286:Y *81:12 8.595 
2 *81:12 *287:B 5.775 
3 *81:12 *288:B 7.53 
*END

*D_NET *82 0.00231201
*CONN
*I *297:A I *D sky130_fd_sc_hd__clkbuf_8
*I *296:A I *D sky130_fd_sc_hd__clkbuf_8
*I *295:X O *D sky130_fd_sc_hd__clkbuf_8
*CAP
1 *297:A 2.91836e-05
2 *296:A 0
3 *295:X 0
4 *82:39 0.000522735
5 *82:26 0.000493552
6 *82:15 0.000354025
7 *82:6 0.000457432
8 *82:4 0.000103407
9 *297:A *84:8 2.30317e-05
10 *82:39 *289:CLK 9.02586e-05
11 *82:39 *293:D 6.29313e-05
12 *82:39 *293:RESET_B 4.63716e-06
13 *82:39 *84:20 1.31414e-05
14 *283:A *82:39 6.47919e-06
15 *284:B *82:39 4.04902e-05
16 *290:D *82:15 0.000110709
*RES
1 *295:X *82:4 1.6 
2 *82:4 *82:6 1.45875 
3 *82:6 *82:15 8.07125 
4 *82:15 *296:A 3.6 
5 *82:4 *82:26 2 
6 *82:26 *82:39 8.115 
7 *82:39 *297:A 4.11375 
*END

*D_NET *83 0.00396705
*CONN
*I *291:CLK I *D sky130_fd_sc_hd__dfrtp_2
*I *289:CLK I *D sky130_fd_sc_hd__dfrtp_2
*I *292:CLK I *D sky130_fd_sc_hd__dfrtp_2
*I *296:X O *D sky130_fd_sc_hd__clkbuf_8
*CAP
1 *291:CLK 0.000235385
2 *289:CLK 0.000611654
3 *292:CLK 4.18469e-05
4 *296:X 0.000294004
5 *83:25 0.00118387
6 *83:10 0.000672683
7 *289:CLK *292:D 0
8 *289:CLK *293:D 2.44185e-05
9 *289:CLK *84:20 0.000281625
10 *291:CLK *291:RESET_B 0.00016031
11 *291:CLK *90:30 1.74869e-05
12 *292:CLK *92:10 1.7386e-05
13 *83:10 *92:10 6.2707e-05
14 *83:25 *92:10 4.91171e-05
15 *277:A3 *291:CLK 0.000224294
16 *82:39 *289:CLK 9.02586e-05
*RES
1 *296:X *83:10 5.62 
2 *83:10 *292:CLK 2.77 
3 *83:10 *83:25 5.9 
4 *83:25 *289:CLK 13.86 
5 *83:25 *291:CLK 8.505 
*END

*D_NET *84 0.00212488
*CONN
*I *294:CLK I *D sky130_fd_sc_hd__dfrtp_2
*I *293:CLK I *D sky130_fd_sc_hd__dfrtp_2
*I *290:CLK I *D sky130_fd_sc_hd__dfrtp_2
*I *297:X O *D sky130_fd_sc_hd__clkbuf_8
*CAP
1 *294:CLK 0.000103095
2 *293:CLK 0
3 *290:CLK 2.02833e-05
4 *297:X 0.000329393
5 *84:20 0.000405463
6 *84:8 0.000817668
7 *290:CLK *290:RESET_B 2.86975e-05
8 *84:20 *290:RESET_B 2.63243e-05
9 *84:20 *293:D 7.61531e-05
10 *289:CLK *84:20 0.000281625
11 *297:A *84:8 2.30317e-05
12 *82:39 *84:20 1.31414e-05
*RES
1 *297:X *84:8 6.205 
2 *84:8 *84:20 10.825 
3 *84:20 *290:CLK 2.05 
4 *84:20 *293:CLK 1.6 
5 *84:8 *294:CLK 7.235 
*END

*D_NET *85 0.0024071
*CONN
*I *278:A I *D sky130_fd_sc_hd__nor3b_2
*I *300:A I *D sky130_fd_sc_hd__dlygate4sd3_1
*I *286:A I *D sky130_fd_sc_hd__nand2_2
*I *279:A I *D sky130_fd_sc_hd__nor2_2
*I *289:Q O *D sky130_fd_sc_hd__dfrtp_2
*CAP
1 *278:A 0.000174823
2 *300:A 0.000229411
3 *286:A 0.000127541
4 *279:A 0.000196427
5 *289:Q 0
6 *85:21 0.000356951
7 *85:19 0.000232011
8 *85:6 0.000253615
9 *278:A *280:B1 9.23635e-05
10 *278:A *311:A 5.34461e-05
11 *278:A *91:21 1.13346e-05
12 *279:A *91:10 7.54351e-05
13 *279:A *91:21 1.52702e-05
14 *300:A *289:D 0.000272283
15 *287:A_N *278:A 0.000136685
16 *301:A *278:A 1.21329e-05
17 *301:A *279:A 5.31158e-06
18 *301:A *85:19 4.47202e-05
19 *81:12 *278:A 9.23437e-05
20 *81:12 *286:A 2.49909e-05
*RES
1 *289:Q *85:6 3.6 
2 *85:6 *279:A 7.305 
3 *85:6 *85:19 1.125 
4 *85:19 *85:21 2 
5 *85:21 *286:A 3.445 
6 *85:21 *300:A 6.205 
7 *85:19 *278:A 8.04 
*END

*D_NET *86 0.00167278
*CONN
*I *286:B I *D sky130_fd_sc_hd__nand2_2
*I *279:B I *D sky130_fd_sc_hd__nor2_2
*I *290:Q O *D sky130_fd_sc_hd__dfrtp_2
*CAP
1 *286:B 0
2 *279:B 0.000297838
3 *290:Q 0.000267132
4 *86:10 0.000564971
5 *279:B *285:A2 0.00015375
6 *279:B *91:21 7.97197e-06
7 *86:10 *285:A2 4.95554e-05
8 *86:10 *91:21 4.92488e-05
9 *287:A_N *86:10 9.98545e-05
10 *79:10 *279:B 0.000182459
*RES
1 *290:Q *86:10 7.755 
2 *86:10 *279:B 9.825 
3 *86:10 *286:B 3.6 
*END

*D_NET *87 0.00387668
*CONN
*I *303:A I *D sky130_fd_sc_hd__dlygate4sd3_1
*I *278:B I *D sky130_fd_sc_hd__nor3b_2
*I *280:A2 I *D sky130_fd_sc_hd__a31o_2
*I *285:A2 I *D sky130_fd_sc_hd__a31oi_2
*I *291:Q O *D sky130_fd_sc_hd__dfrtp_2
*CAP
1 *303:A 0.000362716
2 *278:B 0
3 *280:A2 3.85324e-05
4 *285:A2 0.000137088
5 *291:Q 0.000207632
6 *87:30 0.000322325
7 *87:20 0.0003729
8 *87:10 0.000796544
9 *285:A2 *310:A 9.12494e-06
10 *303:A *288:A 0.000349587
11 *87:10 *310:A 0
12 *87:10 *311:A 6.87329e-05
13 *87:20 *278:C_N 5.06353e-05
14 *87:20 *310:A 0
15 *87:30 *278:C_N 0.000123955
16 *87:30 *310:A 0.000106913
17 *279:B *285:A2 0.00015375
18 *287:A_N *280:A2 2.68526e-05
19 *288:B *87:10 7.08387e-05
20 *288:B *87:20 0.000251432
21 *79:10 *285:A2 9.12494e-06
22 *79:23 *280:A2 5.83121e-06
23 *79:23 *285:A2 0.000354302
24 *81:12 *87:20 8.30853e-06
25 *86:10 *285:A2 4.95554e-05
*RES
1 *291:Q *87:10 7.14 
2 *87:10 *87:20 6.68 
3 *87:20 *87:30 5.075 
4 *87:30 *285:A2 8.295 
5 *87:30 *280:A2 4.05 
6 *87:20 *278:B 1.6 
7 *87:10 *303:A 9.6 
*END

*D_NET *88 0.00256984
*CONN
*I *298:A I *D sky130_fd_sc_hd__dlygate4sd3_1
*I *275:A I *D sky130_fd_sc_hd__nor2_2
*I *282:A I *D sky130_fd_sc_hd__and2_2
*I *292:Q O *D sky130_fd_sc_hd__dfrtp_2
*CAP
1 *298:A 0.000192539
2 *275:A 0
3 *282:A 0.000186839
4 *292:Q 0
5 *88:10 0.000417975
6 *88:4 0.000423674
7 *282:A *276:A 0.000113362
8 *282:A *294:RESET_B 0.000182427
9 *282:A *90:22 0.000531895
10 *298:A *277:A1 0.000170484
11 *298:A *277:B1 4.88478e-05
12 *298:A *291:RESET_B 8.52845e-05
13 *298:A *90:30 0
14 *298:A *92:10 0.00011379
15 *88:10 *292:RESET_B 1.08758e-05
16 *88:10 *93:28 8.23457e-05
17 *275:B *282:A 9.50342e-06
*RES
1 *292:Q *88:4 1.6 
2 *88:4 *88:10 3.24 
3 *88:10 *282:A 11.825 
4 *88:10 *275:A 1.6 
5 *88:4 *298:A 9.815 
*END

*D_NET *89 0.00110141
*CONN
*I *305:A I *D sky130_fd_sc_hd__dlygate4sd3_1
*I *282:B I *D sky130_fd_sc_hd__and2_2
*I *293:Q O *D sky130_fd_sc_hd__dfrtp_2
*CAP
1 *305:A 0.000177616
2 *282:B 0.000161278
3 *293:Q 4.39668e-05
4 *89:8 0.000382861
5 *282:B *90:22 9.89571e-05
6 *305:A *90:22 2.94467e-05
7 *3:34 *305:A 0.000120829
8 *80:8 *282:B 8.64599e-05
*RES
1 *293:Q *89:8 4.05 
2 *89:8 *282:B 7.305 
3 *89:8 *305:A 6.915 
*END

*D_NET *90 0.00452817
*CONN
*I *274:A_N I *D sky130_fd_sc_hd__nand2b_2
*I *277:A2 I *D sky130_fd_sc_hd__a31o_2
*I *281:A2 I *D sky130_fd_sc_hd__a31oi_2
*I *302:A I *D sky130_fd_sc_hd__dlygate4sd3_1
*I *294:Q O *D sky130_fd_sc_hd__dfrtp_2
*CAP
1 *274:A_N 2.44005e-05
2 *277:A2 0.000220567
3 *281:A2 0
4 *302:A 0.000191779
5 *294:Q 0.000900626
6 *90:30 0.000618307
7 *90:22 0.00113099
8 *274:A_N *100:10 1.01661e-05
9 *277:A2 *277:A1 4.77769e-05
10 *277:A2 *291:RESET_B 1.42674e-05
11 *90:22 *294:RESET_B 0.000165304
12 *90:30 *274:B 1.19928e-05
13 *90:30 *281:B1 1.91597e-05
14 *275:B *274:A_N 1.26626e-05
15 *275:B *90:22 5.7344e-05
16 *277:A3 *277:A2 0.000153966
17 *277:A3 *90:30 5.53249e-06
18 *282:A *90:22 0.000531895
19 *282:B *90:22 9.89571e-05
20 *291:CLK *90:30 1.74869e-05
21 *298:A *90:30 0
22 *305:A *90:22 2.94467e-05
23 *78:29 *90:30 0.000265549
*RES
1 *294:Q *302:A 6.065 
2 *294:Q *90:22 17.535 
3 *90:22 *90:30 8.86 
4 *90:30 *281:A2 3.6 
5 *90:30 *277:A2 7.965 
6 *90:22 *274:A_N 4.215 
*END

*D_NET *91 0.0031048
*CONN
*I *278:C_N I *D sky130_fd_sc_hd__nor3b_2
*I *280:A1 I *D sky130_fd_sc_hd__a31o_2
*I *285:A1 I *D sky130_fd_sc_hd__a31oi_2
*I *307:X O *D sky130_fd_sc_hd__clkdlybuf4s25_1
*CAP
1 *278:C_N 0.000216645
2 *280:A1 0.000109142
3 *285:A1 5.71034e-05
4 *307:X 0.000517962
5 *91:21 0.0005486
6 *91:10 0.000797879
7 *280:A1 *280:B1 8.52845e-05
8 *278:A *91:21 1.13346e-05
9 *279:A *91:10 7.54351e-05
10 *279:A *91:21 1.52702e-05
11 *279:B *91:21 7.97197e-06
12 *287:A_N *280:A1 4.40028e-05
13 *301:A *91:21 0.00011039
14 *81:12 *278:C_N 8.76936e-05
15 *81:12 *91:21 0.000196242
16 *86:10 *91:21 4.92488e-05
17 *87:20 *278:C_N 5.06353e-05
18 *87:30 *278:C_N 0.000123955
*RES
1 *307:X *91:10 11.805 
2 *91:10 *285:A1 4.395 
3 *91:10 *91:21 4.695 
4 *91:21 *280:A1 5.085 
5 *91:21 *278:C_N 7.26 
*END

*D_NET *92 0.00453718
*CONN
*I *277:A1 I *D sky130_fd_sc_hd__a31o_2
*I *274:B I *D sky130_fd_sc_hd__nand2b_2
*I *281:A1 I *D sky130_fd_sc_hd__a31oi_2
*I *308:X O *D sky130_fd_sc_hd__clkdlybuf4s25_1
*CAP
1 *277:A1 0.000290608
2 *274:B 0.000105399
3 *281:A1 2.61187e-05
4 *308:X 0.00114892
5 *92:12 0.000131518
6 *92:10 0.00143953
7 *274:B *281:B1 8.49205e-05
8 *277:A1 *277:B1 0.000196678
9 *277:A1 *291:RESET_B 7.18107e-06
10 *277:A1 *93:18 4.07445e-05
11 *277:A1 *93:28 0.000105562
12 *92:10 *292:RESET_B 6.11467e-05
13 *92:10 *293:RESET_B 7.5416e-05
14 *92:10 *93:28 0.000167921
15 *277:A2 *277:A1 4.77769e-05
16 *292:CLK *92:10 1.7386e-05
17 *298:A *277:A1 0.000170484
18 *298:A *92:10 0.00011379
19 *299:A *281:A1 4.77719e-05
20 *78:29 *274:B 1.33285e-05
21 *78:29 *281:A1 8.35068e-05
22 *78:29 *92:10 3.76596e-05
23 *83:10 *92:10 6.2707e-05
24 *83:25 *92:10 4.91171e-05
25 *90:30 *274:B 1.19928e-05
*RES
1 *308:X *92:10 18.435 
2 *92:10 *92:12 2 
3 *92:12 *281:A1 2.395 
4 *92:12 *274:B 3.445 
5 *92:10 *277:A1 9.03 
*END

*D_NET *93 0.00761762
*CONN
*I *289:RESET_B I *D sky130_fd_sc_hd__dfrtp_2
*I *294:RESET_B I *D sky130_fd_sc_hd__dfrtp_2
*I *291:RESET_B I *D sky130_fd_sc_hd__dfrtp_2
*I *290:RESET_B I *D sky130_fd_sc_hd__dfrtp_2
*I *293:RESET_B I *D sky130_fd_sc_hd__dfrtp_2
*I *292:RESET_B I *D sky130_fd_sc_hd__dfrtp_2
*I *309:X O *D sky130_fd_sc_hd__clkdlybuf4s25_1
*CAP
1 *289:RESET_B 0.000256874
2 *294:RESET_B 0.000219529
3 *291:RESET_B 0.000677139
4 *290:RESET_B 0.000715942
5 *293:RESET_B 0.000895742
6 *292:RESET_B 7.08037e-05
7 *309:X 0.000698736
8 *93:28 0.000463209
9 *93:18 0.00155113
10 *290:RESET_B *293:D 2.69153e-05
11 *291:RESET_B *277:B1 6.78277e-05
12 *93:18 *97:8 8.33066e-06
13 *93:18 *100:10 4.49491e-05
14 *93:28 *276:A 1.07797e-05
15 *93:28 *97:8 0.000139437
16 result1[0] *93:18 2.53714e-05
17 result1[1] *93:18 4.40693e-06
18 result1[2] *93:18 5.15942e-05
19 *277:A1 *291:RESET_B 7.18107e-06
20 *277:A1 *93:18 4.07445e-05
21 *277:A1 *93:28 0.000105562
22 *277:A2 *291:RESET_B 1.42674e-05
23 *277:A3 *291:RESET_B 1.91597e-05
24 *282:A *294:RESET_B 0.000182427
25 *283:A *293:RESET_B 3.96214e-05
26 *283:A *294:RESET_B 6.97275e-05
27 *284:B *294:RESET_B 0.000138746
28 *290:CLK *290:RESET_B 2.86975e-05
29 *291:CLK *291:RESET_B 0.00016031
30 *298:A *291:RESET_B 8.52845e-05
31 *78:29 *293:RESET_B 6.79907e-05
32 *78:29 *93:28 0.00013521
33 *82:39 *293:RESET_B 4.63716e-06
34 *84:20 *290:RESET_B 2.63243e-05
35 *88:10 *292:RESET_B 1.08758e-05
36 *88:10 *93:28 8.23457e-05
37 *90:22 *294:RESET_B 0.000165304
38 *92:10 *292:RESET_B 6.11467e-05
39 *92:10 *293:RESET_B 7.5416e-05
40 *92:10 *93:28 0.000167921
*RES
1 *309:X *93:18 13.17 
2 *93:18 *93:28 7.025 
3 *93:28 *292:RESET_B 1.4325 
4 *93:28 *293:RESET_B 8.74 
5 *293:RESET_B *290:RESET_B 6.795 
6 *93:18 *291:RESET_B 12.8825 
7 *293:RESET_B *294:RESET_B 10.735 
8 *290:RESET_B *289:RESET_B 8.185 
*END

*D_NET *94 0.00136653
*CONN
*I *310:A I *D sky130_fd_sc_hd__clkdlybuf4s25_1
*I *280:X O *D sky130_fd_sc_hd__a31o_2
*CAP
1 *310:A 0.000556425
2 *280:X 0.000556425
3 result0[1] *310:A 0.000137647
4 *285:A2 *310:A 9.12494e-06
5 *81:12 *310:A 0
6 *87:10 *310:A 0
7 *87:20 *310:A 0
8 *87:30 *310:A 0.000106913
*RES
1 *280:X *310:A 17.34 
*END

*D_NET *95 0.00214079
*CONN
*I *311:A I *D sky130_fd_sc_hd__clkdlybuf4s25_1
*I *280:B1 I *D sky130_fd_sc_hd__a31o_2
*I *278:Y O *D sky130_fd_sc_hd__nor3b_2
*CAP
1 *311:A 0.000460585
2 *280:B1 8.61429e-05
3 *278:Y 0
4 *95:6 0.000546728
5 result0[4] *311:A 7.11365e-05
6 *278:A *280:B1 9.23635e-05
7 *278:A *311:A 5.34461e-05
8 *280:A1 *280:B1 8.52845e-05
9 *287:A_N *280:B1 0.000157924
10 *288:B *311:A 0.000337531
11 *304:A *311:A 0
12 *81:12 *280:B1 9.23635e-05
13 *81:12 *311:A 8.85462e-05
14 *87:10 *311:A 6.87329e-05
*RES
1 *278:Y *95:6 3.6 
2 *95:6 *280:B1 6.21 
3 *95:6 *311:A 13.515 
*END

*D_NET *96 0.000630686
*CONN
*I *312:A I *D sky130_fd_sc_hd__clkdlybuf4s25_1
*I *277:X O *D sky130_fd_sc_hd__a31o_2
*CAP
1 *312:A 0.000265531
2 *277:X 0.000265531
3 result0[3] *312:A 7.09268e-05
4 result1[0] *312:A 2.86975e-05
*RES
1 *277:X *312:A 11.445 
*END

*D_NET *97 0.00151062
*CONN
*I *281:B1 I *D sky130_fd_sc_hd__a31oi_2
*I *276:A I *D sky130_fd_sc_hd__nor2_2
*I *298:X O *D sky130_fd_sc_hd__dlygate4sd3_1
*CAP
1 *281:B1 2.32929e-05
2 *276:A 0.000168213
3 *298:X 4.53547e-05
4 *97:8 0.000236861
5 *276:A *100:10 0.000116158
6 *97:8 *100:10 0.00016021
7 *274:B *281:B1 8.49205e-05
8 *275:B *276:A 2.42236e-05
9 *282:A *276:A 0.000113362
10 *78:29 *276:A 0.000313702
11 *78:29 *281:B1 4.66108e-05
12 *90:30 *281:B1 1.91597e-05
13 *93:18 *97:8 8.33066e-06
14 *93:28 *276:A 1.07797e-05
15 *93:28 *97:8 0.000139437
*RES
1 *298:X *97:8 5.49 
2 *97:8 *276:A 8.685 
3 *97:8 *281:B1 4.395 
*END

*D_NET *98 0.000246503
*CONN
*I *292:D I *D sky130_fd_sc_hd__dfrtp_2
*I *299:X O *D sky130_fd_sc_hd__dlygate4sd3_1
*CAP
1 *292:D 0.000123251
2 *299:X 0.000123251
3 *289:CLK *292:D 0
*RES
1 *299:X *292:D 8.775 
*END

*D_NET *99 0.000610567
*CONN
*I *285:B1 I *D sky130_fd_sc_hd__a31oi_2
*I *300:X O *D sky130_fd_sc_hd__dlygate4sd3_1
*CAP
1 *285:B1 0.000305284
2 *300:X 0.000305284
*RES
1 *300:X *285:B1 11.91 
*END

*D_NET *100 0.00197606
*CONN
*I *313:A I *D sky130_fd_sc_hd__clkdlybuf4s25_1
*I *277:B1 I *D sky130_fd_sc_hd__a31o_2
*I *275:Y O *D sky130_fd_sc_hd__nor2_2
*CAP
1 *313:A 0.000272924
2 *277:B1 0.000154272
3 *275:Y 0.000141131
4 *100:10 0.000568327
5 result1[3] *313:A 4.88854e-05
6 result1[6] *313:A 5.09431e-05
7 *274:A_N *100:10 1.01661e-05
8 *275:B *100:10 9.47454e-05
9 *276:A *100:10 0.000116158
10 *277:A1 *277:B1 0.000196678
11 *291:RESET_B *277:B1 6.78277e-05
12 *298:A *277:B1 4.88478e-05
13 *93:18 *100:10 4.49491e-05
14 *97:8 *100:10 0.00016021
*RES
1 *275:Y *100:10 9.53 
2 *100:10 *277:B1 4.81 
3 *100:10 *313:A 10.1 
*END

*D_NET *101 0.000910166
*CONN
*I *289:D I *D sky130_fd_sc_hd__dfrtp_2
*I *301:X O *D sky130_fd_sc_hd__dlygate4sd3_1
*CAP
1 *289:D 0.000318941
2 *301:X 0.000318941
3 *300:A *289:D 0.000272283
*RES
1 *301:X *289:D 12.48 
*END

*D_NET *102 0.00078949
*CONN
*I *284:A I *D sky130_fd_sc_hd__xor2_2
*I *302:X O *D sky130_fd_sc_hd__dlygate4sd3_1
*CAP
1 *284:A 0.000394745
2 *302:X 0.000394745
*RES
1 *302:X *284:A 13.17 
*END

*D_NET *103 0.000627758
*CONN
*I *288:A I *D sky130_fd_sc_hd__xnor2_2
*I *303:X O *D sky130_fd_sc_hd__dlygate4sd3_1
*CAP
1 *288:A 0.000139086
2 *303:X 0.000139086
3 *303:A *288:A 0.000349587
*RES
1 *303:X *288:A 6.41 
*END

*D_NET *104 0.0005437
*CONN
*I *291:D I *D sky130_fd_sc_hd__dfrtp_2
*I *304:X O *D sky130_fd_sc_hd__dlygate4sd3_1
*CAP
1 *291:D 0.000268496
2 *304:X 0.000268496
3 result0[5] *291:D 5.74817e-06
4 result0[6] *291:D 9.60582e-07
*RES
1 *304:X *291:D 10.5 
*END

*D_NET *105 0.000252405
*CONN
*I *276:B I *D sky130_fd_sc_hd__nor2_2
*I *305:X O *D sky130_fd_sc_hd__dlygate4sd3_1
*CAP
1 *276:B 8.75003e-05
2 *305:X 8.75003e-05
3 *295:A *276:B 1.93954e-05
4 *3:34 *276:B 5.80087e-05
*RES
1 *305:X *276:B 4.7 
*END

*D_NET *106 0.000320016
*CONN
*I *293:D I *D sky130_fd_sc_hd__dfrtp_2
*I *306:X O *D sky130_fd_sc_hd__dlygate4sd3_1
*CAP
1 *293:D 6.4799e-05
2 *306:X 6.4799e-05
3 *289:CLK *293:D 2.44185e-05
4 *290:RESET_B *293:D 2.69153e-05
5 *82:39 *293:D 6.29313e-05
6 *84:20 *293:D 7.61531e-05
*RES
1 *306:X *293:D 9.03 
*END
