*SPEF "ieee 1481-1999"
*DESIGN "riscv_soc_top"
*DATE "08:56:40 Thursday September 10, 2026"
*VENDOR "The OpenROAD Project"
*PROGRAM "OpenROAD"
*VERSION "dcf36133a369abc8f3c5e5738cd4d82e4903c0e0"
*DESIGN_FLOW "NAME_SCOPE LOCAL" "PIN_CAP NONE"
*DIVIDER /
*DELIMITER :
*BUS_DELIMITER []
*T_UNIT 1 NS
*C_UNIT 1 PF
*R_UNIT 1 OHM
*L_UNIT 1 HENRY

*NAME_MAP
*3 axi_araddr[0]
*4 axi_araddr[10]
*5 axi_araddr[11]
*6 axi_araddr[12]
*7 axi_araddr[13]
*8 axi_araddr[14]
*9 axi_araddr[15]
*10 axi_araddr[16]
*11 axi_araddr[17]
*12 axi_araddr[18]
*13 axi_araddr[19]
*14 axi_araddr[1]
*15 axi_araddr[20]
*16 axi_araddr[21]
*17 axi_araddr[22]
*18 axi_araddr[23]
*19 axi_araddr[24]
*20 axi_araddr[25]
*21 axi_araddr[26]
*22 axi_araddr[27]
*23 axi_araddr[28]
*24 axi_araddr[29]
*25 axi_araddr[2]
*26 axi_araddr[30]
*27 axi_araddr[31]
*28 axi_araddr[3]
*29 axi_araddr[4]
*30 axi_araddr[5]
*31 axi_araddr[6]
*32 axi_araddr[7]
*33 axi_araddr[8]
*34 axi_araddr[9]
*35 axi_arready
*36 axi_arvalid
*37 axi_awaddr[0]
*38 axi_awaddr[10]
*39 axi_awaddr[11]
*40 axi_awaddr[12]
*41 axi_awaddr[13]
*42 axi_awaddr[14]
*43 axi_awaddr[15]
*44 axi_awaddr[16]
*45 axi_awaddr[17]
*46 axi_awaddr[18]
*47 axi_awaddr[19]
*48 axi_awaddr[1]
*49 axi_awaddr[20]
*50 axi_awaddr[21]
*51 axi_awaddr[22]
*52 axi_awaddr[23]
*53 axi_awaddr[24]
*54 axi_awaddr[25]
*55 axi_awaddr[26]
*56 axi_awaddr[27]
*57 axi_awaddr[28]
*58 axi_awaddr[29]
*59 axi_awaddr[2]
*60 axi_awaddr[30]
*61 axi_awaddr[31]
*62 axi_awaddr[3]
*63 axi_awaddr[4]
*64 axi_awaddr[5]
*65 axi_awaddr[6]
*66 axi_awaddr[7]
*67 axi_awaddr[8]
*68 axi_awaddr[9]
*69 axi_awready
*70 axi_awvalid
*71 axi_bready
*72 net82
*73 net
*74 net83
*75 axi_rdata[0]
*76 axi_rdata[10]
*77 axi_rdata[11]
*78 axi_rdata[12]
*79 axi_rdata[13]
*80 axi_rdata[14]
*81 axi_rdata[15]
*82 axi_rdata[16]
*83 axi_rdata[17]
*84 axi_rdata[18]
*85 axi_rdata[19]
*86 axi_rdata[1]
*87 axi_rdata[20]
*88 axi_rdata[21]
*89 axi_rdata[22]
*90 axi_rdata[23]
*91 axi_rdata[24]
*92 axi_rdata[25]
*93 axi_rdata[26]
*94 axi_rdata[27]
*95 axi_rdata[28]
*96 axi_rdata[29]
*97 axi_rdata[2]
*98 axi_rdata[30]
*99 axi_rdata[31]
*100 axi_rdata[3]
*101 axi_rdata[4]
*102 axi_rdata[5]
*103 axi_rdata[6]
*104 axi_rdata[7]
*105 axi_rdata[8]
*106 axi_rdata[9]
*107 axi_rready
*108 net80
*109 net81
*110 net84
*111 axi_wdata[0]
*112 axi_wdata[10]
*113 axi_wdata[11]
*114 axi_wdata[12]
*115 axi_wdata[13]
*116 axi_wdata[14]
*117 axi_wdata[15]
*118 axi_wdata[16]
*119 axi_wdata[17]
*120 axi_wdata[18]
*121 axi_wdata[19]
*122 axi_wdata[1]
*123 axi_wdata[20]
*124 axi_wdata[21]
*125 axi_wdata[22]
*126 axi_wdata[23]
*127 axi_wdata[24]
*128 axi_wdata[25]
*129 axi_wdata[26]
*130 axi_wdata[27]
*131 axi_wdata[28]
*132 axi_wdata[29]
*133 axi_wdata[2]
*134 axi_wdata[30]
*135 axi_wdata[31]
*136 axi_wdata[3]
*137 axi_wdata[4]
*138 axi_wdata[5]
*139 axi_wdata[6]
*140 axi_wdata[7]
*141 axi_wdata[8]
*142 axi_wdata[9]
*143 axi_wready
*144 axi_wstrb[0]
*145 axi_wstrb[1]
*146 axi_wstrb[2]
*147 axi_wstrb[3]
*148 axi_wvalid
*149 clk
*150 ext_interrupt
*151 gpio_in[0]
*152 gpio_in[1]
*153 gpio_in[2]
*154 gpio_in[3]
*155 gpio_in[4]
*156 gpio_in[5]
*157 gpio_in[6]
*158 gpio_in[7]
*159 gpio_out[0]
*160 gpio_out[1]
*161 gpio_out[2]
*162 gpio_out[3]
*163 gpio_out[4]
*164 gpio_out[5]
*165 gpio_out[6]
*166 gpio_out[7]
*167 rst_n
*168 uart_rx
*169 uart_tx
*170 _000_
*171 _001_
*172 _002_
*173 _003_
*174 _004_
*175 _005_
*176 _006_
*177 _007_
*178 _008_
*179 _009_
*180 _010_
*181 _011_
*182 _012_
*183 _013_
*184 _014_
*185 _015_
*186 _016_
*187 _017_
*188 _018_
*189 _019_
*190 _020_
*191 _021_
*192 _022_
*193 _023_
*194 _024_
*195 _025_
*196 _026_
*197 _027_
*198 _028_
*199 _029_
*200 _030_
*201 _031_
*202 _032_
*203 _033_
*204 _034_
*205 _035_
*206 _036_
*207 _037_
*208 _038_
*209 _039_
*210 _040_
*211 _041_
*212 _042_
*213 _043_
*214 _044_
*215 _045_
*216 _046_
*217 _047_
*218 _048_
*219 _049_
*220 _050_
*221 _051_
*222 _052_
*223 _053_
*224 _054_
*225 _055_
*226 _056_
*227 _057_
*228 _058_
*229 _059_
*230 _060_
*231 _061_
*232 _062_
*233 _063_
*234 _064_
*235 _065_
*236 _066_
*237 _067_
*238 _068_
*239 _069_
*240 _070_
*241 _071_
*242 _072_
*243 _073_
*244 _074_
*245 _075_
*246 _076_
*247 clknet_0_clk
*248 clknet_2_0__leaf_clk
*249 clknet_2_1__leaf_clk
*250 clknet_2_2__leaf_clk
*251 clknet_2_3__leaf_clk
*252 counter\[0\]
*253 counter\[10\]
*254 counter\[11\]
*255 counter\[12\]
*256 counter\[13\]
*257 counter\[14\]
*258 counter\[15\]
*259 counter\[16\]
*260 counter\[17\]
*261 counter\[18\]
*262 counter\[19\]
*263 counter\[1\]
*264 counter\[20\]
*265 counter\[21\]
*266 counter\[22\]
*267 counter\[23\]
*268 counter\[24\]
*269 counter\[25\]
*270 counter\[26\]
*271 counter\[27\]
*272 counter\[28\]
*273 counter\[29\]
*274 counter\[2\]
*275 counter\[30\]
*276 counter\[31\]
*277 counter\[3\]
*278 counter\[4\]
*279 counter\[5\]
*280 counter\[6\]
*281 counter\[7\]
*282 counter\[8\]
*283 counter\[9\]
*284 net1
*285 net10
*286 net100
*287 net101
*288 net102
*289 net103
*290 net104
*291 net11
*292 net12
*293 net13
*294 net14
*295 net15
*296 net16
*297 net17
*298 net18
*299 net19
*300 net2
*301 net20
*302 net21
*303 net22
*304 net23
*305 net24
*306 net25
*307 net26
*308 net27
*309 net28
*310 net29
*311 net3
*312 net30
*313 net31
*314 net32
*315 net33
*316 net34
*317 net35
*318 net36
*319 net37
*320 net38
*321 net39
*322 net4
*323 net40
*324 net41
*325 net42
*326 net43
*327 net44
*328 net45
*329 net46
*330 net47
*331 net48
*332 net49
*333 net5
*334 net50
*335 net51
*336 net52
*337 net53
*338 net54
*339 net55
*340 net56
*341 net57
*342 net58
*343 net59
*344 net6
*345 net60
*346 net61
*347 net62
*348 net63
*349 net64
*350 net65
*351 net66
*352 net67
*353 net68
*354 net69
*355 net7
*356 net70
*357 net71
*358 net72
*359 net73
*360 net74
*361 net75
*362 net76
*363 net77
*364 net78
*365 net79
*366 net8
*367 net85
*368 net86
*369 net87
*370 net88
*371 net89
*372 net9
*373 net90
*374 net91
*375 net92
*376 net93
*377 net94
*378 net95
*379 net96
*380 net97
*381 net98
*382 net99
*383 FILLER_0_110
*384 FILLER_0_146
*385 FILLER_0_29
*386 FILLER_0_3
*387 FILLER_0_45
*388 FILLER_0_57
*389 FILLER_0_71
*390 FILLER_0_74
*391 FILLER_0_85
*392 FILLER_0_95
*393 FILLER_10_136
*394 FILLER_10_139
*395 FILLER_10_25
*396 FILLER_10_29
*397 FILLER_10_3
*398 FILLER_10_32
*399 FILLER_10_43
*400 FILLER_10_67
*401 FILLER_10_93
*402 FILLER_11_113
*403 FILLER_11_144
*404 FILLER_11_25
*405 FILLER_11_3
*406 FILLER_11_44
*407 FILLER_11_47
*408 FILLER_11_50
*409 FILLER_11_53
*410 FILLER_11_57
*411 FILLER_11_60
*412 FILLER_11_63
*413 FILLER_11_66
*414 FILLER_11_78
*415 FILLER_12_141
*416 FILLER_12_144
*417 FILLER_12_3
*418 FILLER_12_50
*419 FILLER_12_53
*420 FILLER_12_56
*421 FILLER_12_59
*422 FILLER_12_6
*423 FILLER_12_62
*424 FILLER_12_85
*425 FILLER_13_129
*426 FILLER_13_144
*427 FILLER_13_3
*428 FILLER_13_33
*429 FILLER_13_42
*430 FILLER_13_52
*431 FILLER_13_55
*432 FILLER_13_57
*433 FILLER_13_6
*434 FILLER_13_60
*435 FILLER_13_63
*436 FILLER_13_66
*437 FILLER_13_69
*438 FILLER_13_72
*439 FILLER_13_75
*440 FILLER_13_78
*441 FILLER_13_81
*442 FILLER_13_84
*443 FILLER_13_87
*444 FILLER_13_90
*445 FILLER_13_93
*446 FILLER_14_102
*447 FILLER_14_125
*448 FILLER_14_141
*449 FILLER_14_144
*450 FILLER_14_24
*451 FILLER_14_27
*452 FILLER_14_34
*453 FILLER_14_44
*454 FILLER_14_72
*455 FILLER_14_75
*456 FILLER_14_78
*457 FILLER_14_81
*458 FILLER_14_85
*459 FILLER_14_88
*460 FILLER_14_91
*461 FILLER_14_94
*462 FILLER_15_53
*463 FILLER_15_63
*464 FILLER_15_91
*465 FILLER_15_94
*466 FILLER_16_135
*467 FILLER_16_138
*468 FILLER_16_141
*469 FILLER_16_144
*470 FILLER_16_24
*471 FILLER_16_27
*472 FILLER_16_69
*473 FILLER_17_103
*474 FILLER_17_126
*475 FILLER_17_129
*476 FILLER_17_144
*477 FILLER_17_41
*478 FILLER_17_44
*479 FILLER_17_47
*480 FILLER_17_57
*481 FILLER_17_6
*482 FILLER_17_60
*483 FILLER_17_70
*484 FILLER_17_73
*485 FILLER_18_106
*486 FILLER_18_109
*487 FILLER_18_137
*488 FILLER_18_141
*489 FILLER_18_144
*490 FILLER_18_29
*491 FILLER_18_38
*492 FILLER_18_41
*493 FILLER_18_44
*494 FILLER_18_47
*495 FILLER_18_50
*496 FILLER_19_103
*497 FILLER_19_106
*498 FILLER_19_109
*499 FILLER_19_113
*500 FILLER_19_144
*501 FILLER_19_19
*502 FILLER_19_26
*503 FILLER_19_29
*504 FILLER_19_32
*505 FILLER_19_35
*506 FILLER_19_43
*507 FILLER_19_55
*508 FILLER_19_57
*509 FILLER_19_74
*510 FILLER_1_12
*511 FILLER_1_146
*512 FILLER_1_3
*513 FILLER_1_51
*514 FILLER_1_54
*515 FILLER_1_57
*516 FILLER_1_6
*517 FILLER_1_60
*518 FILLER_1_63
*519 FILLER_1_77
*520 FILLER_1_80
*521 FILLER_1_9
*522 FILLER_1_91
*523 FILLER_20_11
*524 FILLER_20_111
*525 FILLER_20_114
*526 FILLER_20_117
*527 FILLER_20_120
*528 FILLER_20_123
*529 FILLER_20_14
*530 FILLER_20_141
*531 FILLER_20_144
*532 FILLER_20_17
*533 FILLER_20_20
*534 FILLER_20_23
*535 FILLER_20_26
*536 FILLER_20_29
*537 FILLER_20_32
*538 FILLER_20_83
*539 FILLER_20_85
*540 FILLER_20_93
*541 FILLER_20_96
*542 FILLER_21_11
*543 FILLER_21_111
*544 FILLER_21_119
*545 FILLER_21_122
*546 FILLER_21_125
*547 FILLER_21_128
*548 FILLER_21_14
*549 FILLER_21_17
*550 FILLER_21_20
*551 FILLER_21_78
*552 FILLER_21_81
*553 FILLER_22_114
*554 FILLER_22_117
*555 FILLER_22_120
*556 FILLER_22_123
*557 FILLER_22_126
*558 FILLER_22_129
*559 FILLER_22_132
*560 FILLER_22_135
*561 FILLER_22_138
*562 FILLER_22_141
*563 FILLER_22_15
*564 FILLER_22_18
*565 FILLER_22_29
*566 FILLER_22_53
*567 FILLER_22_6
*568 FILLER_22_81
*569 FILLER_22_9
*570 FILLER_23_11
*571 FILLER_23_111
*572 FILLER_23_121
*573 FILLER_23_124
*574 FILLER_23_127
*575 FILLER_23_130
*576 FILLER_23_133
*577 FILLER_23_136
*578 FILLER_23_14
*579 FILLER_23_17
*580 FILLER_23_65
*581 FILLER_23_68
*582 FILLER_24_106
*583 FILLER_24_109
*584 FILLER_24_129
*585 FILLER_24_132
*586 FILLER_24_135
*587 FILLER_24_138
*588 FILLER_24_141
*589 FILLER_24_144
*590 FILLER_24_27
*591 FILLER_24_29
*592 FILLER_24_3
*593 FILLER_24_32
*594 FILLER_24_35
*595 FILLER_24_49
*596 FILLER_24_57
*597 FILLER_24_6
*598 FILLER_24_9
*599 FILLER_2_12
*600 FILLER_2_135
*601 FILLER_2_138
*602 FILLER_2_141
*603 FILLER_2_144
*604 FILLER_2_15
*605 FILLER_2_18
*606 FILLER_2_29
*607 FILLER_2_6
*608 FILLER_2_70
*609 FILLER_2_9
*610 FILLER_3_12
*611 FILLER_3_129
*612 FILLER_3_15
*613 FILLER_3_18
*614 FILLER_3_21
*615 FILLER_3_57
*616 FILLER_3_6
*617 FILLER_3_9
*618 FILLER_4_118
*619 FILLER_4_12
*620 FILLER_4_141
*621 FILLER_4_144
*622 FILLER_4_15
*623 FILLER_4_18
*624 FILLER_4_21
*625 FILLER_4_24
*626 FILLER_4_27
*627 FILLER_4_29
*628 FILLER_4_3
*629 FILLER_4_6
*630 FILLER_4_81
*631 FILLER_4_85
*632 FILLER_4_9
*633 FILLER_5_11
*634 FILLER_5_111
*635 FILLER_5_113
*636 FILLER_5_116
*637 FILLER_5_125
*638 FILLER_5_14
*639 FILLER_5_17
*640 FILLER_5_28
*641 FILLER_5_31
*642 FILLER_5_57
*643 FILLER_5_60
*644 FILLER_5_77
*645 FILLER_5_80
*646 FILLER_6_116
*647 FILLER_6_19
*648 FILLER_6_85
*649 FILLER_7_28
*650 FILLER_7_3
*651 FILLER_7_31
*652 FILLER_7_34
*653 FILLER_7_37
*654 FILLER_7_53
*655 FILLER_7_6
*656 FILLER_8_141
*657 FILLER_8_144
*658 FILLER_8_3
*659 FILLER_8_37
*660 FILLER_8_6
*661 FILLER_8_80
*662 FILLER_8_83
*663 FILLER_9_121
*664 FILLER_9_145
*665 FILLER_9_24
*666 FILLER_9_41
*667 FILLER_9_57
*668 FILLER_9_72
*669 PHY_EDGE_ROW_0_Left_25
*670 PHY_EDGE_ROW_0_Right_0
*671 PHY_EDGE_ROW_10_Left_35
*672 PHY_EDGE_ROW_10_Right_10
*673 PHY_EDGE_ROW_11_Left_36
*674 PHY_EDGE_ROW_11_Right_11
*675 PHY_EDGE_ROW_12_Left_37
*676 PHY_EDGE_ROW_12_Right_12
*677 PHY_EDGE_ROW_13_Left_38
*678 PHY_EDGE_ROW_13_Right_13
*679 PHY_EDGE_ROW_14_Left_39
*680 PHY_EDGE_ROW_14_Right_14
*681 PHY_EDGE_ROW_15_Left_40
*682 PHY_EDGE_ROW_15_Right_15
*683 PHY_EDGE_ROW_16_Left_41
*684 PHY_EDGE_ROW_16_Right_16
*685 PHY_EDGE_ROW_17_Left_42
*686 PHY_EDGE_ROW_17_Right_17
*687 PHY_EDGE_ROW_18_Left_43
*688 PHY_EDGE_ROW_18_Right_18
*689 PHY_EDGE_ROW_19_Left_44
*690 PHY_EDGE_ROW_19_Right_19
*691 PHY_EDGE_ROW_1_Left_26
*692 PHY_EDGE_ROW_1_Right_1
*693 PHY_EDGE_ROW_20_Left_45
*694 PHY_EDGE_ROW_20_Right_20
*695 PHY_EDGE_ROW_21_Left_46
*696 PHY_EDGE_ROW_21_Right_21
*697 PHY_EDGE_ROW_22_Left_47
*698 PHY_EDGE_ROW_22_Right_22
*699 PHY_EDGE_ROW_23_Left_48
*700 PHY_EDGE_ROW_23_Right_23
*701 PHY_EDGE_ROW_24_Left_49
*702 PHY_EDGE_ROW_24_Right_24
*703 PHY_EDGE_ROW_2_Left_27
*704 PHY_EDGE_ROW_2_Right_2
*705 PHY_EDGE_ROW_3_Left_28
*706 PHY_EDGE_ROW_3_Right_3
*707 PHY_EDGE_ROW_4_Left_29
*708 PHY_EDGE_ROW_4_Right_4
*709 PHY_EDGE_ROW_5_Left_30
*710 PHY_EDGE_ROW_5_Right_5
*711 PHY_EDGE_ROW_6_Left_31
*712 PHY_EDGE_ROW_6_Right_6
*713 PHY_EDGE_ROW_7_Left_32
*714 PHY_EDGE_ROW_7_Right_7
*715 PHY_EDGE_ROW_8_Left_33
*716 PHY_EDGE_ROW_8_Right_8
*717 PHY_EDGE_ROW_9_Left_34
*718 PHY_EDGE_ROW_9_Right_9
*719 TAP_TAPCELL_ROW_0_50
*720 TAP_TAPCELL_ROW_0_51
*721 TAP_TAPCELL_ROW_0_52
*722 TAP_TAPCELL_ROW_0_53
*723 TAP_TAPCELL_ROW_0_54
*724 TAP_TAPCELL_ROW_10_77
*725 TAP_TAPCELL_ROW_10_78
*726 TAP_TAPCELL_ROW_10_79
*727 TAP_TAPCELL_ROW_11_80
*728 TAP_TAPCELL_ROW_11_81
*729 TAP_TAPCELL_ROW_12_82
*730 TAP_TAPCELL_ROW_12_83
*731 TAP_TAPCELL_ROW_12_84
*732 TAP_TAPCELL_ROW_13_85
*733 TAP_TAPCELL_ROW_13_86
*734 TAP_TAPCELL_ROW_14_87
*735 TAP_TAPCELL_ROW_14_88
*736 TAP_TAPCELL_ROW_14_89
*737 TAP_TAPCELL_ROW_15_90
*738 TAP_TAPCELL_ROW_15_91
*739 TAP_TAPCELL_ROW_16_92
*740 TAP_TAPCELL_ROW_16_93
*741 TAP_TAPCELL_ROW_16_94
*742 TAP_TAPCELL_ROW_17_95
*743 TAP_TAPCELL_ROW_17_96
*744 TAP_TAPCELL_ROW_18_97
*745 TAP_TAPCELL_ROW_18_98
*746 TAP_TAPCELL_ROW_18_99
*747 TAP_TAPCELL_ROW_19_100
*748 TAP_TAPCELL_ROW_19_101
*749 TAP_TAPCELL_ROW_1_55
*750 TAP_TAPCELL_ROW_1_56
*751 TAP_TAPCELL_ROW_20_102
*752 TAP_TAPCELL_ROW_20_103
*753 TAP_TAPCELL_ROW_20_104
*754 TAP_TAPCELL_ROW_21_105
*755 TAP_TAPCELL_ROW_21_106
*756 TAP_TAPCELL_ROW_22_107
*757 TAP_TAPCELL_ROW_22_108
*758 TAP_TAPCELL_ROW_22_109
*759 TAP_TAPCELL_ROW_23_110
*760 TAP_TAPCELL_ROW_23_111
*761 TAP_TAPCELL_ROW_24_112
*762 TAP_TAPCELL_ROW_24_113
*763 TAP_TAPCELL_ROW_24_114
*764 TAP_TAPCELL_ROW_24_115
*765 TAP_TAPCELL_ROW_24_116
*766 TAP_TAPCELL_ROW_2_57
*767 TAP_TAPCELL_ROW_2_58
*768 TAP_TAPCELL_ROW_2_59
*769 TAP_TAPCELL_ROW_3_60
*770 TAP_TAPCELL_ROW_3_61
*771 TAP_TAPCELL_ROW_4_62
*772 TAP_TAPCELL_ROW_4_63
*773 TAP_TAPCELL_ROW_4_64
*774 TAP_TAPCELL_ROW_5_65
*775 TAP_TAPCELL_ROW_5_66
*776 TAP_TAPCELL_ROW_6_67
*777 TAP_TAPCELL_ROW_6_68
*778 TAP_TAPCELL_ROW_6_69
*779 TAP_TAPCELL_ROW_7_70
*780 TAP_TAPCELL_ROW_7_71
*781 TAP_TAPCELL_ROW_8_72
*782 TAP_TAPCELL_ROW_8_73
*783 TAP_TAPCELL_ROW_8_74
*784 TAP_TAPCELL_ROW_9_75
*785 TAP_TAPCELL_ROW_9_76
*786 _077_
*787 _078_
*788 _079_
*789 _080_
*790 _081_
*791 _082_
*792 _083_
*793 _084_
*794 _085_
*795 _086_
*796 _087_
*797 _088_
*798 _089_
*799 _090_
*800 _091_
*801 _092_
*802 _093_
*803 _094_
*804 _095_
*805 _096_
*806 _097_
*807 _098_
*808 _099_
*809 _100_
*810 _101_
*811 _102_
*812 _103_
*813 _104_
*814 _105_
*815 _106_
*816 _107_
*817 _108_
*818 _109_
*819 _110_
*820 _111_
*821 _112_
*822 _113_
*823 _114_
*824 _115_
*825 _116_
*826 _117_
*827 _118_
*828 _119_
*829 _120_
*830 _121_
*831 _122_
*832 _123_
*833 _124_
*834 _125_
*835 _126_
*836 _127_
*837 _128_
*838 _129_
*839 _130_
*840 _131_
*841 _132_
*842 _133_
*843 _134_
*844 _135_
*845 _136_
*846 _137_
*847 _138_
*848 _139_
*849 _140_
*850 _141_
*851 _142_
*852 _143_
*853 _144_
*854 _145_
*855 _146_
*856 _147_
*857 _148_
*858 _149_
*859 _150_
*860 _151_
*861 _152_
*862 _153_
*863 _154_
*864 _155_
*865 _156_
*866 _157_
*867 _158_
*868 _159_
*869 _160_
*870 _161_
*871 _162_
*872 _163_
*873 _164_
*874 _165_
*875 _166_
*876 _167_
*877 _168_
*878 _169_
*879 _170_
*880 _171_
*881 _172_
*882 _173_
*883 _174_
*884 _175_
*885 _176_
*886 _177_
*887 _178_
*888 _179_
*889 _180_
*890 _181_
*891 _182_
*892 _183_
*893 _184_
*894 _185_
*895 _186_
*896 _187_
*897 _188_
*898 _189_
*899 _190_
*900 _191_
*901 _192_
*902 _193_
*903 _194_
*904 _195_
*905 _196_
*906 _197_
*907 _198_
*908 _199_
*909 _200_
*910 _201_
*911 _202_
*912 _203_
*913 _204_
*914 _205_
*915 _206_
*916 _207_
*917 _208_
*918 _209_
*919 _210_
*920 _211_
*921 _212_
*922 _213_
*923 _214_
*924 _215_
*925 _216_
*926 _217_
*927 _218_
*928 _219_
*929 _220_
*930 _221_
*931 _222_
*932 _223_
*933 _224_
*934 _225_
*935 _226_
*936 _233_
*937 _234_
*938 _235_
*939 clkbuf_0_clk
*940 clkbuf_2_0__f_clk
*941 clkbuf_2_1__f_clk
*942 clkbuf_2_2__f_clk
*943 clkbuf_2_3__f_clk
*944 clkload0
*945 clkload1
*946 clkload2
*947 hold100
*948 hold101
*949 hold102
*950 hold103
*951 hold104
*952 hold85
*953 hold86
*954 hold87
*955 hold88
*956 hold89
*957 hold90
*958 hold91
*959 hold92
*960 hold93
*961 hold94
*962 hold95
*963 hold96
*964 hold97
*965 hold98
*966 hold99
*967 input1
*968 input10
*969 input11
*970 input12
*971 input13
*972 input14
*973 input15
*974 input16
*975 input17
*976 input18
*977 input19
*978 input2
*979 input20
*980 input21
*981 input22
*982 input23
*983 input24
*984 input25
*985 input26
*986 input27
*987 input28
*988 input29
*989 input3
*990 input30
*991 input31
*992 input32
*993 input33
*994 input34
*995 input4
*996 input5
*997 input6
*998 input7
*999 input8
*1000 input9
*1001 max_cap79
*1002 output35
*1003 output36
*1004 output37
*1005 output38
*1006 output39
*1007 output40
*1008 output41
*1009 output42
*1010 output43
*1011 output44
*1012 output45
*1013 output46
*1014 output47
*1015 output48
*1016 output49
*1017 output50
*1018 output51
*1019 output52
*1020 output53
*1021 output54
*1022 output55
*1023 output56
*1024 output57
*1025 output58
*1026 output59
*1027 output60
*1028 output61
*1029 output62
*1030 output63
*1031 output64
*1032 output65
*1033 output66
*1034 output67
*1035 output68
*1036 output69
*1037 output70
*1038 output71
*1039 output72
*1040 output73
*1041 output74
*1042 output75
*1043 output76
*1044 output77
*1045 output78
*1046 riscv_soc_top
*1047 riscv_soc_top_80
*1048 riscv_soc_top_81
*1049 riscv_soc_top_82
*1050 riscv_soc_top_83
*1051 riscv_soc_top_84

*PORTS
axi_araddr[0] I
axi_araddr[10] I
axi_araddr[11] I
axi_araddr[12] I
axi_araddr[13] I
axi_araddr[14] I
axi_araddr[15] I
axi_araddr[16] I
axi_araddr[17] I
axi_araddr[18] I
axi_araddr[19] I
axi_araddr[1] I
axi_araddr[20] I
axi_araddr[21] I
axi_araddr[22] I
axi_araddr[23] I
axi_araddr[24] I
axi_araddr[25] I
axi_araddr[26] I
axi_araddr[27] I
axi_araddr[28] I
axi_araddr[29] I
axi_araddr[2] I
axi_araddr[30] I
axi_araddr[31] I
axi_araddr[3] I
axi_araddr[4] I
axi_araddr[5] I
axi_araddr[6] I
axi_araddr[7] I
axi_araddr[8] I
axi_araddr[9] I
axi_arready O
axi_arvalid I
axi_awaddr[0] I
axi_awaddr[10] I
axi_awaddr[11] I
axi_awaddr[12] I
axi_awaddr[13] I
axi_awaddr[14] I
axi_awaddr[15] I
axi_awaddr[16] I
axi_awaddr[17] I
axi_awaddr[18] I
axi_awaddr[19] I
axi_awaddr[1] I
axi_awaddr[20] I
axi_awaddr[21] I
axi_awaddr[22] I
axi_awaddr[23] I
axi_awaddr[24] I
axi_awaddr[25] I
axi_awaddr[26] I
axi_awaddr[27] I
axi_awaddr[28] I
axi_awaddr[29] I
axi_awaddr[2] I
axi_awaddr[30] I
axi_awaddr[31] I
axi_awaddr[3] I
axi_awaddr[4] I
axi_awaddr[5] I
axi_awaddr[6] I
axi_awaddr[7] I
axi_awaddr[8] I
axi_awaddr[9] I
axi_awready O
axi_awvalid I
axi_bready I
axi_bresp[0] O
axi_bresp[1] O
axi_bvalid O
axi_rdata[0] O
axi_rdata[10] O
axi_rdata[11] O
axi_rdata[12] O
axi_rdata[13] O
axi_rdata[14] O
axi_rdata[15] O
axi_rdata[16] O
axi_rdata[17] O
axi_rdata[18] O
axi_rdata[19] O
axi_rdata[1] O
axi_rdata[20] O
axi_rdata[21] O
axi_rdata[22] O
axi_rdata[23] O
axi_rdata[24] O
axi_rdata[25] O
axi_rdata[26] O
axi_rdata[27] O
axi_rdata[28] O
axi_rdata[29] O
axi_rdata[2] O
axi_rdata[30] O
axi_rdata[31] O
axi_rdata[3] O
axi_rdata[4] O
axi_rdata[5] O
axi_rdata[6] O
axi_rdata[7] O
axi_rdata[8] O
axi_rdata[9] O
axi_rready I
axi_rresp[0] O
axi_rresp[1] O
axi_rvalid O
axi_wdata[0] I
axi_wdata[10] I
axi_wdata[11] I
axi_wdata[12] I
axi_wdata[13] I
axi_wdata[14] I
axi_wdata[15] I
axi_wdata[16] I
axi_wdata[17] I
axi_wdata[18] I
axi_wdata[19] I
axi_wdata[1] I
axi_wdata[20] I
axi_wdata[21] I
axi_wdata[22] I
axi_wdata[23] I
axi_wdata[24] I
axi_wdata[25] I
axi_wdata[26] I
axi_wdata[27] I
axi_wdata[28] I
axi_wdata[29] I
axi_wdata[2] I
axi_wdata[30] I
axi_wdata[31] I
axi_wdata[3] I
axi_wdata[4] I
axi_wdata[5] I
axi_wdata[6] I
axi_wdata[7] I
axi_wdata[8] I
axi_wdata[9] I
axi_wready O
axi_wstrb[0] I
axi_wstrb[1] I
axi_wstrb[2] I
axi_wstrb[3] I
axi_wvalid I
clk I
ext_interrupt I
gpio_in[0] I
gpio_in[1] I
gpio_in[2] I
gpio_in[3] I
gpio_in[4] I
gpio_in[5] I
gpio_in[6] I
gpio_in[7] I
gpio_out[0] O
gpio_out[1] O
gpio_out[2] O
gpio_out[3] O
gpio_out[4] O
gpio_out[5] O
gpio_out[6] O
gpio_out[7] O
rst_n I
uart_rx I
uart_tx O

*D_NET *3 0.0019697
*CONN
*P axi_araddr[0] I
*I *967:A I *D sky130_fd_sc_hd__clkdlybuf4s25_1
*CAP
1 axi_araddr[0] 0.000730092
2 *967:A 0
3 *3:11 0.000730092
4 *3:11 axi_rdata[0] 0
5 *3:11 *1034:A 0.00010018
6 *3:11 *25:17 0
7 *3:11 *105:8 0.00026808
8 *3:11 *316:6 0.000109137
9 *3:11 *316:14 3.21223e-05
*RES
1 axi_araddr[0] *3:11 32.0064 
2 *3:11 *967:A 23 
*END

*D_NET *4 0.00340708
*CONN
*P axi_araddr[10] I
*I *978:A I *D sky130_fd_sc_hd__clkdlybuf4s25_1
*CAP
1 axi_araddr[10] 0.00101493
2 *978:A 0
3 *4:17 0.00101493
4 *4:17 axi_rdata[10] 0.000743371
5 *4:17 gpio_out[4] 8.32084e-05
6 *4:17 gpio_out[5] 0.000176916
7 *4:17 *1039:A 0.000279227
8 *4:17 *161:8 8.7975e-05
9 *4:17 *358:8 6.51997e-06
*RES
1 axi_araddr[10] *4:17 42.3908 
2 *4:17 *978:A 23 
*END

*D_NET *5 0.00450506
*CONN
*P axi_araddr[11] I
*I *989:A I *D sky130_fd_sc_hd__clkdlybuf4s25_1
*CAP
1 axi_araddr[11] 0.00124438
2 *989:A 0
3 *5:11 0.00124438
4 *5:11 axi_rdata[15] 0.00035626
5 *5:11 gpio_out[7] 0.000108796
6 *5:11 *799:B 5.59613e-05
7 *5:11 *850:D 5.38017e-05
8 *5:11 *1007:A 0.000560164
9 *5:11 *6:11 0
10 *5:11 *248:120 0.000219891
11 *5:11 *250:48 0.000213764
12 *5:11 *255:65 1.27508e-05
13 *5:11 *255:80 0.000153173
14 *5:11 *256:14 0.000281738
15 *5:11 *361:14 0
16 *5:11 *370:8 0
*RES
1 axi_araddr[11] *5:11 39.1902 
2 *5:11 *989:A 23 
*END

*D_NET *6 0.00446346
*CONN
*P axi_araddr[12] I
*I *995:A I *D sky130_fd_sc_hd__clkdlybuf4s25_1
*CAP
1 axi_araddr[12] 0.00170438
2 *995:A 0
3 *6:11 0.00170438
4 *6:11 axi_rdata[12] 0.000415154
5 *6:11 *911:RESET_B 9.54122e-05
6 *6:11 *7:13 0.000423965
7 *6:11 *81:6 0.000120171
8 *6:11 *258:46 0
9 *5:11 *6:11 0
*RES
1 axi_araddr[12] *6:11 30.6095 
2 *6:11 *995:A 23 
*END

*D_NET *7 0.00356454
*CONN
*P axi_araddr[13] I
*I *996:A I *D sky130_fd_sc_hd__clkdlybuf4s25_1
*CAP
1 axi_araddr[13] 0.000956444
2 *996:A 0
3 *7:13 0.000956444
4 *7:13 axi_rdata[12] 0.000440896
5 *7:13 axi_rdata[13] 0
6 *7:13 gpio_out[5] 0
7 *7:13 *930:RESET_B 0
8 *7:13 *161:8 4.78267e-05
9 *7:13 *163:6 9.41704e-05
10 *7:13 *320:8 5.83896e-05
11 *7:13 *358:8 0.000586402
12 *7:13 *365:287 0
13 *7:13 *365:289 0
14 *6:11 *7:13 0.000423965
*RES
1 axi_araddr[13] *7:13 41.74 
2 *7:13 *996:A 23 
*END

*D_NET *8 0.00200027
*CONN
*P axi_araddr[14] I
*I *997:A I *D sky130_fd_sc_hd__clkdlybuf4s25_1
*CAP
1 axi_araddr[14] 0.000481908
2 *997:A 0
3 *8:11 0.000481908
4 *8:11 axi_rdata[14] 0.000101444
5 *8:11 axi_rresp[0] 0
6 *8:11 gpio_out[6] 0.000159717
7 *8:11 *9:13 0
8 *8:11 *70:15 3.05324e-05
9 *8:11 *108:10 0.000335116
10 *8:11 *165:10 0
11 *8:11 *362:8 0.000287342
12 *8:11 *363:14 0.000122304
*RES
1 axi_araddr[14] *8:11 31.3147 
2 *8:11 *997:A 23 
*END

*D_NET *9 0.00344179
*CONN
*P axi_araddr[15] I
*I *998:A I *D sky130_fd_sc_hd__clkdlybuf4s25_1
*CAP
1 axi_araddr[15] 0.000713811
2 *998:A 0
3 *9:13 0.000713811
4 *9:13 axi_rdata[14] 0.000366675
5 *9:13 gpio_out[7] 0.000446404
6 *9:13 *802:B 0.000327967
7 *9:13 *69:10 2.25493e-05
8 *9:13 *318:10 0
9 *9:13 *363:14 0.000850576
10 *8:11 *9:13 0
*RES
1 axi_araddr[15] *9:13 39.8373 
2 *9:13 *998:A 23 
*END

*D_NET *10 0.00289234
*CONN
*P axi_araddr[16] I
*I *999:A I *D sky130_fd_sc_hd__clkdlybuf4s25_1
*CAP
1 axi_araddr[16] 0.000806637
2 *999:A 0
3 *10:13 0.000806637
4 *10:13 axi_rdata[16] 9.94834e-05
5 *10:13 *803:B 0.000607444
6 *10:13 *82:6 0.000123997
7 *10:13 *327:8 0.000448137
*RES
1 axi_araddr[16] *10:13 36.9209 
2 *10:13 *999:A 23 
*END

*D_NET *11 0.00455276
*CONN
*P axi_araddr[17] I
*I *1000:A I *D sky130_fd_sc_hd__clkdlybuf4s25_1
*CAP
1 axi_araddr[17] 0.00183881
2 *1000:A 0
3 *11:13 0.00183881
4 *11:13 axi_rdata[11] 0
5 *11:13 axi_rdata[16] 0
6 *11:13 *803:B 0.000106693
7 *11:13 *12:13 0.000452948
8 *11:13 *84:10 0.000121642
9 *11:13 *225:12 2.26497e-05
10 *11:13 *226:20 0.000171218
11 *11:13 *250:123 0
*RES
1 axi_araddr[17] *11:13 38.0167 
2 *11:13 *1000:A 38 
*END

*D_NET *12 0.00439473
*CONN
*P axi_araddr[18] I
*I *968:A I *D sky130_fd_sc_hd__clkdlybuf4s25_1
*CAP
1 axi_araddr[18] 0.00155433
2 *968:A 0
3 *12:13 0.00155433
4 *12:13 axi_rdata[11] 0.000439232
5 *12:13 axi_rdata[17] 0.000296449
6 *12:13 *84:10 9.74346e-05
7 *12:13 *226:20 0
8 *11:13 *12:13 0.000452948
*RES
1 axi_araddr[18] *12:13 35.6202 
2 *12:13 *968:A 38 
*END

*D_NET *13 0.00167035
*CONN
*P axi_araddr[19] I
*I *969:A I *D sky130_fd_sc_hd__clkdlybuf4s25_1
*CAP
1 axi_araddr[19] 0.000770318
2 *969:A 0
3 *13:9 0.000770318
4 *13:9 axi_rdata[11] 0
5 *13:9 axi_rdata[19] 0
6 *13:9 gpio_out[3] 0
7 *13:9 *83:14 0
8 *13:9 *162:8 4.06849e-05
9 *13:9 *291:10 7.88828e-05
10 *13:9 *359:12 1.01436e-05
*RES
1 axi_araddr[19] *13:9 32.343 
2 *13:9 *969:A 23 
*END

*D_NET *14 0.00639551
*CONN
*P axi_araddr[1] I
*I *970:A I *D sky130_fd_sc_hd__clkdlybuf4s25_1
*CAP
1 axi_araddr[1] 0.000457758
2 *970:A 1.50079e-05
3 *14:13 0.00132449
4 *14:11 0.00176724
5 *970:A *886:A 5.50049e-05
6 *970:A *292:8 5.50049e-05
7 *14:11 axi_rdata[0] 0.00018355
8 *14:11 *25:11 0
9 *14:13 axi_rdata[8] 0.000286683
10 *14:13 *787:A 8.8178e-05
11 *14:13 *824:A3 1.25419e-05
12 *14:13 *825:A_N 3.62568e-05
13 *14:13 *25:17 0
14 *14:13 *33:9 0.000428507
15 *14:13 *170:10 0.000143166
16 *14:13 *205:77 7.74223e-05
17 *14:13 *205:88 0.000314686
18 *14:13 *249:24 0.000129923
19 *14:13 *252:10 0.000138297
20 *14:13 *263:12 0.000108129
21 *14:13 *274:10 0.000135862
22 *14:13 *283:22 0
23 *14:13 *283:68 0.000164291
24 *14:13 *284:10 4.99753e-06
25 *14:13 *305:10 7.20154e-05
26 *14:13 *352:10 0.000396497
27 *14:13 *353:10 0
*RES
1 axi_araddr[1] *14:11 40.5436 
2 *14:11 *14:13 36.0636 
3 *14:13 *970:A 38.6214 
*END

*D_NET *15 0.00151571
*CONN
*P axi_araddr[20] I
*I *971:A I *D sky130_fd_sc_hd__clkdlybuf4s25_1
*CAP
1 axi_araddr[20] 0.000504093
2 *971:A 0
3 *15:13 0.000504093
4 *15:13 *17:11 0.000475235
5 *15:13 *293:10 3.22879e-05
6 *15:13 *330:10 0
*RES
1 axi_araddr[20] *15:13 30.2509 
2 *15:13 *971:A 23 
*END

*D_NET *16 0.00328492
*CONN
*P axi_araddr[21] I
*I *972:A I *D sky130_fd_sc_hd__clkdlybuf4s25_1
*CAP
1 axi_araddr[21] 0.000534882
2 *972:A 0
3 *16:11 0.000534882
4 *16:11 axi_rdata[20] 0.000536067
5 *16:11 *808:A 2.93747e-05
6 *16:11 *808:B 0.000297049
7 *16:11 *1017:A 0.000361027
8 *16:11 *17:11 0.000538532
9 *16:11 *88:8 0.000453107
*RES
1 axi_araddr[21] *16:11 40.1109 
2 *16:11 *972:A 23 
*END

*D_NET *17 0.00321252
*CONN
*P axi_araddr[22] I
*I *973:A I *D sky130_fd_sc_hd__clkdlybuf4s25_1
*CAP
1 axi_araddr[22] 0.000791673
2 *973:A 0
3 *17:11 0.000791673
4 *17:11 axi_rdata[20] 0
5 *17:11 *264:69 0.000516381
6 *17:11 *265:35 4.34173e-05
7 *17:11 *293:10 5.561e-05
8 *15:13 *17:11 0.000475235
9 *16:11 *17:11 0.000538532
*RES
1 axi_araddr[22] *17:11 39.7173 
2 *17:11 *973:A 23 
*END

*D_NET *18 0.00347467
*CONN
*P axi_araddr[23] I
*I *974:A I *D sky130_fd_sc_hd__clkdlybuf4s25_1
*CAP
1 axi_araddr[23] 0.000800547
2 *974:A 0
3 *18:17 0.000800547
4 *18:17 axi_rdata[23] 0.000945307
5 *18:17 axi_rdata[24] 0.000398757
6 *18:17 axi_rdata[25] 0
7 *18:17 *811:A 9.17998e-05
8 *18:17 *89:10 0.000158984
9 *18:17 *338:14 0.000278729
*RES
1 axi_araddr[23] *18:17 39.6947 
2 *18:17 *974:A 23 
*END

*D_NET *19 0.00231212
*CONN
*P axi_araddr[24] I
*I *975:A I *D sky130_fd_sc_hd__clkdlybuf4s25_1
*CAP
1 axi_araddr[24] 0.00101968
2 *975:A 0
3 *19:13 0.00101968
4 *19:13 axi_bresp[0] 0
5 *19:13 axi_rdata[22] 0.000136378
6 *19:13 axi_rdata[23] 0
7 *19:13 axi_rdata[24] 0.000136378
8 *19:13 *20:13 0
*RES
1 axi_araddr[24] *19:13 43.8252 
2 *19:13 *975:A 23 
*END

*D_NET *20 0.00274975
*CONN
*P axi_araddr[25] I
*I *976:A I *D sky130_fd_sc_hd__clkdlybuf4s25_1
*CAP
1 axi_araddr[25] 0.00106206
2 *976:A 0
3 *20:13 0.00106206
4 *20:13 axi_rdata[23] 0.000265727
5 *20:13 axi_rdata[25] 0.000265727
6 *20:13 *91:8 9.41704e-05
7 *20:13 *338:14 0
8 *19:13 *20:13 0
*RES
1 axi_araddr[25] *20:13 42.0381 
2 *20:13 *976:A 23 
*END

*D_NET *21 0.00380012
*CONN
*P axi_araddr[26] I
*I *977:A I *D sky130_fd_sc_hd__clkdlybuf4s25_1
*CAP
1 axi_araddr[26] 0.000952135
2 *977:A 0
3 *21:23 0.000952135
4 *21:23 *814:A 0.000142523
5 *21:23 *883:B 0.00034107
6 *21:23 *883:D 5.3304e-05
7 *21:23 *1029:A 7.88828e-05
8 *21:23 *22:15 0.000598653
9 *21:23 *23:15 0.000322331
10 *21:23 *237:42 6.54004e-05
11 *21:23 *240:10 0.000143655
12 *21:23 *269:48 5.67058e-05
13 *21:23 *340:12 9.33238e-05
*RES
1 axi_araddr[26] *21:23 40.1093 
2 *21:23 *977:A 23 
*END

*D_NET *22 0.00442929
*CONN
*P axi_araddr[27] I
*I *979:A I *D sky130_fd_sc_hd__clkdlybuf4s25_1
*CAP
1 axi_araddr[27] 0.00116378
2 *979:A 0
3 *22:15 0.00116378
4 *22:15 axi_rdata[26] 5.0287e-05
5 *22:15 axi_rdata[27] 0.000875985
6 *22:15 *815:B 0
7 *22:15 *27:17 0
8 *22:15 *93:8 9.31554e-05
9 *22:15 *241:31 0.000148916
10 *22:15 *249:125 0
11 *22:15 *268:37 8.98937e-05
12 *22:15 *269:48 7.14436e-05
13 *22:15 *270:24 0.000104378
14 *22:15 *306:12 0
15 *22:15 *347:18 5.87687e-05
16 *22:15 *365:54 1.02387e-05
17 *21:23 *22:15 0.000598653
*RES
1 axi_araddr[27] *22:15 33.0291 
2 *22:15 *979:A 23 
*END

*D_NET *23 0.00391867
*CONN
*P axi_araddr[28] I
*I *980:A I *D sky130_fd_sc_hd__clkdlybuf4s25_1
*CAP
1 axi_araddr[28] 0.000813145
2 *980:A 0
3 *23:15 0.000813145
4 *23:15 *818:A 7.53384e-06
5 *23:15 *27:17 0.000561496
6 *23:15 *95:10 0.000271952
7 *23:15 *301:8 0.000948839
8 *23:15 *340:12 0
9 *23:15 *346:10 0.000180224
10 *21:23 *23:15 0.000322331
*RES
1 axi_araddr[28] *23:15 39.6536 
2 *23:15 *980:A 23 
*END

*D_NET *24 0.00524013
*CONN
*P axi_araddr[29] I
*I *981:A I *D sky130_fd_sc_hd__clkdlybuf4s25_1
*CAP
1 axi_araddr[29] 0.00155856
2 *981:A 0
3 *24:15 0.00155856
4 *24:15 axi_rdata[29] 0.000717238
5 *24:15 axi_rdata[31] 0.000771556
6 *24:15 *924:CLK 0.000168985
7 *24:15 *924:RESET_B 1.93503e-05
8 *24:15 *244:10 0.000395901
9 *24:15 *246:10 0
10 *24:15 *272:10 2.64616e-05
11 *24:15 *272:52 0
12 *24:15 *303:8 2.35238e-05
*RES
1 axi_araddr[29] *24:15 41.9118 
2 *24:15 *981:A 23 
*END

*D_NET *25 0.00720481
*CONN
*P axi_araddr[2] I
*I *982:A I *D sky130_fd_sc_hd__clkdlybuf4s25_1
*CAP
1 axi_araddr[2] 0.000550074
2 *982:A 0
3 *25:17 0.00151263
4 *25:11 0.0020627
5 *25:11 axi_rdata[1] 0.000267446
6 *25:11 axi_rdata[3] 0.000267446
7 *25:17 axi_rdata[0] 0
8 *25:17 axi_rdata[8] 0.000202629
9 *25:17 *787:A 8.21019e-05
10 *25:17 *788:B 0
11 *25:17 *892:B 0.00026808
12 *25:17 *195:12 0.00127945
13 *25:17 *252:10 0.000201968
14 *25:17 *283:68 0.000139357
15 *25:17 *284:10 0.000347237
16 *25:17 *316:14 0
17 *25:17 *319:8 0
18 *25:17 *352:10 2.36844e-05
19 *3:11 *25:17 0
20 *14:11 *25:11 0
21 *14:13 *25:17 0
*RES
1 axi_araddr[2] *25:11 44.5621 
2 *25:11 *25:17 49.4893 
3 *25:17 *982:A 23 
*END

*D_NET *26 0.00638135
*CONN
*P axi_araddr[30] I
*I *983:A I *D sky130_fd_sc_hd__clkdlybuf4s25_1
*CAP
1 axi_araddr[30] 0.00170094
2 *983:A 0
3 *26:19 0.00170094
4 *26:19 axi_rdata[29] 0.000142032
5 *26:19 axi_rdata[31] 0
6 *26:19 gpio_out[0] 0.000293362
7 *26:19 gpio_out[1] 0.000950866
8 *26:19 *817:B 0.00108781
9 *26:19 *195:12 4.93359e-05
10 *26:19 *244:14 2.79044e-05
11 *26:19 *244:22 0.000221433
12 *26:19 *364:26 4.68153e-05
13 *26:19 *378:12 0.000159906
*RES
1 axi_araddr[30] *26:19 48.1069 
2 *26:19 *983:A 23 
*END

*D_NET *27 0.00435817
*CONN
*P axi_araddr[31] I
*I *984:A I *D sky130_fd_sc_hd__clkdlybuf4s25_1
*CAP
1 axi_araddr[31] 0.00127969
2 *984:A 0
3 *27:17 0.00127969
4 *27:17 axi_rdata[28] 0.000554494
5 *27:17 *815:B 0.000169781
6 *27:17 *891:C 8.14254e-05
7 *27:17 *94:10 2.93747e-05
8 *27:17 *235:45 0.000105097
9 *27:17 *246:10 2.65753e-05
10 *27:17 *272:16 1.10653e-05
11 *27:17 *272:44 2.57373e-05
12 *27:17 *275:16 7.43025e-06
13 *27:17 *341:10 0.000226306
14 *22:15 *27:17 0
15 *23:15 *27:17 0.000561496
*RES
1 axi_araddr[31] *27:17 39.3593 
2 *27:17 *984:A 23 
*END

*D_NET *28 0.00596845
*CONN
*P axi_araddr[3] I
*I *985:A I *D sky130_fd_sc_hd__clkdlybuf4s25_1
*CAP
1 axi_araddr[3] 0.00132205
2 *985:A 2.95294e-05
3 *28:9 0.00135158
4 *985:A *892:B 5.50049e-05
5 *28:9 axi_rdata[0] 0.000206861
6 *28:9 axi_rdata[1] 0.000462348
7 *28:9 axi_rdata[3] 0
8 *28:9 *788:B 0
9 *28:9 *790:B 0.00177441
10 *28:9 *896:RESET_B 0.000289411
11 *28:9 *898:RESET_B 0.000295847
12 *28:9 *242:18 0
13 *28:9 *263:68 5.19042e-05
14 *28:9 *277:29 0
15 *28:9 *315:77 0.000129504
*RES
1 axi_araddr[3] *28:9 38.9014 
2 *28:9 *985:A 38.6214 
*END

*D_NET *29 0.0033679
*CONN
*P axi_araddr[4] I
*I *986:A I *D sky130_fd_sc_hd__clkdlybuf4s25_1
*CAP
1 axi_araddr[4] 0.00105844
2 *986:A 0
3 *29:21 0.00105844
4 *29:21 axi_rdata[4] 0.000137413
5 *29:21 *791:B 0.000397531
6 *29:21 *826:B 5.67058e-05
7 *29:21 *207:10 0.000146195
8 *29:21 *248:20 9.78729e-06
9 *29:21 *278:14 0
10 *29:21 *278:31 7.25297e-05
11 *29:21 *308:8 3.46673e-05
12 *29:21 *349:12 0.000396201
*RES
1 axi_araddr[4] *29:21 40.9757 
2 *29:21 *986:A 23 
*END

*D_NET *30 0.00435253
*CONN
*P axi_araddr[5] I
*I *987:A I *D sky130_fd_sc_hd__clkdlybuf4s25_1
*CAP
1 axi_araddr[5] 0.0013755
2 *987:A 0
3 *30:9 0.0013755
4 *30:9 axi_rdata[5] 0
5 *30:9 *832:D 2.51558e-05
6 *30:9 *31:7 0
7 *30:9 *168:23 0.000774079
8 *30:9 *211:32 2.95526e-05
9 *30:9 *211:60 4.41821e-06
10 *30:9 *215:10 0.000398193
11 *30:9 *280:45 0.000237733
12 *30:9 *281:20 0.000132403
*RES
1 axi_araddr[5] *30:9 48.1221 
2 *30:9 *987:A 23 
*END

*D_NET *31 0.00508828
*CONN
*P axi_araddr[6] I
*I *988:A I *D sky130_fd_sc_hd__clkdlybuf4s25_1
*CAP
1 axi_araddr[6] 0.000885423
2 *988:A 0.000271388
3 *31:7 0.00115681
4 *988:A *248:8 5.3304e-05
5 *988:A *310:8 0.00025625
6 *31:7 axi_rdata[5] 0.000607656
7 *31:7 *32:15 0.000473271
8 *31:7 *210:18 0.000135616
9 *31:7 *280:45 7.5178e-05
10 *31:7 *281:10 0.000271103
11 *31:7 *309:8 0.000213947
12 *31:7 *312:24 0.000688331
13 *30:9 *31:7 0
*RES
1 axi_araddr[6] *31:7 44.3314 
2 *31:7 *988:A 28.8621 
*END

*D_NET *32 0.00568813
*CONN
*P axi_araddr[7] I
*I *990:A I *D sky130_fd_sc_hd__clkdlybuf4s25_1
*CAP
1 axi_araddr[7] 0.000505337
2 *990:A 0.000246488
3 *32:15 0.000751826
4 *990:A *104:14 0.00114701
5 *990:A *278:77 5.79559e-05
6 *990:A *348:8 0.000198032
7 *990:A *351:26 0.000564007
8 *32:15 *793:B 3.70094e-05
9 *32:15 *34:17 0.000479625
10 *32:15 *104:14 0.000158578
11 *32:15 *312:24 0.000398348
12 *32:15 *316:6 0.000635324
13 *32:15 *351:26 3.53115e-05
14 *31:7 *32:15 0.000473271
*RES
1 axi_araddr[7] *32:15 37.6407 
2 *32:15 *990:A 36.5057 
*END

*D_NET *33 0.00171566
*CONN
*P axi_araddr[8] I
*I *991:A I *D sky130_fd_sc_hd__clkdlybuf4s25_1
*CAP
1 axi_araddr[8] 0.000628884
2 *991:A 0
3 *33:9 0.000628884
4 *33:9 axi_rdata[9] 0
5 *33:9 *283:22 0
6 *33:9 *313:10 2.93845e-05
7 *14:13 *33:9 0.000428507
*RES
1 axi_araddr[8] *33:9 31.2193 
2 *33:9 *991:A 23 
*END

*D_NET *34 0.00513147
*CONN
*P axi_araddr[9] I
*I *992:A I *D sky130_fd_sc_hd__clkdlybuf4s25_1
*CAP
1 axi_araddr[9] 0.00110916
2 *992:A 0
3 *34:17 0.00110916
4 *34:17 axi_rdata[6] 0.00152811
5 *34:17 *793:B 0.000376533
6 *34:17 *903:RESET_B 0.000430368
7 *34:17 *940:A 5.8912e-05
8 *34:17 *350:10 3.96108e-05
9 *32:15 *34:17 0.000479625
*RES
1 axi_araddr[9] *34:17 49.1682 
2 *34:17 *992:A 23 
*END

*D_NET *35 0.00109111
*CONN
*P axi_arready O
*I *1002:X O *D sky130_fd_sc_hd__clkdlybuf4s25_1
*CAP
1 axi_arready 2.26598e-05
2 *1002:X 0.000468351
3 *35:10 0.000491011
4 axi_arready axi_bresp[1] 5.28502e-05
5 axi_arready *36:15 5.62385e-05
*RES
1 *1002:X *35:10 46.0682 
2 *35:10 axi_arready 8.18667 
*END

*D_NET *36 0.00150508
*CONN
*P axi_arvalid I
*I *936:A I *D sky130_fd_sc_hd__buf_2
*CAP
1 axi_arvalid 0.000490383
2 *936:A 0
3 *36:15 0.000490383
4 *36:15 axi_bresp[1] 0.000153139
5 *36:15 *149:10 0.000314935
6 axi_arready *36:15 5.62385e-05
*RES
1 axi_arvalid *36:15 30.6014 
2 *36:15 *936:A 23 
*END

*D_NET *69 0.00128441
*CONN
*P axi_awready O
*I *1003:X O *D sky130_fd_sc_hd__clkdlybuf4s25_1
*CAP
1 axi_awready 0.000267309
2 *1003:X 0.000197425
3 *69:10 0.000464734
4 axi_awready axi_rresp[0] 2.0847e-05
5 axi_awready *70:15 0.000311547
6 axi_awready *149:10 0
7 *69:10 *318:10 0
8 *9:13 *69:10 2.25493e-05
*RES
1 *1003:X *69:10 49.8425 
2 *69:10 axi_awready 1.30293 
*END

*D_NET *70 0.00217766
*CONN
*P axi_awvalid I
*I *937:A I *D sky130_fd_sc_hd__buf_2
*CAP
1 axi_awvalid 0.000560903
2 *937:A 0
3 *70:15 0.000560903
4 *70:15 axi_rresp[0] 0.000311124
5 *70:15 *1043:A 0.000264564
6 *70:15 *108:10 5.93891e-05
7 *70:15 *165:10 4.93223e-05
8 *70:15 *318:10 2.93747e-05
9 *70:15 *373:8 0
10 axi_awready *70:15 0.000311547
11 *8:11 *70:15 3.05324e-05
*RES
1 axi_awvalid *70:15 33.0664 
2 *70:15 *937:A 23 
*END

*D_NET *72 0.000867052
*CONN
*P axi_bresp[0] O
*I *1049:LO O *D sky130_fd_sc_hd__conb_1
*CAP
1 axi_bresp[0] 0.000433526
2 *1049:LO 0.000433526
3 axi_bresp[0] *297:8 0
4 *19:13 axi_bresp[0] 0
*RES
1 *1049:LO axi_bresp[0] 48.3367 
*END

*D_NET *73 0.00112296
*CONN
*P axi_bresp[1] O
*I *1046:LO O *D sky130_fd_sc_hd__conb_1
*CAP
1 axi_bresp[1] 0.000458488
2 *1046:LO 0.000458488
3 axi_bresp[1] *149:10 0
4 axi_arready axi_bresp[1] 5.28502e-05
5 *36:15 axi_bresp[1] 0.000153139
*RES
1 *1046:LO axi_bresp[1] 48.8639 
*END

*D_NET *74 0.00212694
*CONN
*P axi_bvalid O
*I *1050:HI O *D sky130_fd_sc_hd__conb_1
*CAP
1 axi_bvalid 0.00058223
2 *1050:HI 9.15026e-05
3 *74:8 0.000673732
4 axi_bvalid *894:B 0
5 axi_bvalid *252:71 0
6 axi_bvalid *364:37 3.70094e-05
7 *74:8 *86:10 6.17437e-06
8 *74:8 *98:6 2.80512e-05
9 *74:8 *263:76 0.000313255
10 *74:8 *345:18 0.000394988
*RES
1 *1050:HI *74:8 42.4329 
2 *74:8 axi_bvalid 12.7807 
*END

*D_NET *75 0.00512375
*CONN
*P axi_rdata[0] O
*I *1004:X O *D sky130_fd_sc_hd__clkdlybuf4s25_1
*CAP
1 axi_rdata[0] 0.000974304
2 *1004:X 0.000327017
3 *75:8 0.00130132
4 axi_rdata[0] *788:B 0.000964987
5 axi_rdata[0] *790:B 0.000302349
6 axi_rdata[0] *263:51 0.000576714
7 axi_rdata[0] *316:14 0.000195238
8 *75:8 *941:A 2.00606e-05
9 *75:8 *1004:A 2.64616e-05
10 *75:8 *247:31 4.48855e-05
11 *3:11 axi_rdata[0] 0
12 *14:11 axi_rdata[0] 0.00018355
13 *25:17 axi_rdata[0] 0
14 *28:9 axi_rdata[0] 0.000206861
*RES
1 *1004:X *75:8 41.9564 
2 *75:8 axi_rdata[0] 29.87 
*END

*D_NET *76 0.00383876
*CONN
*P axi_rdata[10] O
*I *1005:X O *D sky130_fd_sc_hd__clkdlybuf4s25_1
*CAP
1 axi_rdata[10] 0.000360674
2 *1005:X 0.000374386
3 *76:8 0.00073506
4 axi_rdata[10] gpio_out[2] 0.000347696
5 axi_rdata[10] gpio_out[5] 4.58941e-05
6 axi_rdata[10] *161:8 0.000520873
7 *76:8 *163:6 0.000710803
8 *4:17 axi_rdata[10] 0.000743371
*RES
1 *1005:X *76:8 45.7679 
2 *76:8 axi_rdata[10] 16.2289 
*END

*D_NET *77 0.00361252
*CONN
*P axi_rdata[11] O
*I *1006:X O *D sky130_fd_sc_hd__clkdlybuf4s25_1
*CAP
1 axi_rdata[11] 0.00112862
2 *1006:X 6.52773e-05
3 *77:8 0.0011939
4 axi_rdata[11] gpio_out[3] 0
5 axi_rdata[11] *860:B 3.91814e-05
6 axi_rdata[11] *915:RESET_B 0.000108569
7 axi_rdata[11] *225:12 0
8 axi_rdata[11] *226:10 0.000120633
9 axi_rdata[11] *259:50 3.21327e-05
10 axi_rdata[11] *261:26 0.00021039
11 axi_rdata[11] *261:39 0.000174407
12 axi_rdata[11] *291:10 0
13 *77:8 *861:D 0.00010018
14 *11:13 axi_rdata[11] 0
15 *12:13 axi_rdata[11] 0.000439232
16 *13:9 axi_rdata[11] 0
*RES
1 *1006:X *77:8 39.0979 
2 *77:8 axi_rdata[11] 26.8923 
*END

*D_NET *78 0.0046449
*CONN
*P axi_rdata[12] O
*I *1007:X O *D sky130_fd_sc_hd__clkdlybuf4s25_1
*CAP
1 axi_rdata[12] 0.00136734
2 *1007:X 0.000270005
3 *78:8 0.00163734
4 axi_rdata[12] axi_rdata[13] 0.000285677
5 axi_rdata[12] gpio_out[2] 0
6 axi_rdata[12] gpio_out[5] 9.81333e-06
7 *78:8 *255:34 0.000218677
8 *78:8 *365:193 0
9 *6:11 axi_rdata[12] 0.000415154
10 *7:13 axi_rdata[12] 0.000440896
*RES
1 *1007:X *78:8 43.2511 
2 *78:8 axi_rdata[12] 12.48 
*END

*D_NET *79 0.00539884
*CONN
*P axi_rdata[13] O
*I *1008:X O *D sky130_fd_sc_hd__clkdlybuf4s25_1
*CAP
1 axi_rdata[13] 0.000316451
2 *1008:X 0.00130505
3 *79:6 0.0016215
4 axi_rdata[13] gpio_out[4] 0.000426105
5 axi_rdata[13] gpio_out[5] 0.000820683
6 *79:6 *800:A 0.000165416
7 *79:6 *324:8 0.000457969
8 axi_rdata[12] axi_rdata[13] 0.000285677
9 *7:13 axi_rdata[13] 0
*RES
1 *1008:X *79:6 40.7729 
2 *79:6 axi_rdata[13] 32.3798 
*END

*D_NET *80 0.00115505
*CONN
*P axi_rdata[14] O
*I *1009:X O *D sky130_fd_sc_hd__clkdlybuf4s25_1
*CAP
1 axi_rdata[14] 0.000255064
2 *1009:X 0.000255064
3 axi_rdata[14] gpio_out[6] 0.000159717
4 axi_rdata[14] *363:14 1.70831e-05
5 *8:11 axi_rdata[14] 0.000101444
6 *9:13 axi_rdata[14] 0.000366675
*RES
1 *1009:X axi_rdata[14] 48.8639 
*END

*D_NET *81 0.00355917
*CONN
*P axi_rdata[15] O
*I *1010:X O *D sky130_fd_sc_hd__clkdlybuf4s25_1
*CAP
1 axi_rdata[15] 0.000439773
2 *1010:X 0.000642402
3 *81:6 0.00108218
4 axi_rdata[15] gpio_out[7] 0.000363286
5 axi_rdata[15] *802:B 0
6 *81:6 *799:B 0.000267167
7 *81:6 *250:48 0.000137651
8 *81:6 *256:14 5.50049e-05
9 *81:6 *323:10 9.52732e-05
10 *5:11 axi_rdata[15] 0.00035626
11 *6:11 *81:6 0.000120171
*RES
1 *1010:X *81:6 35.0557 
2 *81:6 axi_rdata[15] 29.8203 
*END

*D_NET *82 0.00409219
*CONN
*P axi_rdata[16] O
*I *1011:X O *D sky130_fd_sc_hd__clkdlybuf4s25_1
*CAP
1 axi_rdata[16] 0.000595082
2 *1011:X 0.00111733
3 *82:6 0.00171241
4 *82:6 *327:8 0.000443897
5 *10:13 axi_rdata[16] 9.94834e-05
6 *10:13 *82:6 0.000123997
7 *11:13 axi_rdata[16] 0
*RES
1 *1011:X *82:6 39.3436 
2 *82:6 axi_rdata[16] 28.573 
*END

*D_NET *83 0.00431771
*CONN
*P axi_rdata[17] O
*I *1012:X O *D sky130_fd_sc_hd__clkdlybuf4s25_1
*CAP
1 axi_rdata[17] 0.000224978
2 *1012:X 5.05779e-05
3 *83:14 0.0012917
4 *83:8 0.0011173
5 *83:8 *228:45 1.94693e-05
6 *83:14 axi_rdata[19] 0.000136469
7 *83:14 *807:A 0
8 *83:14 *916:CLK 0.000185104
9 *83:14 *84:16 0.000360958
10 *83:14 *183:8 8.62783e-05
11 *83:14 *228:73 0.000174476
12 *83:14 *251:47 0.000166513
13 *83:14 *330:10 0.000207447
14 *83:14 *359:12 0
15 *12:13 axi_rdata[17] 0.000296449
16 *13:9 *83:14 0
*RES
1 *1012:X *83:8 38.6214 
2 *83:8 *83:14 41.8457 
3 *83:14 axi_rdata[17] 22.5245 
*END

*D_NET *84 0.00407228
*CONN
*P axi_rdata[18] O
*I *1013:X O *D sky130_fd_sc_hd__clkdlybuf4s25_1
*CAP
1 axi_rdata[18] 0.000250107
2 *1013:X 0.000448298
3 *84:16 0.0011416
4 *84:10 0.00133979
5 axi_rdata[18] gpio_out[3] 0.000307178
6 *84:10 *285:10 5.27215e-06
7 *11:13 *84:10 0.000121642
8 *12:13 *84:10 9.74346e-05
9 *83:14 *84:16 0.000360958
*RES
1 *1013:X *84:10 46.5136 
2 *84:10 *84:16 49.2021 
3 *84:16 axi_rdata[18] 7.87661 
*END

*D_NET *85 0.00133495
*CONN
*P axi_rdata[19] O
*I *1014:X O *D sky130_fd_sc_hd__clkdlybuf4s25_1
*CAP
1 axi_rdata[19] 0.000513982
2 *1014:X 8.52579e-05
3 *85:8 0.000599239
4 *13:9 axi_rdata[19] 0
5 *83:14 axi_rdata[19] 0.000136469
*RES
1 *1014:X *85:8 39.0979 
2 *85:8 axi_rdata[19] 12.8066 
*END

*D_NET *86 0.00344957
*CONN
*P axi_rdata[1] O
*I *1015:X O *D sky130_fd_sc_hd__clkdlybuf4s25_1
*CAP
1 axi_rdata[1] 0.000311846
2 *1015:X 0.000515573
3 *86:10 0.000827419
4 axi_rdata[1] axi_rdata[3] 0
5 *86:10 *98:6 0.000661045
6 *86:10 *263:68 9.76748e-05
7 *86:10 *277:29 3.71369e-05
8 *86:10 *345:18 0.000143159
9 *86:10 *347:8 0.000119749
10 *25:11 axi_rdata[1] 0.000267446
11 *28:9 axi_rdata[1] 0.000462348
12 *74:8 *86:10 6.17437e-06
*RES
1 *1015:X *86:10 36.1743 
2 *86:10 axi_rdata[1] 26.7243 
*END

*D_NET *87 0.00333891
*CONN
*P axi_rdata[20] O
*I *1016:X O *D sky130_fd_sc_hd__clkdlybuf4s25_1
*CAP
1 axi_rdata[20] 0.000495322
2 *1016:X 0.000458537
3 *87:8 0.000953859
4 axi_rdata[20] axi_rdata[21] 0.00050902
5 axi_rdata[20] *265:35 0.0003175
6 axi_rdata[20] *332:10 0
7 *87:8 *264:8 2.21565e-05
8 *87:8 *264:53 4.6447e-05
9 *16:11 axi_rdata[20] 0.000536067
10 *17:11 axi_rdata[20] 0
*RES
1 *1016:X *87:8 44.3386 
2 *87:8 axi_rdata[20] 18.4409 
*END

*D_NET *88 0.00280425
*CONN
*P axi_rdata[21] O
*I *1017:X O *D sky130_fd_sc_hd__clkdlybuf4s25_1
*CAP
1 axi_rdata[21] 0.000402321
2 *1017:X 0.000518742
3 *88:8 0.000921063
4 axi_rdata[20] axi_rdata[21] 0.00050902
5 *16:11 *88:8 0.000453107
*RES
1 *1017:X *88:8 46.7207 
2 *88:8 axi_rdata[21] 12.8066 
*END

*D_NET *89 0.00293796
*CONN
*P axi_rdata[22] O
*I *1018:X O *D sky130_fd_sc_hd__clkdlybuf4s25_1
*CAP
1 axi_rdata[22] 0.00038613
2 *1018:X 0.000602555
3 *89:10 0.000988686
4 axi_rdata[22] axi_rdata[24] 0.000177787
5 *89:10 axi_rdata[24] 0.000155776
6 *89:10 *811:A 0.000178517
7 *89:10 *338:14 0.000153144
8 *18:17 *89:10 0.000158984
9 *19:13 axi_rdata[22] 0.000136378
*RES
1 *1018:X *89:10 49.7554 
2 *89:10 axi_rdata[22] 9.6548 
*END

*D_NET *90 0.00282592
*CONN
*P axi_rdata[23] O
*I *1019:X O *D sky130_fd_sc_hd__clkdlybuf4s25_1
*CAP
1 axi_rdata[23] 0.000694371
2 *1019:X 0
3 *90:6 0.000694371
4 axi_rdata[23] axi_rdata[25] 6.92538e-05
5 axi_rdata[23] *338:14 0.000156895
6 *18:17 axi_rdata[23] 0.000945307
7 *19:13 axi_rdata[23] 0
8 *20:13 axi_rdata[23] 0.000265727
*RES
1 *1019:X *90:6 38 
2 *90:6 axi_rdata[23] 23.0138 
*END

*D_NET *91 0.00385692
*CONN
*P axi_rdata[24] O
*I *1020:X O *D sky130_fd_sc_hd__clkdlybuf4s25_1
*CAP
1 axi_rdata[24] 0.000481559
2 *1020:X 0.00044012
3 *91:8 0.000921678
4 axi_rdata[24] axi_rdata[25] 0
5 axi_rdata[24] *812:B 5.11935e-06
6 axi_rdata[24] *336:8 0.000564517
7 axi_rdata[24] *338:14 0.000211285
8 *91:8 *298:8 0.000269769
9 axi_rdata[22] axi_rdata[24] 0.000177787
10 *18:17 axi_rdata[24] 0.000398757
11 *19:13 axi_rdata[24] 0.000136378
12 *20:13 *91:8 9.41704e-05
13 *89:10 axi_rdata[24] 0.000155776
*RES
1 *1020:X *91:8 46.2443 
2 *91:8 axi_rdata[24] 17.4567 
*END

*D_NET *92 0.00434971
*CONN
*P axi_rdata[25] O
*I *1021:X O *D sky130_fd_sc_hd__clkdlybuf4s25_1
*CAP
1 axi_rdata[25] 0.000896248
2 *1021:X 0.000170685
3 *92:8 0.00106693
4 axi_rdata[25] axi_rdata[26] 0.000584849
5 axi_rdata[25] *812:B 0.00098008
6 axi_rdata[25] *267:65 4.58924e-05
7 axi_rdata[25] *268:60 0.000136486
8 axi_rdata[25] *269:8 0
9 axi_rdata[25] *297:8 0.000133553
10 axi_rdata[25] *337:8 0
11 axi_rdata[23] axi_rdata[25] 6.92538e-05
12 axi_rdata[24] axi_rdata[25] 0
13 *18:17 axi_rdata[25] 0
14 *20:13 axi_rdata[25] 0.000265727
*RES
1 *1021:X *92:8 41.0036 
2 *92:8 axi_rdata[25] 26.6038 
*END

*D_NET *93 0.00438823
*CONN
*P axi_rdata[26] O
*I *1022:X O *D sky130_fd_sc_hd__clkdlybuf4s25_1
*CAP
1 axi_rdata[26] 0.000771985
2 *1022:X 0.000265564
3 *93:8 0.00103755
4 axi_rdata[26] axi_rdata[27] 0.000956728
5 *93:8 *268:25 0.000341602
6 *93:8 *268:37 2.5343e-05
7 *93:8 *269:48 0.000134424
8 *93:8 *270:24 5.09756e-05
9 *93:8 *365:54 7.57695e-05
10 axi_rdata[25] axi_rdata[26] 0.000584849
11 *22:15 axi_rdata[26] 5.0287e-05
12 *22:15 *93:8 9.31554e-05
*RES
1 *1022:X *93:8 45.3639 
2 *93:8 axi_rdata[26] 11.6297 
*END

*D_NET *94 0.00456049
*CONN
*P axi_rdata[27] O
*I *1023:X O *D sky130_fd_sc_hd__clkdlybuf4s25_1
*CAP
1 axi_rdata[27] 0.000382644
2 *1023:X 0.000376244
3 *94:10 0.000758889
4 axi_rdata[27] *813:A 0.000106693
5 *94:10 axi_rdata[28] 0.000140437
6 *94:10 *814:A 8.25833e-05
7 *94:10 *891:C 5.87104e-05
8 *94:10 *241:31 2.31765e-05
9 *94:10 *246:10 3.22879e-05
10 *94:10 *270:10 1.28035e-05
11 *94:10 *270:12 0.000150649
12 *94:10 *270:24 0.000144925
13 *94:10 *271:8 0.000176236
14 *94:10 *339:10 6.20168e-05
15 *94:10 *340:12 0
16 *94:10 *346:10 0.000190106
17 axi_rdata[26] axi_rdata[27] 0.000956728
18 *22:15 axi_rdata[27] 0.000875985
19 *27:17 *94:10 2.93747e-05
*RES
1 *1023:X *94:10 47.3939 
2 *94:10 axi_rdata[27] 11.2004 
*END

*D_NET *95 0.00613664
*CONN
*P axi_rdata[28] O
*I *1024:X O *D sky130_fd_sc_hd__clkdlybuf4s25_1
*CAP
1 axi_rdata[28] 0.000548405
2 *1024:X 0.000579374
3 *95:10 0.00112778
4 axi_rdata[28] axi_rdata[31] 0.000838468
5 axi_rdata[28] *815:B 0.000685788
6 axi_rdata[28] *340:12 0
7 axi_rdata[28] *341:10 0.000101527
8 axi_rdata[28] *374:12 2.81221e-05
9 *95:10 *241:37 0.000359326
10 *95:10 *341:18 0.000854214
11 *95:10 *346:10 4.67488e-05
12 *23:15 *95:10 0.000271952
13 *27:17 axi_rdata[28] 0.000554494
14 *94:10 axi_rdata[28] 0.000140437
*RES
1 *1024:X *95:10 38.7843 
2 *95:10 axi_rdata[28] 28.1963 
*END

*D_NET *96 0.00639909
*CONN
*P axi_rdata[29] O
*I *1025:X O *D sky130_fd_sc_hd__clkdlybuf4s25_1
*CAP
1 axi_rdata[29] 0.00143686
2 *1025:X 5.27791e-05
3 *96:8 0.00148964
4 axi_rdata[29] axi_rdata[30] 0.000365826
5 axi_rdata[29] gpio_out[1] 0.00124824
6 axi_rdata[29] *194:8 0
7 axi_rdata[29] *252:71 0.000371677
8 axi_rdata[29] *364:37 0.000198447
9 axi_rdata[29] *374:24 0
10 axi_rdata[29] *378:12 0
11 *96:8 *204:20 0.000228001
12 *96:8 *343:10 5.67058e-05
13 *96:8 *354:10 9.16459e-05
14 *24:15 axi_rdata[29] 0.000717238
15 *26:19 axi_rdata[29] 0.000142032
*RES
1 *1025:X *96:8 40.5271 
2 *96:8 axi_rdata[29] 34.8661 
*END

*D_NET *97 0.00396969
*CONN
*P axi_rdata[2] O
*I *1026:X O *D sky130_fd_sc_hd__clkdlybuf4s25_1
*CAP
1 axi_rdata[2] 0.000854719
2 *1026:X 0.000809877
3 *97:8 0.0016646
4 axi_rdata[2] axi_rdata[3] 0
5 axi_rdata[2] *789:A 1.1892e-05
6 axi_rdata[2] *181:8 0.000113153
7 axi_rdata[2] *331:12 0
8 axi_rdata[2] *347:18 9.81961e-05
9 *97:8 *898:CLK 1.76557e-05
10 *97:8 *143:14 0.000336175
11 *97:8 *192:12 6.343e-05
*RES
1 *1026:X *97:8 49.1029 
2 *97:8 axi_rdata[2] 18.125 
*END

*D_NET *98 0.00820116
*CONN
*P axi_rdata[30] O
*I *1027:X O *D sky130_fd_sc_hd__clkdlybuf4s25_1
*CAP
1 axi_rdata[30] 0.000126632
2 *1027:X 0.000982161
3 *98:12 0.000965667
4 *98:6 0.0018212
5 axi_rdata[30] gpio_out[1] 0.000358513
6 *98:6 *820:A 0.000447976
7 *98:6 *263:76 7.42621e-05
8 *98:6 *345:18 2.65879e-05
9 *98:12 gpio_out[0] 0.00144013
10 *98:12 *888:B 0
11 *98:12 *993:A 0.0001782
12 *98:12 *276:12 0.00010263
13 *98:12 *345:18 0.00062228
14 axi_rdata[29] axi_rdata[30] 0.000365826
15 *74:8 *98:6 2.80512e-05
16 *86:10 *98:6 0.000661045
*RES
1 *1027:X *98:6 39.3436 
2 *98:6 *98:12 49.7318 
3 *98:12 axi_rdata[30] 1.22547 
*END

*D_NET *99 0.00573422
*CONN
*P axi_rdata[31] O
*I *1028:X O *D sky130_fd_sc_hd__clkdlybuf4s25_1
*CAP
1 axi_rdata[31] 0.000924594
2 *1028:X 0.00028589
3 *99:10 0.00121048
4 axi_rdata[31] *244:14 0.000101269
5 axi_rdata[31] *244:22 0.000216348
6 axi_rdata[31] *374:12 0.00069824
7 *99:10 *249:125 4.56255e-05
8 *99:10 *272:16 0.00061236
9 *99:10 *346:22 2.93845e-05
10 axi_rdata[28] axi_rdata[31] 0.000838468
11 *24:15 axi_rdata[31] 0.000771556
12 *26:19 axi_rdata[31] 0
*RES
1 *1028:X *99:10 45.4882 
2 *99:10 axi_rdata[31] 12.4025 
*END

*D_NET *100 0.00786987
*CONN
*P axi_rdata[3] O
*I *1029:X O *D sky130_fd_sc_hd__clkdlybuf4s25_1
*CAP
1 axi_rdata[3] 0.00189384
2 *1029:X 0.000296031
3 *100:8 0.00218987
4 axi_rdata[3] *821:A 0.000220625
5 axi_rdata[3] *898:RESET_B 0
6 axi_rdata[3] *190:14 0.000260152
7 axi_rdata[3] *203:31 0.00104196
8 axi_rdata[3] *241:37 3.98859e-05
9 axi_rdata[3] *242:12 0
10 axi_rdata[3] *242:18 0.00047902
11 axi_rdata[3] *249:108 1.52227e-05
12 axi_rdata[3] *249:125 0.000137326
13 axi_rdata[3] *277:29 0.000544367
14 axi_rdata[3] *302:10 5.11935e-06
15 axi_rdata[3] *306:12 2.71186e-05
16 axi_rdata[3] *346:22 8.22421e-06
17 *100:8 *237:42 0.000443673
18 axi_rdata[1] axi_rdata[3] 0
19 axi_rdata[2] axi_rdata[3] 0
20 *25:11 axi_rdata[3] 0.000267446
21 *28:9 axi_rdata[3] 0
*RES
1 *1029:X *100:8 42.9093 
2 *100:8 axi_rdata[3] 48.3471 
*END

*D_NET *101 0.00426926
*CONN
*P axi_rdata[4] O
*I *1030:X O *D sky130_fd_sc_hd__clkdlybuf4s25_1
*CAP
1 axi_rdata[4] 0.000636484
2 *1030:X 0.000788816
3 *101:6 0.0014253
4 axi_rdata[4] *791:B 6.16439e-05
5 *101:6 *348:8 0.000926821
6 *101:6 *351:26 0.000292784
7 *29:21 axi_rdata[4] 0.000137413
*RES
1 *1030:X *101:6 40.2964 
2 *101:6 axi_rdata[4] 29.3757 
*END

*D_NET *102 0.00604402
*CONN
*P axi_rdata[5] O
*I *1031:X O *D sky130_fd_sc_hd__clkdlybuf4s25_1
*CAP
1 axi_rdata[5] 0.00154779
2 *1031:X 1.92429e-05
3 *102:10 0.00156703
4 axi_rdata[5] gpio_out[0] 0.00173973
5 axi_rdata[5] *280:45 0.000255861
6 axi_rdata[5] *356:24 0.000306709
7 *30:9 axi_rdata[5] 0
8 *31:7 axi_rdata[5] 0.000607656
*RES
1 *1031:X *102:10 46.3211 
2 *102:10 axi_rdata[5] 27.7798 
*END

*D_NET *103 0.00482623
*CONN
*P axi_rdata[6] O
*I *1032:X O *D sky130_fd_sc_hd__clkdlybuf4s25_1
*CAP
1 axi_rdata[6] 0.000581431
2 *1032:X 0.000306941
3 *103:8 0.000888373
4 axi_rdata[6] axi_rdata[7] 0.000466654
5 axi_rdata[6] axi_rdata[9] 0
6 axi_rdata[6] *350:10 0.000972957
7 *103:8 *205:20 8.17674e-05
8 *34:17 axi_rdata[6] 0.00152811
*RES
1 *1032:X *103:8 41.9564 
2 *103:8 axi_rdata[6] 25.81 
*END

*D_NET *104 0.00642762
*CONN
*P axi_rdata[7] O
*I *1033:X O *D sky130_fd_sc_hd__clkdlybuf4s25_1
*CAP
1 axi_rdata[7] 0.000226159
2 *1033:X 0.00155431
3 *104:14 0.00178047
4 axi_rdata[7] axi_rdata[9] 0.000466654
5 *104:14 *312:24 0.000568897
6 *104:14 *316:6 5.88828e-05
7 axi_rdata[6] axi_rdata[7] 0.000466654
8 *990:A *104:14 0.00114701
9 *32:15 *104:14 0.000158578
*RES
1 *1033:X *104:14 48.2507 
2 *104:14 axi_rdata[7] 26.7243 
*END

*D_NET *105 0.00203432
*CONN
*P axi_rdata[8] O
*I *1034:X O *D sky130_fd_sc_hd__clkdlybuf4s25_1
*CAP
1 axi_rdata[8] 0.000365642
2 *1034:X 0.000260433
3 *105:8 0.000626075
4 *105:8 *316:6 2.47815e-05
5 *3:11 *105:8 0.00026808
6 *14:13 axi_rdata[8] 0.000286683
7 *25:17 axi_rdata[8] 0.000202629
*RES
1 *1034:X *105:8 41.9564 
2 *105:8 axi_rdata[8] 11.7243 
*END

*D_NET *106 0.00285374
*CONN
*P axi_rdata[9] O
*I *1035:X O *D sky130_fd_sc_hd__clkdlybuf4s25_1
*CAP
1 axi_rdata[9] 0.000652539
2 *1035:X 0.000183001
3 *106:10 0.000835541
4 axi_rdata[9] *796:B 0.000113442
5 axi_rdata[9] *283:22 0
6 axi_rdata[9] *350:10 0.000141773
7 *106:10 *796:B 0.000333228
8 *106:10 *252:37 3.01464e-05
9 *106:10 *263:26 1.16551e-05
10 *106:10 *277:45 8.57577e-05
11 *106:10 *350:10 0
12 axi_rdata[6] axi_rdata[9] 0
13 axi_rdata[7] axi_rdata[9] 0.000466654
14 *33:9 axi_rdata[9] 0
*RES
1 *1035:X *106:10 43.1682 
2 *106:10 axi_rdata[9] 18.5911 
*END

*D_NET *108 0.00163061
*CONN
*P axi_rresp[0] O
*I *1047:LO O *D sky130_fd_sc_hd__conb_1
*CAP
1 axi_rresp[0] 0.000247982
2 *1047:LO 0.000204084
3 *108:10 0.000452066
4 *108:10 *165:10 0
5 axi_awready axi_rresp[0] 2.0847e-05
6 *8:11 axi_rresp[0] 0
7 *8:11 *108:10 0.000335116
8 *70:15 axi_rresp[0] 0.000311124
9 *70:15 *108:10 5.93891e-05
*RES
1 *1047:LO *108:10 43.1682 
2 *108:10 axi_rresp[0] 9.21707 
*END

*D_NET *109 0.00105987
*CONN
*P axi_rresp[1] O
*I *1048:LO O *D sky130_fd_sc_hd__conb_1
*CAP
1 axi_rresp[1] 0.000143359
2 *1048:LO 0.000306719
3 *109:10 0.000450078
4 axi_rresp[1] axi_rvalid 0.000159717
5 *109:10 *110:10 0
*RES
1 *1048:LO *109:10 43.2096 
2 *109:10 axi_rresp[1] 8.70187 
*END

*D_NET *110 0.000930154
*CONN
*P axi_rvalid O
*I *1051:HI O *D sky130_fd_sc_hd__conb_1
*CAP
1 axi_rvalid 9.24228e-05
2 *1051:HI 0.000292796
3 *110:10 0.000385218
4 axi_rresp[1] axi_rvalid 0.000159717
5 *109:10 *110:10 0
*RES
1 *1051:HI *110:10 42.7539 
2 *110:10 axi_rvalid 8.53013 
*END

*D_NET *143 0.00292784
*CONN
*P axi_wready O
*I *1036:X O *D sky130_fd_sc_hd__clkdlybuf4s25_1
*CAP
1 axi_wready 0.000409788
2 *1036:X 0.000595947
3 *143:14 0.00100574
4 axi_wready *938:A 0.000513191
5 axi_wready *356:24 2.81221e-05
6 *143:14 uart_tx 8.22421e-06
7 *143:14 *898:CLK 7.53384e-06
8 *143:14 *342:14 2.31209e-05
9 *97:8 *143:14 0.000336175
*RES
1 *1036:X *143:14 49.4654 
2 *143:14 axi_wready 9.82653 
*END

*D_NET *148 0.00184534
*CONN
*P axi_wvalid I
*I *938:A I *D sky130_fd_sc_hd__buf_2
*CAP
1 axi_wvalid 0.000510188
2 *938:A 0.000510188
3 *938:A gpio_out[0] 0.000186285
4 *938:A uart_tx 0
5 *938:A *252:71 0
6 *938:A *342:14 1.22906e-05
7 *938:A *356:24 4.11854e-05
8 *938:A *378:12 7.20089e-05
9 axi_wready *938:A 0.000513191
*RES
1 axi_wvalid *938:A 49.8138 
*END

*D_NET *149 0.00827101
*CONN
*P clk I
*I *939:A I *D sky130_fd_sc_hd__clkbuf_16
*CAP
1 clk 0.00295808
2 *939:A 8.53032e-05
3 *149:14 0.000472596
4 *149:10 0.00334537
5 *149:10 *853:C 0
6 *149:10 *907:CLK 8.44311e-05
7 *149:10 *911:RESET_B 0.000389649
8 *149:10 *914:RESET_B 0
9 *149:10 *915:CLK 3.347e-05
10 *149:10 *179:8 1.75696e-05
11 *149:10 *222:10 0
12 *149:10 *225:12 0
13 *149:10 *226:20 0
14 *149:10 *247:57 1.44534e-05
15 *149:10 *250:89 0.000206807
16 *149:10 *250:100 0.000240917
17 *149:10 *250:109 6.98829e-05
18 *149:10 *250:150 1.52635e-05
19 *149:10 *259:16 8.34779e-06
20 *149:10 *259:22 0
21 *149:10 *371:10 0
22 *149:14 *255:10 1.39447e-05
23 axi_awready *149:10 0
24 axi_bresp[1] *149:10 0
25 *36:15 *149:10 0.000314935
*RES
1 clk *149:10 39.1944 
2 *149:10 *149:14 21.1004 
3 *149:14 *939:A 24.8125 
*END

*D_NET *159 0.0142499
*CONN
*P gpio_out[0] O
*I *1037:X O *D sky130_fd_sc_hd__clkdlybuf4s25_1
*CAP
1 gpio_out[0] 0.0049315
2 *1037:X 1.68144e-05
3 *159:10 0.00494831
4 gpio_out[0] *168:23 0.000174136
5 gpio_out[0] *356:24 0.000509053
6 *159:10 *196:8 1.05441e-05
7 axi_rdata[5] gpio_out[0] 0.00173973
8 *938:A gpio_out[0] 0.000186285
9 *26:19 gpio_out[0] 0.000293362
10 *98:12 gpio_out[0] 0.00144013
*RES
1 *1037:X *159:10 46.3211 
2 *159:10 gpio_out[0] 47.1755 
*END

*D_NET *160 0.00556512
*CONN
*P gpio_out[1] O
*I *1038:X O *D sky130_fd_sc_hd__clkdlybuf4s25_1
*CAP
1 gpio_out[1] 0.000919503
2 *1038:X 5.45272e-05
3 *160:8 0.00097403
4 gpio_out[1] *817:B 0.000484583
5 gpio_out[1] *364:37 0.000477281
6 gpio_out[1] *374:24 0
7 *160:8 *365:8 9.75779e-05
8 axi_rdata[29] gpio_out[1] 0.00124824
9 axi_rdata[30] gpio_out[1] 0.000358513
10 *26:19 gpio_out[1] 0.000950866
*RES
1 *1038:X *160:8 39.0979 
2 *160:8 gpio_out[1] 26.5006 
*END

*D_NET *161 0.00302084
*CONN
*P gpio_out[2] O
*I *1039:X O *D sky130_fd_sc_hd__clkdlybuf4s25_1
*CAP
1 gpio_out[2] 0.000216108
2 *1039:X 0.000276876
3 *161:8 0.000492984
4 gpio_out[2] gpio_out[4] 0.000259808
5 gpio_out[2] gpio_out[5] 1.96267e-05
6 *161:8 gpio_out[5] 3.38806e-05
7 *161:8 *358:8 0.000717185
8 axi_rdata[10] gpio_out[2] 0.000347696
9 axi_rdata[10] *161:8 0.000520873
10 axi_rdata[12] gpio_out[2] 0
11 *4:17 *161:8 8.7975e-05
12 *7:13 *161:8 4.78267e-05
*RES
1 *1039:X *161:8 48.8854 
2 *161:8 gpio_out[2] 9.30293 
*END

*D_NET *162 0.00145616
*CONN
*P gpio_out[3] O
*I *1040:X O *D sky130_fd_sc_hd__clkdlybuf4s25_1
*CAP
1 gpio_out[3] 0.000483939
2 *1040:X 7.02108e-05
3 *162:8 0.00055415
4 axi_rdata[11] gpio_out[3] 0
5 axi_rdata[18] gpio_out[3] 0.000307178
6 *13:9 gpio_out[3] 0
7 *13:9 *162:8 4.06849e-05
*RES
1 *1040:X *162:8 39.0979 
2 *162:8 gpio_out[3] 12.8066 
*END

*D_NET *163 0.00411913
*CONN
*P gpio_out[4] O
*I *1041:X O *D sky130_fd_sc_hd__clkdlybuf4s25_1
*CAP
1 gpio_out[4] 0.000431813
2 *1041:X 0.000566996
3 *163:6 0.000998809
4 gpio_out[4] gpio_out[5] 0.000301756
5 *163:6 *1005:A 0.000145171
6 *163:6 *1041:A 0.000100486
7 axi_rdata[13] gpio_out[4] 0.000426105
8 gpio_out[2] gpio_out[4] 0.000259808
9 *4:17 gpio_out[4] 8.32084e-05
10 *7:13 *163:6 9.41704e-05
11 *76:8 *163:6 0.000710803
*RES
1 *1041:X *163:6 36.9614 
2 *163:6 gpio_out[4] 34.0547 
*END

*D_NET *164 0.00437672
*CONN
*P gpio_out[5] O
*I *1042:X O *D sky130_fd_sc_hd__clkdlybuf4s25_1
*CAP
1 gpio_out[5] 0.00037045
2 *1042:X 0.00102398
3 *164:6 0.00139443
4 *164:6 *797:B 0.000138753
5 *164:6 *253:35 1.09834e-05
6 *164:6 *361:14 2.95526e-05
7 axi_rdata[10] gpio_out[5] 4.58941e-05
8 axi_rdata[12] gpio_out[5] 9.81333e-06
9 axi_rdata[13] gpio_out[5] 0.000820683
10 gpio_out[2] gpio_out[5] 1.96267e-05
11 gpio_out[4] gpio_out[5] 0.000301756
12 *4:17 gpio_out[5] 0.000176916
13 *7:13 gpio_out[5] 0
14 *161:8 gpio_out[5] 3.38806e-05
*RES
1 *1042:X *164:6 36.0086 
2 *164:6 gpio_out[5] 32.1135 
*END

*D_NET *165 0.00144939
*CONN
*P gpio_out[6] O
*I *1043:X O *D sky130_fd_sc_hd__clkdlybuf4s25_1
*CAP
1 gpio_out[6] 4.67051e-05
2 *1043:X 0.000493609
3 *165:10 0.000540314
4 *165:10 *362:8 0
5 axi_rdata[14] gpio_out[6] 0.000159717
6 *8:11 gpio_out[6] 0.000159717
7 *8:11 *165:10 0
8 *70:15 *165:10 4.93223e-05
9 *108:10 *165:10 0
*RES
1 *1043:X *165:10 46.9796 
2 *165:10 gpio_out[6] 8.53013 
*END

*D_NET *166 0.00357912
*CONN
*P gpio_out[7] O
*I *1044:X O *D sky130_fd_sc_hd__clkdlybuf4s25_1
*CAP
1 gpio_out[7] 0.000752445
2 *1044:X 0.000232418
3 *166:8 0.000984862
4 gpio_out[7] *802:B 3.10575e-05
5 gpio_out[7] *934:RESET_B 6.11183e-05
6 gpio_out[7] *325:8 0.000222091
7 gpio_out[7] *344:10 0.000351608
8 gpio_out[7] *365:285 2.50347e-05
9 gpio_out[7] *373:23 0
10 axi_rdata[15] gpio_out[7] 0.000363286
11 *5:11 gpio_out[7] 0.000108796
12 *9:13 gpio_out[7] 0.000446404
*RES
1 *1044:X *166:8 41.0036 
2 *166:8 gpio_out[7] 21.6654 
*END

*D_NET *167 0.00138183
*CONN
*P rst_n I
*I *993:A I *D sky130_fd_sc_hd__buf_4
*CAP
1 rst_n 0.000344224
2 *993:A 0.000344224
3 *993:A *168:23 0.000337672
4 *993:A *345:18 0.000177514
5 *98:12 *993:A 0.0001782
*RES
1 rst_n *993:A 49.7453 
*END

*D_NET *168 0.011514
*CONN
*P uart_rx I
*I *994:A I *D sky130_fd_sc_hd__clkdlybuf4s25_1
*CAP
1 uart_rx 0.00474149
2 *994:A 0
3 *168:23 0.00474149
4 *168:23 uart_tx 0.000406341
5 *168:23 *792:A 0
6 *168:23 *199:12 5.82826e-05
7 *168:23 *281:20 0.00012733
8 *168:23 *304:24 0.000153166
9 *168:23 *351:26 0
10 *168:23 *356:24 0
11 gpio_out[0] *168:23 0.000174136
12 *993:A *168:23 0.000337672
13 *30:9 *168:23 0.000774079
*RES
1 uart_rx *168:23 44.3365 
2 *168:23 *994:A 38 
*END

*D_NET *169 0.00456194
*CONN
*P uart_tx O
*I *1045:X O *D sky130_fd_sc_hd__clkdlybuf4s25_1
*CAP
1 uart_tx 0.000939177
2 *1045:X 0.000172924
3 *169:8 0.0011121
4 uart_tx *1001:A 0.000139647
5 uart_tx *204:10 0.000135904
6 uart_tx *252:71 0
7 uart_tx *273:30 0.000412094
8 uart_tx *276:12 0.00033091
9 uart_tx *315:10 0.000161484
10 uart_tx *315:12 0.000304365
11 uart_tx *342:14 8.98642e-05
12 uart_tx *345:18 4.2781e-06
13 uart_tx *356:10 7.05442e-05
14 *169:8 *345:18 0.000274078
15 *938:A uart_tx 0
16 *143:14 uart_tx 8.22421e-06
17 *168:23 uart_tx 0.000406341
*RES
1 *1045:X *169:8 41.0036 
2 *169:8 uart_tx 26.1744 
*END

*D_NET *170 0.000590337
*CONN
*I *896:D I *D sky130_fd_sc_hd__dfrtp_2
*I *786:Y O *D sky130_fd_sc_hd__inv_2
*CAP
1 *896:D 0
2 *786:Y 0.000126774
3 *170:10 0.000126774
4 *170:10 *252:10 0.000141038
5 *170:10 *315:52 5.25848e-05
6 *14:13 *170:10 0.000143166
*RES
1 *786:Y *170:10 41.0036 
2 *170:10 *896:D 38 
*END

*D_NET *171 0.000464321
*CONN
*I *906:D I *D sky130_fd_sc_hd__dfrtp_2
*I *842:Y O *D sky130_fd_sc_hd__nor2_2
*CAP
1 *906:D 7.53262e-05
2 *842:Y 7.19542e-05
3 *171:8 0.00014728
4 *906:D *253:10 9.67842e-05
5 *171:8 *215:19 3.21223e-05
6 *171:8 *253:10 4.08537e-05
*RES
1 *842:Y *171:8 39.5536 
2 *171:8 *906:D 39.5743 
*END

*D_NET *172 0.000345229
*CONN
*I *907:D I *D sky130_fd_sc_hd__dfrtp_2
*I *845:Y O *D sky130_fd_sc_hd__nor2_2
*CAP
1 *907:D 4.97549e-05
2 *845:Y 4.97549e-05
3 *907:D *217:14 0.000184527
4 *907:D *218:16 6.11926e-05
*RES
1 *845:Y *907:D 48.0507 
*END

*D_NET *173 0.000701226
*CONN
*I *908:D I *D sky130_fd_sc_hd__dfrtp_2
*I *846:X O *D sky130_fd_sc_hd__xor2_2
*CAP
1 *908:D 3.25495e-05
2 *846:X 0.000123871
3 *173:8 0.000156421
4 *908:D *250:40 2.93431e-05
5 *173:8 *221:10 0
6 *173:8 *250:40 0.00018742
7 *173:8 *256:20 0.000112891
8 *173:8 *257:29 5.87296e-05
*RES
1 *846:X *173:8 41.3143 
2 *173:8 *908:D 38.6214 
*END

*D_NET *174 0.000638747
*CONN
*I *909:D I *D sky130_fd_sc_hd__dfrtp_2
*I *849:Y O *D sky130_fd_sc_hd__nor2_2
*CAP
1 *909:D 0
2 *849:Y 8.26004e-05
3 *174:10 8.26004e-05
4 *174:10 *935:CLK 5.3304e-05
5 *174:10 *217:42 0.000196549
6 *174:10 *257:29 0.000194318
7 *174:10 *368:6 2.93747e-05
*RES
1 *849:Y *174:10 41.2314 
2 *174:10 *909:D 38 
*END

*D_NET *175 0.00030771
*CONN
*I *910:D I *D sky130_fd_sc_hd__dfrtp_2
*I *851:X O *D sky130_fd_sc_hd__xor2_2
*CAP
1 *910:D 3.78035e-05
2 *851:X 0.000107221
3 *175:8 0.000145024
4 *910:D *801:A 1.14876e-05
5 *910:D *250:18 6.17437e-06
6 *175:8 *848:B 0
7 *175:8 *373:23 0
*RES
1 *851:X *175:8 39.9057 
2 *175:8 *910:D 38.6214 
*END

*D_NET *176 0.00155464
*CONN
*I *911:D I *D sky130_fd_sc_hd__dfrtp_2
*I *854:X O *D sky130_fd_sc_hd__o21ba_2
*CAP
1 *911:D 0.000137942
2 *854:X 0.000439495
3 *176:10 0.000577437
4 *911:D *911:RESET_B 2.64616e-05
5 *176:10 *911:RESET_B 0.000347408
6 *176:10 *258:46 3.7122e-06
7 *176:10 *322:6 2.2182e-05
*RES
1 *854:X *176:10 45.7264 
2 *176:10 *911:D 40.0507 
*END

*D_NET *177 0.000881271
*CONN
*I *912:D I *D sky130_fd_sc_hd__dfrtp_2
*I *856:X O *D sky130_fd_sc_hd__xor2_2
*CAP
1 *912:D 0.00024208
2 *856:X 0.000114796
3 *177:8 0.000356877
4 *912:D *250:123 7.87147e-05
5 *912:D *372:8 8.88032e-05
6 *177:8 *250:123 0
*RES
1 *856:X *177:8 39.9057 
2 *177:8 *912:D 42.9093 
*END

*D_NET *178 0.000546181
*CONN
*I *913:D I *D sky130_fd_sc_hd__dfrtp_2
*I *857:Y O *D sky130_fd_sc_hd__xnor2_2
*CAP
1 *913:D 0
2 *857:Y 0.000223213
3 *178:10 0.000223213
4 *178:10 *250:123 3.36312e-06
5 *178:10 *259:22 9.63918e-05
*RES
1 *857:Y *178:10 42.6607 
2 *178:10 *913:D 38 
*END

*D_NET *179 0.00190371
*CONN
*I *914:D I *D sky130_fd_sc_hd__dfrtp_2
*I *860:Y O *D sky130_fd_sc_hd__nor2_2
*CAP
1 *914:D 7.18031e-05
2 *860:Y 0.0005362
3 *179:8 0.000608003
4 *914:D *223:78 7.88828e-05
5 *179:8 *803:A 0
6 *179:8 *912:RESET_B 0.000150977
7 *179:8 *225:12 4.27801e-05
8 *179:8 *259:16 0
9 *179:8 *260:10 0.000100533
10 *179:8 *365:327 0.000296965
11 *149:10 *179:8 1.75696e-05
*RES
1 *860:Y *179:8 49.0614 
2 *179:8 *914:D 39.5743 
*END

*D_NET *180 0.00305422
*CONN
*I *915:D I *D sky130_fd_sc_hd__dfrtp_2
*I *863:X O *D sky130_fd_sc_hd__o21ba_2
*CAP
1 *915:D 0.000580531
2 *863:X 0.000602437
3 *180:14 0.00118297
4 *915:D *913:RESET_B 8.92557e-05
5 *915:D *915:CLK 0.00013623
6 *915:D *915:RESET_B 0
7 *915:D *250:115 3.57595e-06
8 *180:14 *803:A 7.2864e-05
9 *180:14 *804:B 0
10 *180:14 *863:B1_N 0.000272313
11 *180:14 *1013:A 0
12 *180:14 *226:20 2.23334e-06
13 *180:14 *259:16 0.000111816
14 *180:14 *285:10 0
*RES
1 *863:X *180:14 48.0257 
2 *180:14 *915:D 45.7886 
*END

*D_NET *181 0.00197605
*CONN
*I *897:D I *D sky130_fd_sc_hd__dfrtp_2
*I *821:X O *D sky130_fd_sc_hd__and2_2
*CAP
1 *897:D 0.000175104
2 *821:X 0.000292223
3 *181:8 0.000467327
4 *897:D *897:RESET_B 7.11433e-05
5 *181:8 *789:A 5.21024e-05
6 *181:8 *966:A 0.000130086
7 *181:8 *190:14 1.12487e-05
8 *181:8 *192:12 0.000448416
9 *181:8 *203:31 1.17194e-05
10 *181:8 *249:10 3.70094e-05
11 *181:8 *249:16 0.000166522
12 *181:8 *347:18 0
13 axi_rdata[2] *181:8 0.000113153
*RES
1 *821:X *181:8 46.5964 
2 *181:8 *897:D 40.6929 
*END

*D_NET *182 0.000405283
*CONN
*I *916:D I *D sky130_fd_sc_hd__dfrtp_2
*I *864:X O *D sky130_fd_sc_hd__xor2_2
*CAP
1 *916:D 0
2 *864:X 0.000104367
3 *182:8 0.000104367
4 *182:8 *807:A 0.000196549
5 *182:8 *330:10 0
*RES
1 *864:X *182:8 40.61 
2 *182:8 *916:D 38 
*END

*D_NET *183 0.00113413
*CONN
*I *917:D I *D sky130_fd_sc_hd__dfrtp_2
*I *867:Y O *D sky130_fd_sc_hd__a21oi_2
*CAP
1 *917:D 0.000190915
2 *867:Y 0.000133986
3 *183:8 0.000324901
4 *917:D *917:RESET_B 5.39215e-05
5 *183:8 *228:41 8.16253e-05
6 *183:8 *228:73 8.51432e-05
7 *183:8 *229:10 0.000113153
8 *183:8 *251:47 6.42079e-05
9 *83:14 *183:8 8.62783e-05
*RES
1 *867:Y *183:8 42.3707 
2 *183:8 *917:D 40.4287 
*END

*D_NET *184 0.00223767
*CONN
*I *918:D I *D sky130_fd_sc_hd__dfrtp_2
*I *870:Y O *D sky130_fd_sc_hd__nor2_2
*CAP
1 *918:D 0.000428984
2 *870:Y 0.000168878
3 *184:8 0.000597862
4 *918:D *869:C 5.50106e-05
5 *918:D *872:A 4.1657e-05
6 *918:D *872:C 2.9132e-05
7 *918:D *918:CLK 0.000136743
8 *918:D *227:27 6.71014e-05
9 *918:D *228:16 9.16362e-05
10 *918:D *234:10 2.64616e-05
11 *918:D *266:41 5.50049e-05
12 *918:D *359:8 0.000182832
13 *184:8 *869:C 1.19692e-05
14 *184:8 *870:B 0.000129651
15 *184:8 *228:16 0
16 *184:8 *232:8 6.67764e-05
17 *184:8 *321:8 0.000147971
*RES
1 *870:Y *184:8 43.7793 
2 *184:8 *918:D 47.8807 
*END

*D_NET *185 0.00134824
*CONN
*I *919:D I *D sky130_fd_sc_hd__dfrtp_2
*I *876:X O *D sky130_fd_sc_hd__o21ba_2
*CAP
1 *919:D 0
2 *876:X 0.000499212
3 *185:10 0.000499212
4 *185:10 *876:A1 0.000349813
5 *185:10 *231:20 0
6 *185:10 *235:23 0
*RES
1 *876:X *185:10 45.6229 
2 *185:10 *919:D 38 
*END

*D_NET *186 0.000626574
*CONN
*I *920:D I *D sky130_fd_sc_hd__dfrtp_2
*I *877:X O *D sky130_fd_sc_hd__xor2_2
*CAP
1 *920:D 8.89693e-05
2 *877:X 7.12747e-05
3 *186:8 0.000160244
4 *920:D *920:RESET_B 5.3304e-05
5 *186:8 *920:RESET_B 0.000114074
6 *186:8 *296:8 0.000138708
*RES
1 *877:X *186:8 39.9057 
2 *186:8 *920:D 39.5743 
*END

*D_NET *187 0.000839378
*CONN
*I *921:D I *D sky130_fd_sc_hd__dfrtp_2
*I *880:Y O *D sky130_fd_sc_hd__nor2_2
*CAP
1 *921:D 0
2 *880:Y 0.000367922
3 *187:10 0.000367922
4 *187:10 *918:RESET_B 0
5 *187:10 *920:CLK 4.06849e-05
6 *187:10 *920:RESET_B 0
7 *187:10 *238:8 0
8 *187:10 *268:25 6.28488e-05
*RES
1 *880:Y *187:10 44.2971 
2 *187:10 *921:D 38 
*END

*D_NET *188 0.000777206
*CONN
*I *922:D I *D sky130_fd_sc_hd__dfrtp_2
*I *882:X O *D sky130_fd_sc_hd__o21ba_2
*CAP
1 *922:D 0
2 *882:X 0.000260239
3 *188:10 0.000260239
4 *188:10 *882:A1 0.000224605
5 *188:10 *251:95 3.21223e-05
6 *188:10 *268:25 0
*RES
1 *882:X *188:10 42.0807 
2 *188:10 *922:D 38 
*END

*D_NET *189 0.000575166
*CONN
*I *923:D I *D sky130_fd_sc_hd__dfrtp_2
*I *884:X O *D sky130_fd_sc_hd__o2bb2a_2
*CAP
1 *923:D 0
2 *884:X 0.000194512
3 *189:10 0.000194512
4 *189:10 *879:B 0.000140259
5 *189:10 *923:CLK 4.5882e-05
6 *189:10 *240:10 0
*RES
1 *884:X *189:10 41.48 
2 *189:10 *923:D 38 
*END

*D_NET *190 0.00423962
*CONN
*I *924:D I *D sky130_fd_sc_hd__dfrtp_2
*I *887:Y O *D sky130_fd_sc_hd__nor2_2
*CAP
1 *924:D 0
2 *887:Y 7.80537e-05
3 *190:14 0.000638929
4 *190:8 0.000716982
5 *190:8 *966:A 4.5051e-05
6 *190:8 *243:20 5.3304e-05
7 *190:8 *249:16 5.50106e-05
8 *190:14 *924:CLK 7.44257e-05
9 *190:14 *203:31 0.000820873
10 *190:14 *249:10 0.000470414
11 *190:14 *249:16 0.000164291
12 *190:14 *249:49 0.000156141
13 *190:14 *249:60 0.000203192
14 *190:14 *249:95 0.000224933
15 *190:14 *249:108 0.000127263
16 *190:14 *303:8 0.000139352
17 axi_rdata[3] *190:14 0.000260152
18 *181:8 *190:14 1.12487e-05
*RES
1 *887:Y *190:8 39.5743 
2 *190:8 *190:14 35.3829 
3 *190:14 *924:D 23 
*END

*D_NET *191 0.00125234
*CONN
*I *925:D I *D sky130_fd_sc_hd__dfrtp_2
*I *890:X O *D sky130_fd_sc_hd__o21ba_2
*CAP
1 *925:D 0.000267501
2 *890:X 0.000209172
3 *191:8 0.000476674
4 *925:D *816:B 5.12254e-05
5 *925:D *929:RESET_B 3.08421e-05
6 *925:D *249:64 9.04105e-06
7 *191:8 *275:16 0
8 *191:8 *347:18 0.000207889
*RES
1 *890:X *191:8 40.9621 
2 *191:8 *925:D 41.0709 
*END

*D_NET *192 0.00292819
*CONN
*I *898:D I *D sky130_fd_sc_hd__dfrtp_2
*I *822:Y O *D sky130_fd_sc_hd__xnor2_2
*CAP
1 *898:D 0
2 *822:Y 0
3 *192:12 0.000548412
4 *192:6 0.000548412
5 *192:12 *243:20 0.000812506
6 *192:12 *249:10 0.000105138
7 *192:12 *347:18 5.65323e-05
8 *192:12 *379:14 0.000345347
9 *97:8 *192:12 6.343e-05
10 *181:8 *192:12 0.000448416
*RES
1 *822:Y *192:6 38 
2 *192:6 *192:12 30.9293 
3 *192:12 *898:D 23 
*END

*D_NET *193 0.00156491
*CONN
*I *926:D I *D sky130_fd_sc_hd__dfrtp_2
*I *892:X O *D sky130_fd_sc_hd__xor2_2
*CAP
1 *926:D 9.56767e-05
2 *892:X 0.000170913
3 *193:8 0.00026659
4 *926:D *926:CLK 9.91548e-05
5 *926:D *282:79 0.000224411
6 *193:8 *816:B 1.05984e-05
7 *193:8 *243:20 0.000336449
8 *193:8 *379:14 0.000361117
*RES
1 *892:X *193:8 43.075 
2 *193:8 *926:D 40.5271 
*END

*D_NET *194 0.000426384
*CONN
*I *927:D I *D sky130_fd_sc_hd__dfrtp_2
*I *893:X O *D sky130_fd_sc_hd__xor2_2
*CAP
1 *927:D 2.24548e-05
2 *893:X 9.27577e-05
3 *194:8 0.000115212
4 *927:D *927:RESET_B 5.50106e-05
5 *194:8 *374:24 0.000140949
6 axi_rdata[29] *194:8 0
*RES
1 *893:X *194:8 39.9057 
2 *194:8 *927:D 38.6214 
*END

*D_NET *195 0.00375713
*CONN
*I *899:D I *D sky130_fd_sc_hd__dfrtp_2
*I *825:X O *D sky130_fd_sc_hd__and2b_2
*CAP
1 *899:D 0
2 *825:X 9.84046e-05
3 *195:12 0.000850092
4 *195:8 0.000948497
5 *195:8 *364:26 6.17437e-06
6 *195:12 *825:A_N 0
7 *195:12 *237:14 0
8 *195:12 *283:68 0
9 *195:12 *319:8 0
10 *195:12 *364:26 0.000525182
11 *25:17 *195:12 0.00127945
12 *26:19 *195:12 4.93359e-05
*RES
1 *825:X *195:8 39.5743 
2 *195:8 *195:12 37.33 
3 *195:12 *899:D 23 
*END

*D_NET *196 0.00126866
*CONN
*I *900:D I *D sky130_fd_sc_hd__dfrtp_2
*I *827:X O *D sky130_fd_sc_hd__xor2_2
*CAP
1 *900:D 0.000247124
2 *827:X 0.000308604
3 *196:8 0.000555728
4 *900:D *900:CLK 8.16912e-05
5 *196:8 *826:B 0
6 *196:8 *349:12 6.49713e-05
7 *196:8 *356:24 0
8 *159:10 *196:8 1.05441e-05
*RES
1 *827:X *196:8 43.7793 
2 *196:8 *900:D 42.9093 
*END

*D_NET *197 0.000705437
*CONN
*I *901:D I *D sky130_fd_sc_hd__dfrtp_2
*I *828:Y O *D sky130_fd_sc_hd__xnor2_2
*CAP
1 *901:D 0.000183173
2 *828:Y 0.000103691
3 *197:8 0.000286864
4 *901:D *901:CLK 2.93431e-05
5 *197:8 *278:44 0.000102365
*RES
1 *828:Y *197:8 40.61 
2 *197:8 *901:D 40.5271 
*END

*D_NET *198 0.00140435
*CONN
*I *902:D I *D sky130_fd_sc_hd__dfrtp_2
*I *831:X O *D sky130_fd_sc_hd__and2b_2
*CAP
1 *902:D 0
2 *831:X 0.000470205
3 *198:10 0.000470205
4 *198:10 *248:8 4.82016e-05
5 *198:10 *248:10 9.39365e-05
6 *198:10 *248:74 2.39877e-05
7 *198:10 *253:20 4.51746e-05
8 *198:10 *279:23 4.55813e-05
9 *198:10 *287:10 0.000187765
10 *198:10 *310:8 1.92887e-05
*RES
1 *831:X *198:10 47.6114 
2 *198:10 *902:D 38 
*END

*D_NET *199 0.00332484
*CONN
*I *903:D I *D sky130_fd_sc_hd__dfrtp_2
*I *834:X O *D sky130_fd_sc_hd__o21a_2
*CAP
1 *903:D 0
2 *834:X 0.000309677
3 *199:12 0.000450093
4 *199:8 0.000759771
5 *199:8 *834:B1 1.57659e-05
6 *199:8 *211:32 0.000267762
7 *199:8 *381:10 0.000100061
8 *199:12 *792:A 0.000162777
9 *199:12 *832:D 3.61613e-05
10 *199:12 *901:RESET_B 0.000138727
11 *199:12 *965:A 0.000316419
12 *199:12 *215:10 8.32928e-05
13 *199:12 *279:23 0.000499277
14 *199:12 *281:20 0.000126769
15 *168:23 *199:12 5.82826e-05
*RES
1 *834:X *199:8 42.4329 
2 *199:8 *199:12 28.1743 
3 *199:12 *903:D 23 
*END

*D_NET *200 0.000305002
*CONN
*I *904:D I *D sky130_fd_sc_hd__dfrtp_2
*I *835:Y O *D sky130_fd_sc_hd__xnor2_2
*CAP
1 *904:D 0.000112465
2 *835:Y 0.000112465
3 *904:D *249:78 5.29205e-05
4 *904:D *282:8 2.71514e-05
*RES
1 *835:Y *904:D 48.0507 
*END

*D_NET *201 0.00170688
*CONN
*I *905:D I *D sky130_fd_sc_hd__dfrtp_2
*I *839:X O *D sky130_fd_sc_hd__o21a_2
*CAP
1 *905:D 0.000130112
2 *839:X 0.000256136
3 *201:14 0.000386248
4 *905:D *839:A2 9.66668e-05
5 *905:D *839:B1 0.000193739
6 *905:D *905:CLK 3.94118e-05
7 *905:D *213:18 0.00018465
8 *201:14 *905:CLK 0.000141347
9 *201:14 *215:10 0.000148532
10 *201:14 *216:8 9.81699e-05
11 *201:14 *253:14 3.18716e-05
*RES
1 *839:X *201:14 43.7793 
2 *201:14 *905:D 41.9564 
*END

*D_NET *202 0.00110819
*CONN
*I *895:D I *D sky130_fd_sc_hd__dfrtp_2
*I *894:X O *D sky130_fd_sc_hd__xor2_2
*CAP
1 *895:D 0.000176639
2 *894:X 0.000139017
3 *202:10 0.000315656
4 *895:D *252:71 9.2057e-05
5 *895:D *364:6 0.000117299
6 *895:D *364:20 3.7122e-06
7 *202:10 *897:RESET_B 1.94693e-05
8 *202:10 *252:71 0
9 *202:10 *273:30 5.3304e-05
10 *202:10 *378:12 0.000191037
*RES
1 *894:X *202:10 41.2314 
2 *202:10 *895:D 41.9564 
*END

*D_NET *203 0.00596173
*CONN
*I *822:B I *D sky130_fd_sc_hd__xnor2_2
*I *821:A I *D sky130_fd_sc_hd__and2_2
*I *819:Y O *D sky130_fd_sc_hd__nand2_2
*CAP
1 *822:B 0
2 *821:A 7.17536e-05
3 *819:Y 8.60675e-05
4 *203:31 0.000360858
5 *203:18 0.00133346
6 *203:8 0.000986916
7 *821:A *789:A 0.00013535
8 *821:A *966:A 7.87557e-05
9 *203:8 *282:64 8.18846e-05
10 *203:8 *283:22 0.000161343
11 *203:18 *898:RESET_B 5.03716e-05
12 *203:18 *274:10 0.000207528
13 *203:18 *274:40 9.05962e-05
14 *203:18 *352:10 3.16665e-05
15 *203:31 *966:A 0.000190009
16 axi_rdata[3] *821:A 0.000220625
17 axi_rdata[3] *203:31 0.00104196
18 *181:8 *203:31 1.17194e-05
19 *190:14 *203:31 0.000820873
*RES
1 *819:Y *203:8 40.2579 
2 *203:8 *203:18 45.08 
3 *203:18 *821:A 40.9621 
4 *203:18 *203:31 29.2307 
5 *203:31 *822:B 23 
*END

*D_NET *204 0.00330599
*CONN
*I *821:B I *D sky130_fd_sc_hd__and2_2
*I *820:X O *D sky130_fd_sc_hd__or2_2
*CAP
1 *821:B 0
2 *820:X 0.000111096
3 *204:20 0.00108622
4 *204:10 0.00119732
5 *204:10 *345:18 0.000119327
6 *204:20 *789:A 0.00012103
7 *204:20 *331:12 0.000101137
8 *204:20 *342:14 0.000153155
9 *204:20 *343:10 2.4754e-05
10 *204:20 *354:10 2.80394e-05
11 uart_tx *204:10 0.000135904
12 *96:8 *204:20 0.000228001
*RES
1 *820:X *204:10 40.5271 
2 *204:10 *204:20 34.0157 
3 *204:20 *821:B 23 
*END

*D_NET *205 0.012944
*CONN
*I *825:A_N I *D sky130_fd_sc_hd__and2b_2
*I *838:A2 I *D sky130_fd_sc_hd__a31o_2
*I *833:A I *D sky130_fd_sc_hd__nand2_2
*I *840:B I *D sky130_fd_sc_hd__and4_2
*I *829:D I *D sky130_fd_sc_hd__and4_2
*I *830:A3 I *D sky130_fd_sc_hd__a31o_2
*I *827:B I *D sky130_fd_sc_hd__xor2_2
*I *826:B I *D sky130_fd_sc_hd__nand2_2
*I *823:X O *D sky130_fd_sc_hd__and4_2
*CAP
1 *825:A_N 0.00018942
2 *838:A2 0.000462904
3 *833:A 0
4 *840:B 0
5 *829:D 0.000117867
6 *830:A3 0.000159525
7 *827:B 0
8 *826:B 0.000141994
9 *823:X 0.00025565
10 *205:88 0.00100256
11 *205:77 0.000485463
12 *205:30 0.0003166
13 *205:28 0.000739261
14 *205:24 0.00127485
15 *205:20 0.001163
16 *205:14 0.000546378
17 *205:12 0.00025565
18 *825:A_N *206:16 4.85126e-05
19 *825:A_N *237:14 4.23817e-05
20 *825:A_N *237:29 0.000189916
21 *825:A_N *247:15 0
22 *826:B *900:CLK 1.007e-05
23 *826:B *901:CLK 5.79413e-06
24 *826:B *278:31 0.00017474
25 *826:B *278:44 2.77955e-05
26 *826:B *308:8 1.41077e-05
27 *826:B *356:24 5.04995e-05
28 *829:D *832:A 0.000104047
29 *829:D *279:29 0.000273247
30 *830:A3 *209:6 1.84917e-05
31 *830:A3 *278:44 3.67392e-05
32 *830:A3 *278:57 2.20542e-05
33 *830:A3 *279:37 5.511e-05
34 *830:A3 *300:8 3.19287e-05
35 *838:A2 *237:29 0.000537451
36 *838:A2 *283:33 1.56665e-05
37 *838:A2 *283:68 1.32314e-05
38 *205:12 *206:16 0.000196155
39 *205:12 *249:24 9.55792e-05
40 *205:12 *283:22 0.000239259
41 *205:12 *353:10 0.000186763
42 *205:20 *212:12 0.000248977
43 *205:20 *215:8 0.000182213
44 *205:20 *283:16 9.41704e-05
45 *205:24 *832:D 2.57772e-05
46 *205:24 *210:10 9.53319e-05
47 *205:24 *215:8 1.5725e-05
48 *205:24 *253:20 0.000489873
49 *205:24 *279:27 1.74069e-05
50 *205:28 *832:A 0.000307228
51 *205:28 *278:44 5.56356e-05
52 *205:28 *278:51 4.44308e-05
53 *205:30 *278:44 0.000357345
54 *205:77 *206:16 3.35883e-06
55 *205:77 *283:16 0.000193554
56 *205:88 *206:16 3.95159e-06
57 *205:88 *237:29 1.12487e-05
58 *205:88 *283:16 0.000362294
59 *205:88 *283:31 0.000293345
60 *205:88 *305:10 7.46212e-05
61 *14:13 *825:A_N 3.62568e-05
62 *14:13 *205:77 7.74223e-05
63 *14:13 *205:88 0.000314686
64 *29:21 *826:B 5.67058e-05
65 *103:8 *205:20 8.17674e-05
66 *195:12 *825:A_N 0
67 *196:8 *826:B 0
*RES
1 *823:X *205:12 44.8979 
2 *205:12 *205:14 15 
3 *205:14 *205:20 8.88643 
4 *205:20 *205:24 11.3514 
5 *205:24 *205:28 20.8621 
6 *205:28 *205:30 4.72286 
7 *205:30 *826:B 41.9357 
8 *205:30 *827:B 15 
9 *205:28 *830:A3 41.9357 
10 *205:24 *829:D 27.205 
11 *205:20 *840:B 23 
12 *205:14 *205:77 18.3557 
13 *205:77 *833:A 38 
14 *205:77 *205:88 10.4504 
15 *205:88 *838:A2 44.6596 
16 *205:88 *825:A_N 42.5468 
*END

*D_NET *206 0.00469771
*CONN
*I *825:B I *D sky130_fd_sc_hd__and2b_2
*I *824:X O *D sky130_fd_sc_hd__a31o_2
*CAP
1 *825:B 0
2 *824:X 0.000316614
3 *206:16 0.000861856
4 *206:10 0.00117847
5 *206:10 *282:56 0.000139346
6 *206:10 *315:52 0.000562976
7 *206:16 *237:29 0.000237012
8 *206:16 *247:15 0.000460105
9 *206:16 *249:78 0.000187036
10 *206:16 *283:16 0.000180102
11 *206:16 *283:22 0.000220665
12 *206:16 *283:31 0.000101554
13 *825:A_N *206:16 4.85126e-05
14 *205:12 *206:16 0.000196155
15 *205:77 *206:16 3.35883e-06
16 *205:88 *206:16 3.95159e-06
*RES
1 *824:X *206:10 44.8357 
2 *206:10 *206:16 35.9836 
3 *206:16 *825:B 23 
*END

*D_NET *207 0.00103909
*CONN
*I *828:B I *D sky130_fd_sc_hd__xnor2_2
*I *826:Y O *D sky130_fd_sc_hd__nand2_2
*CAP
1 *828:B 0
2 *826:Y 0.000343237
3 *207:10 0.000343237
4 *207:10 *791:B 5.58534e-05
5 *207:10 *901:CLK 0
6 *207:10 *248:14 0
7 *207:10 *248:20 0.000144494
8 *207:10 *278:44 0
9 *207:10 *280:16 0
10 *207:10 *309:16 0
11 *207:10 *381:10 6.07611e-06
12 *29:21 *207:10 0.000146195
*RES
1 *826:Y *207:10 45.0014 
2 *207:10 *828:B 38 
*END

*D_NET *208 0.00103605
*CONN
*I *834:A2 I *D sky130_fd_sc_hd__o21a_2
*I *831:A_N I *D sky130_fd_sc_hd__and2b_2
*I *829:X O *D sky130_fd_sc_hd__and4_2
*CAP
1 *834:A2 0.000156565
2 *831:A_N 4.30943e-05
3 *829:X 0.000145185
4 *208:8 0.000344845
5 *831:A_N *209:6 0.000100061
6 *834:A2 *834:A1 2.95526e-05
7 *834:A2 *381:10 7.51578e-05
8 *208:8 *280:24 2.8661e-05
9 *208:8 *381:10 0.000112928
*RES
1 *829:X *208:8 41.3143 
2 *208:8 *831:A_N 39.0979 
3 *208:8 *834:A2 40.8793 
*END

*D_NET *209 0.000726981
*CONN
*I *831:B I *D sky130_fd_sc_hd__and2b_2
*I *830:X O *D sky130_fd_sc_hd__a31o_2
*CAP
1 *831:B 0
2 *830:X 0.000304214
3 *209:6 0.000304214
4 *830:A3 *209:6 1.84917e-05
5 *831:A_N *209:6 0.000100061
*RES
1 *830:X *209:6 27.9093 
2 *209:6 *831:B 23 
*END

*D_NET *210 0.00591465
*CONN
*I *840:C I *D sky130_fd_sc_hd__and4_2
*I *833:B I *D sky130_fd_sc_hd__nand2_2
*I *838:A3 I *D sky130_fd_sc_hd__a31o_2
*I *832:X O *D sky130_fd_sc_hd__and4_2
*CAP
1 *840:C 4.50437e-05
2 *833:B 0
3 *838:A3 0
4 *832:X 0.000471552
5 *210:41 0.000320053
6 *210:26 0.000229164
7 *210:18 0.000849792
8 *210:10 0.000817171
9 *840:C *215:8 4.21921e-05
10 *210:10 *832:D 0.000347165
11 *210:10 *215:8 0.000360963
12 *210:10 *253:20 0.000186363
13 *210:18 *211:26 7.95762e-05
14 *210:18 *309:8 0.000297332
15 *210:26 *892:B 5.3304e-05
16 *210:26 *237:29 5.3304e-05
17 *210:26 *282:16 0.000433695
18 *210:26 *365:177 0.000274269
19 *210:41 *835:B 2.64616e-05
20 *210:41 *211:10 0.000377445
21 *210:41 *212:12 0.000190589
22 *210:41 *247:17 7.43209e-05
23 *210:41 *247:31 4.68302e-05
24 *210:41 *282:8 5.61255e-06
25 *210:41 *282:10 4.69418e-05
26 *210:41 *282:16 3.26241e-05
27 *210:41 *314:8 2.19403e-05
28 *31:7 *210:18 0.000135616
29 *205:24 *210:10 9.53319e-05
*RES
1 *832:X *210:10 32.5907 
2 *210:10 *210:18 36.8979 
3 *210:18 *210:26 37.105 
4 *210:26 *838:A3 23 
5 *210:18 *210:41 38.1407 
6 *210:41 *833:B 23 
7 *210:10 *840:C 23.6214 
*END

*D_NET *211 0.00478878
*CONN
*I *841:A1 I *D sky130_fd_sc_hd__o21ba_2
*I *839:A1 I *D sky130_fd_sc_hd__o21a_2
*I *834:B1 I *D sky130_fd_sc_hd__o21a_2
*I *835:B I *D sky130_fd_sc_hd__xnor2_2
*I *833:Y O *D sky130_fd_sc_hd__nand2_2
*CAP
1 *841:A1 0
2 *839:A1 0
3 *834:B1 4.88808e-05
4 *835:B 0.000245213
5 *833:Y 0.000299846
6 *211:60 0.000161349
7 *211:49 0.000254169
8 *211:32 0.000649024
9 *211:26 0.000697096
10 *211:10 0.000355285
11 *834:B1 *834:A1 0.000229793
12 *834:B1 *381:10 0.000188927
13 *835:B *282:8 5.14826e-05
14 *211:10 *212:12 3.76247e-05
15 *211:10 *247:15 9.23932e-05
16 *211:10 *247:31 5.53276e-05
17 *211:10 *314:8 0.000147146
18 *211:32 *834:A1 7.19537e-05
19 *211:32 *253:35 1.21972e-05
20 *211:49 *839:A2 5.3304e-05
21 *211:49 *944:A 2.8639e-05
22 *211:49 *248:74 0.000160915
23 *211:49 *248:108 8.50366e-05
24 *211:49 *253:14 0
25 *211:49 *287:10 8.0612e-06
26 *211:60 *213:18 1.0092e-05
27 *211:60 *215:10 4.40425e-05
28 *30:9 *211:32 2.95526e-05
29 *30:9 *211:60 4.41821e-06
30 *199:8 *834:B1 1.57659e-05
31 *199:8 *211:32 0.000267762
32 *210:18 *211:26 7.95762e-05
33 *210:41 *835:B 2.64616e-05
34 *210:41 *211:10 0.000377445
*RES
1 *833:Y *211:10 45.6229 
2 *211:10 *835:B 39.0979 
3 *835:B *211:26 26.9564 
4 *211:26 *211:32 7.20857 
5 *211:32 *834:B1 25.5271 
6 *211:32 *211:49 34.9093 
7 *211:49 *839:A1 23 
8 *211:26 *211:60 32.61 
9 *211:60 *841:A1 23 
*END

*D_NET *212 0.00362179
*CONN
*I *840:D I *D sky130_fd_sc_hd__and4_2
*I *836:X O *D sky130_fd_sc_hd__and2_2
*CAP
1 *840:D 0
2 *836:X 0
3 *212:12 0.000910181
4 *212:6 0.000910181
5 *212:12 *796:B 8.36198e-05
6 *212:12 *889:B 0.000207219
7 *212:12 *215:8 9.79925e-05
8 *212:12 *241:43 0.0002487
9 *212:12 *247:15 0
10 *212:12 *282:16 0
11 *212:12 *282:56 0.000368109
12 *212:12 *283:46 0.000175821
13 *212:12 *304:10 0.00014278
14 *205:20 *212:12 0.000248977
15 *210:41 *212:12 0.000190589
16 *211:10 *212:12 3.76247e-05
*RES
1 *836:X *212:6 38 
2 *212:6 *212:12 34.5957 
3 *212:12 *840:D 23 
*END

*D_NET *213 0.00319618
*CONN
*I *841:A2 I *D sky130_fd_sc_hd__o21ba_2
*I *839:A2 I *D sky130_fd_sc_hd__o21a_2
*I *837:Y O *D sky130_fd_sc_hd__nand2_2
*CAP
1 *841:A2 0
2 *839:A2 0.000160047
3 *837:Y 0.00044131
4 *213:18 0.000409177
5 *213:10 0.000690439
6 *839:A2 *839:B1 0.000106339
7 *839:A2 *841:B1_N 5.45644e-05
8 *839:A2 *905:CLK 0.000463581
9 *839:A2 *944:A 1.24376e-05
10 *213:10 *798:B 0
11 *213:10 *214:10 0.000108681
12 *213:10 *215:10 0
13 *213:10 *215:19 0
14 *213:10 *244:22 8.41515e-05
15 *213:10 *365:177 0.000105519
16 *213:10 *365:181 9.10865e-05
17 *213:10 *365:193 5.12254e-05
18 *213:10 *365:213 2.60152e-05
19 *213:18 *905:CLK 2.50118e-05
20 *213:18 *215:10 2.18829e-05
21 *213:18 *365:177 0
22 *905:D *839:A2 9.66668e-05
23 *905:D *213:18 0.00018465
24 *211:49 *839:A2 5.3304e-05
25 *211:60 *213:18 1.0092e-05
*RES
1 *837:Y *213:10 47.6425 
2 *213:10 *213:18 19.7746 
3 *213:18 *839:A2 28.3857 
4 *213:18 *841:A2 23 
*END

*D_NET *214 0.00203202
*CONN
*I *839:B1 I *D sky130_fd_sc_hd__o21a_2
*I *838:X O *D sky130_fd_sc_hd__a31o_2
*CAP
1 *839:B1 0.0005564
2 *838:X 0.00011011
3 *214:10 0.00066651
4 *839:B1 *841:B1_N 9.84851e-05
5 *214:10 *889:B 9.5877e-05
6 *214:10 *892:B 9.5877e-05
7 *214:10 *215:10 0
8 *839:A2 *839:B1 0.000106339
9 *905:D *839:B1 0.000193739
10 *213:10 *214:10 0.000108681
*RES
1 *838:X *214:10 40.6514 
2 *214:10 *839:B1 46.7621 
*END

*D_NET *215 0.00925386
*CONN
*I *853:B I *D sky130_fd_sc_hd__and3_2
*I *843:B I *D sky130_fd_sc_hd__and2_2
*I *844:B I *D sky130_fd_sc_hd__nor2_2
*I *862:B I *D sky130_fd_sc_hd__and4_2
*I *873:B I *D sky130_fd_sc_hd__and4_2
*I *875:B I *D sky130_fd_sc_hd__and4_2
*I *842:A I *D sky130_fd_sc_hd__nor2_2
*I *840:X O *D sky130_fd_sc_hd__and4_2
*CAP
1 *853:B 0.000270683
2 *843:B 0
3 *844:B 2.99834e-05
4 *862:B 0
5 *873:B 0
6 *875:B 0
7 *842:A 0
8 *840:X 0.00016416
9 *215:57 5.14029e-05
10 *215:50 0.000196903
11 *215:35 0.000603329
12 *215:27 0.000645157
13 *215:23 0.000318077
14 *215:19 0.000982275
15 *215:10 0.0010866
16 *215:8 0.000639932
17 *844:B *228:8 0.000184527
18 *844:B *254:71 9.84851e-05
19 *853:B *798:B 7.76364e-06
20 *853:B *853:A 2.45549e-06
21 *853:B *853:C 0.000139789
22 *853:B *222:10 2.70366e-05
23 *853:B *254:25 7.63458e-05
24 *853:B *254:36 7.71682e-05
25 *853:B *371:10 4.37586e-06
26 *215:8 *253:20 9.78166e-05
27 *215:10 *832:D 5.75756e-06
28 *215:10 *216:8 0.000107538
29 *215:19 *798:B 0.000347592
30 *215:19 *217:10 0.000111148
31 *215:19 *222:10 0.000404249
32 *215:19 *253:10 0
33 *215:19 *255:10 0
34 *215:23 *862:C 4.66047e-05
35 *215:23 *217:10 1.59094e-05
36 *215:23 *254:25 0.000141052
37 *215:27 *862:C 0.000299527
38 *215:27 *228:8 1.72202e-05
39 *215:27 *254:25 3.32563e-05
40 *215:35 *875:A 2.98648e-05
41 *215:35 *946:A 0
42 *215:35 *222:39 2.4754e-05
43 *215:35 *228:8 2.24793e-05
44 *215:35 *254:71 0.000133164
45 *215:50 *875:C 2.18409e-05
46 *215:50 *946:A 0.000111852
47 *215:50 *222:39 7.53384e-06
48 *215:50 *222:47 0.000137351
49 *215:50 *228:16 2.24973e-05
50 *215:50 *231:20 4.93341e-05
51 *215:50 *236:8 2.60152e-05
52 *215:57 *862:C 0
53 *215:57 *254:71 5.90675e-06
54 *840:C *215:8 4.21921e-05
55 *30:9 *215:10 0.000398193
56 *171:8 *215:19 3.21223e-05
57 *199:12 *215:10 8.32928e-05
58 *201:14 *215:10 0.000148532
59 *205:20 *215:8 0.000182213
60 *205:24 *215:8 1.5725e-05
61 *210:10 *215:8 0.000360963
62 *211:60 *215:10 4.40425e-05
63 *212:12 *215:8 9.79925e-05
64 *213:10 *215:10 0
65 *213:10 *215:19 0
66 *213:18 *215:10 2.18829e-05
67 *214:10 *215:10 0
*RES
1 *840:X *215:8 43.8621 
2 *215:8 *215:10 11.0614 
3 *215:10 *842:A 38 
4 *215:10 *215:19 17.0479 
5 *215:19 *215:23 17.5271 
6 *215:23 *215:27 5.40643 
7 *215:27 *215:35 7.105 
8 *215:35 *875:B 23 
9 *215:35 *215:50 34.4536 
10 *215:50 *873:B 23 
11 *215:27 *215:57 0.497143 
12 *215:57 *862:B 23 
13 *215:57 *844:B 25.0507 
14 *215:23 *843:B 23 
15 *215:19 *853:B 43.8207 
*END

*D_NET *216 0.00060267
*CONN
*I *842:B I *D sky130_fd_sc_hd__nor2_2
*I *841:X O *D sky130_fd_sc_hd__o21ba_2
*CAP
1 *842:B 0
2 *841:X 0.000150902
3 *216:8 0.000150902
4 *216:8 *253:10 1.44546e-05
5 *216:8 *253:12 5.26101e-05
6 *216:8 *253:14 2.80934e-05
7 *201:14 *216:8 9.81699e-05
8 *215:10 *216:8 0.000107538
*RES
1 *841:X *216:8 42.0186 
2 *216:8 *842:B 38 
*END

*D_NET *217 0.00936427
*CONN
*I *845:A I *D sky130_fd_sc_hd__nor2_2
*I *848:C I *D sky130_fd_sc_hd__and3_2
*I *847:A2 I *D sky130_fd_sc_hd__a21oi_2
*I *846:B I *D sky130_fd_sc_hd__xor2_2
*I *850:D I *D sky130_fd_sc_hd__and4_2
*I *843:X O *D sky130_fd_sc_hd__and2_2
*CAP
1 *845:A 4.01155e-05
2 *848:C 0
3 *847:A2 0
4 *846:B 0
5 *850:D 0.000360824
6 *843:X 0.000138971
7 *217:67 0.000586499
8 *217:42 0.000846364
9 *217:20 0.000415437
10 *217:18 0.000988741
11 *217:14 0.00110683
12 *217:10 0.000531426
13 *845:A *218:16 0
14 *850:D *852:C 5.73309e-05
15 *850:D *1007:A 8.62783e-05
16 *850:D *255:50 5.67058e-05
17 *850:D *256:14 0.000163352
18 *850:D *256:28 1.72202e-05
19 *850:D *257:29 0.00026865
20 *217:10 *798:B 0.000219873
21 *217:14 *218:16 3.65361e-05
22 *217:18 *953:A 0.000122057
23 *217:18 *368:6 0.000401102
24 *217:20 *256:14 0.000128958
25 *217:20 *257:29 7.03663e-05
26 *217:42 *847:B1 2.64616e-05
27 *217:42 *250:18 0
28 *217:42 *255:80 0.00013129
29 *217:42 *256:14 0.000342696
30 *217:42 *256:68 0.000161121
31 *217:42 *257:29 7.1949e-05
32 *217:67 *847:B1 6.40166e-05
33 *217:67 *848:B 0.000103901
34 *217:67 *957:A 1.12487e-05
35 *217:67 *220:10 2.47702e-05
36 *217:67 *220:26 0.000379403
37 *217:67 *255:80 8.34394e-05
38 *217:67 *255:101 0.000758393
39 *907:D *217:14 0.000184527
40 *5:11 *850:D 5.38017e-05
41 *174:10 *217:42 0.000196549
42 *215:19 *217:10 0.000111148
43 *215:23 *217:10 1.59094e-05
*RES
1 *843:X *217:10 41.5836 
2 *217:10 *217:14 20.3857 
3 *217:14 *217:18 24.1971 
4 *217:18 *217:20 1.90571 
5 *217:20 *850:D 45.6021 
6 *217:20 *846:B 15 
7 *217:18 *217:42 22.9336 
8 *217:42 *847:A2 23 
9 *217:42 *217:67 45.08 
10 *217:67 *848:C 23 
11 *217:14 *845:A 23.8493 
*END

*D_NET *218 0.00244789
*CONN
*I *845:B I *D sky130_fd_sc_hd__nor2_2
*I *844:Y O *D sky130_fd_sc_hd__nor2_2
*CAP
1 *845:B 0
2 *844:Y 7.39772e-05
3 *218:16 0.000917398
4 *218:8 0.000991375
5 *218:8 *873:A 6.07611e-06
6 *218:8 *247:45 3.21327e-05
7 *218:8 *254:58 5.21127e-05
8 *218:16 *254:12 0.00022296
9 *218:16 *254:58 5.41288e-05
10 *845:A *218:16 0
11 *907:D *218:16 6.11926e-05
12 *217:14 *218:16 3.65361e-05
*RES
1 *844:Y *218:8 39.5536 
2 *218:8 *218:16 28.4021 
3 *218:16 *845:B 23 
*END

*D_NET *219 0.0011279
*CONN
*I *849:A I *D sky130_fd_sc_hd__nor2_2
*I *847:Y O *D sky130_fd_sc_hd__a21oi_2
*CAP
1 *849:A 2.35907e-05
2 *847:Y 0.000120665
3 *219:8 0.000144256
4 *849:A *935:CLK 2.64616e-05
5 *849:A *368:6 5.50049e-05
6 *219:8 *220:26 0.000381653
7 *219:8 *250:32 0.000128583
8 *219:8 *250:34 0.000185104
9 *219:8 *250:40 6.25829e-05
*RES
1 *847:Y *219:8 43.075 
2 *219:8 *849:A 38.6214 
*END

*D_NET *220 0.00342454
*CONN
*I *849:B I *D sky130_fd_sc_hd__nor2_2
*I *851:B I *D sky130_fd_sc_hd__xor2_2
*I *848:X O *D sky130_fd_sc_hd__and3_2
*CAP
1 *849:B 0
2 *851:B 4.96203e-05
3 *848:X 0.000231053
4 *220:26 0.000424203
5 *220:12 0.000473823
6 *220:10 0.000231053
7 *851:B *373:8 5.03619e-05
8 *220:10 *848:B 0.000148614
9 *220:10 *255:101 3.7122e-06
10 *220:10 *373:23 0
11 *220:26 *957:A 0.000331938
12 *220:26 *250:32 1.22803e-05
13 *220:26 *255:101 1.22906e-05
14 *220:26 *257:29 0.000579668
15 *220:26 *373:8 9.00923e-05
16 *217:67 *220:10 2.47702e-05
17 *217:67 *220:26 0.000379403
18 *219:8 *220:26 0.000381653
*RES
1 *848:X *220:10 42.6607 
2 *220:10 *220:12 15 
3 *220:12 *851:B 1.02536 
4 *220:12 *220:26 43.9407 
5 *220:26 *849:B 23 
*END

*D_NET *221 0.00152233
*CONN
*I *854:A2 I *D sky130_fd_sc_hd__o21ba_2
*I *850:X O *D sky130_fd_sc_hd__and4_2
*CAP
1 *854:A2 6.17026e-05
2 *850:X 0.000356127
3 *221:10 0.00041783
4 *854:A2 *258:20 5.56279e-05
5 *854:A2 *258:46 5.3304e-05
6 *221:10 *852:C 0.000190627
7 *221:10 *223:14 4.6318e-06
8 *221:10 *250:40 0
9 *221:10 *256:20 0
10 *221:10 *258:18 3.43144e-05
11 *221:10 *258:46 0.000348167
12 *173:8 *221:10 0
*RES
1 *850:X *221:10 45.1257 
2 *221:10 *854:A2 39.0979 
*END

*D_NET *222 0.00647472
*CONN
*I *875:C I *D sky130_fd_sc_hd__and4_2
*I *873:C I *D sky130_fd_sc_hd__and4_2
*I *853:C I *D sky130_fd_sc_hd__and3_2
*I *862:C I *D sky130_fd_sc_hd__and4_2
*I *852:X O *D sky130_fd_sc_hd__and4_2
*CAP
1 *875:C 4.76654e-05
2 *873:C 0
3 *853:C 0.000218072
4 *862:C 0.000776274
5 *852:X 0.000389802
6 *222:47 9.57027e-05
7 *222:39 0.000485099
8 *222:10 0.00109832
9 *222:8 0.000835511
10 *853:C *250:150 0.000206315
11 *853:C *254:36 0
12 *862:C *227:12 4.79544e-05
13 *862:C *228:8 0.00014196
14 *862:C *254:25 0.000203078
15 *222:8 *255:14 7.82513e-05
16 *222:8 *365:193 3.08848e-05
17 *222:10 *907:CLK 0.000107538
18 *222:10 *911:CLK 2.5343e-05
19 *222:10 *911:RESET_B 0
20 *222:10 *250:150 5.31385e-05
21 *222:10 *365:193 0
22 *222:39 *228:8 0.00044107
23 *222:47 *228:16 8.4047e-05
24 *853:B *853:C 0.000139789
25 *853:B *222:10 2.70366e-05
26 *149:10 *853:C 0
27 *149:10 *222:10 0
28 *215:19 *222:10 0.000404249
29 *215:23 *862:C 4.66047e-05
30 *215:27 *862:C 0.000299527
31 *215:35 *222:39 2.4754e-05
32 *215:50 *875:C 2.18409e-05
33 *215:50 *222:39 7.53384e-06
34 *215:50 *222:47 0.000137351
35 *215:57 *862:C 0
*RES
1 *852:X *222:8 43.3857 
2 *222:8 *222:10 11.4136 
3 *222:10 *862:C 46.7621 
4 *222:10 *853:C 43.4271 
5 *862:C *222:39 28.3857 
6 *222:39 *222:47 31.8229 
7 *222:47 *873:C 23 
8 *222:39 *875:C 23.6214 
*END

*D_NET *223 0.00779227
*CONN
*I *859:D I *D sky130_fd_sc_hd__and4_2
*I *858:A3 I *D sky130_fd_sc_hd__a31oi_2
*I *855:B I *D sky130_fd_sc_hd__nand2_2
*I *856:B I *D sky130_fd_sc_hd__xor2_2
*I *854:B1_N I *D sky130_fd_sc_hd__o21ba_2
*I *853:X O *D sky130_fd_sc_hd__and3_2
*CAP
1 *859:D 0
2 *858:A3 0
3 *855:B 0
4 *856:B 0.000500378
5 *854:B1_N 0
6 *853:X 0.000247078
7 *223:78 0.000758826
8 *223:29 0.000660578
9 *223:25 0.000160201
10 *223:23 0.00100124
11 *223:14 0.000696944
12 *223:6 0.00118643
13 *856:B *250:123 1.04983e-05
14 *856:B *255:101 1.83564e-05
15 *223:14 *910:RESET_B 0.000166655
16 *223:14 *258:14 6.29947e-05
17 *223:14 *258:18 4.62182e-05
18 *223:23 *910:RESET_B 0
19 *223:23 *250:89 0.000304171
20 *223:23 *250:100 0.000183237
21 *223:29 *224:10 2.4732e-05
22 *223:29 *259:33 0.000233359
23 *223:78 *857:A 0.000365549
24 *223:78 *859:B 0.000309947
25 *223:78 *859:C 1.76557e-05
26 *223:78 *226:8 0.000425842
27 *223:78 *250:100 0.000246248
28 *223:78 *250:109 1.81838e-05
29 *223:78 *260:34 6.343e-05
30 *914:D *223:78 7.88828e-05
31 *221:10 *223:14 4.6318e-06
*RES
1 *853:X *223:6 26.0036 
2 *223:6 *223:14 42.8843 
3 *223:14 *854:B1_N 23 
4 *223:6 *223:23 21.4836 
5 *223:23 *223:25 15 
6 *223:25 *223:29 3.97714 
7 *223:29 *856:B 39.0729 
8 *223:29 *855:B 23 
9 *223:25 *858:A3 23 
10 *223:23 *223:78 34.865 
11 *223:78 *859:D 23 
*END

*D_NET *224 0.000625136
*CONN
*I *857:B I *D sky130_fd_sc_hd__xnor2_2
*I *855:Y O *D sky130_fd_sc_hd__nand2_2
*CAP
1 *857:B 0
2 *855:Y 0.000165326
3 *224:10 0.000165326
4 *224:10 *259:22 0.000169683
5 *224:10 *259:33 0.000100069
6 *223:29 *224:10 2.4732e-05
*RES
1 *855:Y *224:10 41.8321 
2 *224:10 *857:B 38 
*END

*D_NET *225 0.00222399
*CONN
*I *860:A I *D sky130_fd_sc_hd__nor2_2
*I *858:Y O *D sky130_fd_sc_hd__a31oi_2
*CAP
1 *860:A 0
2 *858:Y 4.00127e-05
3 *225:12 0.000508632
4 *225:8 0.000548644
5 *225:8 *260:63 3.22879e-05
6 *225:12 *803:A 0
7 *225:12 *860:B 0
8 *225:12 *914:RESET_B 3.47879e-05
9 *225:12 *226:10 0
10 *225:12 *260:10 0.000451103
11 *225:12 *260:34 0.000246748
12 *225:12 *286:8 0.000192303
13 *225:12 *365:327 0.00010404
14 axi_rdata[11] *225:12 0
15 *11:13 *225:12 2.26497e-05
16 *149:10 *225:12 0
17 *179:8 *225:12 4.27801e-05
*RES
1 *858:Y *225:8 38.6214 
2 *225:8 *225:12 28.1743 
3 *225:12 *860:A 23 
*END

*D_NET *226 0.00517358
*CONN
*I *860:B I *D sky130_fd_sc_hd__nor2_2
*I *863:A2 I *D sky130_fd_sc_hd__o21ba_2
*I *859:X O *D sky130_fd_sc_hd__and4_2
*CAP
1 *860:B 0.000379789
2 *863:A2 0
3 *859:X 0.000250222
4 *226:20 0.000933969
5 *226:10 0.00171334
6 *226:8 0.000649803
7 *860:B *291:10 5.50049e-05
8 *226:8 *1012:A 2.93845e-05
9 *226:8 *261:26 9.5877e-05
10 *226:8 *261:39 4.34745e-05
11 *226:10 *915:RESET_B 0.00025307
12 *226:10 *260:34 0
13 *226:10 *286:8 0
14 *226:20 *804:B 1.05441e-05
15 axi_rdata[11] *860:B 3.91814e-05
16 axi_rdata[11] *226:10 0.000120633
17 *11:13 *226:20 0.000171218
18 *12:13 *226:20 0
19 *149:10 *226:20 0
20 *180:14 *226:20 2.23334e-06
21 *223:78 *226:8 0.000425842
22 *225:12 *860:B 0
23 *225:12 *226:10 0
*RES
1 *859:X *226:8 43.8621 
2 *226:8 *226:10 8.42036 
3 *226:10 *226:20 33.1803 
4 *226:20 *863:A2 23 
5 *226:10 *860:B 44.5354 
*END

*D_NET *227 0.0043754
*CONN
*I *874:C I *D sky130_fd_sc_hd__and4_2
*I *872:B I *D sky130_fd_sc_hd__and3_2
*I *862:D I *D sky130_fd_sc_hd__and4_2
*I *861:X O *D sky130_fd_sc_hd__and4_2
*CAP
1 *874:C 0.000159498
2 *872:B 0
3 *862:D 0
4 *861:X 0
5 *227:27 0.000201013
6 *227:19 0.000806309
7 *227:12 0.00058399
8 *227:4 0.00102979
9 *874:C *228:30 2.46468e-05
10 *874:C *228:41 4.34745e-05
11 *874:C *230:27 1.76557e-05
12 *874:C *230:33 0.000118143
13 *874:C *266:41 0.00035673
14 *227:12 *798:B 0
15 *227:12 *914:RESET_B 0
16 *227:12 *931:RESET_B 0.000282643
17 *227:12 *228:8 9.84851e-05
18 *227:12 *254:36 0
19 *227:12 *321:8 0
20 *227:12 *371:10 0
21 *227:19 *861:D 7.43025e-06
22 *227:19 *1006:A 6.51763e-05
23 *227:19 *228:30 0.000105106
24 *227:19 *259:50 0.00014196
25 *227:27 *228:16 9.58714e-05
26 *227:27 *266:41 8.4047e-05
27 *227:27 *359:12 3.83778e-05
28 *862:C *227:12 4.79544e-05
29 *918:D *227:27 6.71014e-05
*RES
1 *861:X *227:4 23 
2 *227:4 *227:12 41.7036 
3 *227:12 *862:D 23 
4 *227:4 *227:19 6.33857 
5 *227:19 *227:27 33.2521 
6 *227:27 *872:B 23 
7 *227:19 *874:C 28.7793 
*END

*D_NET *228 0.01116
*CONN
*I *869:B I *D sky130_fd_sc_hd__and3_2
*I *864:B I *D sky130_fd_sc_hd__xor2_2
*I *863:B1_N I *D sky130_fd_sc_hd__o21ba_2
*I *865:A2 I *D sky130_fd_sc_hd__a21oi_2
*I *868:A1 I *D sky130_fd_sc_hd__a21oi_2
*I *867:A1 I *D sky130_fd_sc_hd__a21oi_2
*I *862:X O *D sky130_fd_sc_hd__and4_2
*CAP
1 *869:B 0
2 *864:B 3.42405e-05
3 *863:B1_N 0.00137302
4 *865:A2 0
5 *868:A1 0
6 *867:A1 0
7 *862:X 0.000120923
8 *228:73 0.0016633
9 *228:59 0.000308396
10 *228:45 0.000506757
11 *228:41 0.000564527
12 *228:30 0.000427651
13 *228:16 0.000788494
14 *228:8 0.000591892
15 *863:B1_N *804:A 0.000132166
16 *863:B1_N *804:B 0.000163233
17 *863:B1_N *947:A 1.21972e-05
18 *863:B1_N *1013:A 5.9504e-05
19 *863:B1_N *285:10 8.06804e-06
20 *863:B1_N *289:8 8.66936e-06
21 *863:B1_N *328:8 0.000409165
22 *228:8 *875:A 9.75779e-05
23 *228:8 *254:71 4.19743e-05
24 *228:16 *870:B 0
25 *228:16 *946:A 4.99753e-06
26 *228:16 *232:8 0
27 *228:16 *234:10 0.000376261
28 *228:16 *247:45 6.9717e-05
29 *228:16 *247:73 9.6652e-05
30 *228:16 *251:36 2.61802e-05
31 *228:16 *251:47 7.75329e-06
32 *228:16 *266:41 8.72173e-05
33 *228:16 *359:8 1.24376e-05
34 *228:30 *861:D 4.45741e-05
35 *228:30 *867:A2 5.3304e-05
36 *228:30 *869:C 6.4393e-05
37 *228:30 *1006:A 5.50106e-05
38 *228:30 *230:33 2.4754e-05
39 *228:30 *321:8 0
40 *228:30 *359:8 6.82416e-05
41 *228:41 *861:D 8.16253e-05
42 *228:41 *229:10 7.76364e-06
43 *228:41 *230:33 2.93747e-05
44 *228:41 *359:12 6.7177e-06
45 *228:45 *229:10 0.0001164
46 *228:59 *872:A 2.96369e-05
47 *228:59 *229:10 9.84794e-05
48 *228:59 *230:18 6.21448e-05
49 *228:59 *230:27 6.39531e-05
50 *228:59 *266:62 0
51 *228:59 *267:47 6.07611e-06
52 *228:73 *861:D 0.000111045
53 *228:73 *950:A 8.76088e-05
54 *228:73 *262:19 0.000139639
55 *228:73 *359:12 1.02387e-05
56 *844:B *228:8 0.000184527
57 *862:C *228:8 0.00014196
58 *874:C *228:30 2.46468e-05
59 *874:C *228:41 4.34745e-05
60 *918:D *228:16 9.16362e-05
61 *83:8 *228:45 1.94693e-05
62 *83:14 *228:73 0.000174476
63 *180:14 *863:B1_N 0.000272313
64 *183:8 *228:41 8.16253e-05
65 *183:8 *228:73 8.51432e-05
66 *184:8 *228:16 0
67 *215:27 *228:8 1.72202e-05
68 *215:35 *228:8 2.24793e-05
69 *215:50 *228:16 2.24973e-05
70 *222:39 *228:8 0.00044107
71 *222:47 *228:16 8.4047e-05
72 *227:12 *228:8 9.84851e-05
73 *227:19 *228:30 0.000105106
74 *227:27 *228:16 9.58714e-05
*RES
1 *862:X *228:8 44.3386 
2 *228:8 *228:16 26.1443 
3 *228:16 *228:30 36.6493 
4 *228:30 *867:A1 23 
5 *228:30 *228:41 18.2314 
6 *228:41 *228:45 18.9564 
7 *228:45 *228:59 36.0486 
8 *228:59 *868:A1 23 
9 *228:45 *865:A2 23 
10 *228:41 *228:73 23.9486 
11 *228:73 *863:B1_N 45.1436 
12 *228:73 *864:B 0.548929 
13 *228:16 *869:B 23 
*END

*D_NET *229 0.00105715
*CONN
*I *867:B1 I *D sky130_fd_sc_hd__a21oi_2
*I *865:Y O *D sky130_fd_sc_hd__a21oi_2
*CAP
1 *867:B1 0
2 *865:Y 0.000291325
3 *229:10 0.000291325
4 *229:10 *251:47 0.000138708
5 *183:8 *229:10 0.000113153
6 *228:41 *229:10 7.76364e-06
7 *228:45 *229:10 0.0001164
8 *228:59 *229:10 9.84794e-05
*RES
1 *865:Y *229:10 43.3857 
2 *229:10 *867:B1 38 
*END

*D_NET *230 0.00520863
*CONN
*I *874:D I *D sky130_fd_sc_hd__and4_2
*I *867:A2 I *D sky130_fd_sc_hd__a21oi_2
*I *869:C I *D sky130_fd_sc_hd__and3_2
*I *868:A2 I *D sky130_fd_sc_hd__a21oi_2
*I *866:X O *D sky130_fd_sc_hd__and2_2
*CAP
1 *874:D 0
2 *867:A2 2.32701e-05
3 *869:C 0.000182695
4 *868:A2 0
5 *866:X 0.000554897
6 *230:33 0.000628373
7 *230:27 0.000637878
8 *230:18 0.000486268
9 *230:10 0.000825695
10 *867:A2 *861:D 5.3304e-05
11 *869:C *321:8 0
12 *869:C *359:12 0.00021356
13 *230:10 *866:B 9.36522e-05
14 *230:10 *964:A 2.93845e-05
15 *230:10 *265:12 0
16 *230:10 *267:33 1.97329e-05
17 *230:10 *335:10 0
18 *230:18 *266:12 6.7063e-05
19 *230:18 *266:21 2.93845e-05
20 *230:18 *266:25 7.1349e-05
21 *230:18 *266:31 0.000272471
22 *230:18 *267:33 0.000120857
23 *230:18 *267:47 0.000176355
24 *230:27 *266:31 9.24795e-06
25 *230:27 *266:41 9.24795e-06
26 *230:27 *267:47 4.9662e-05
27 *230:33 *861:D 9.41704e-05
28 *230:33 *259:50 0
29 *230:33 *359:12 5.94125e-05
30 *874:C *230:27 1.76557e-05
31 *874:C *230:33 0.000118143
32 *918:D *869:C 5.50106e-05
33 *184:8 *869:C 1.19692e-05
34 *228:30 *867:A2 5.3304e-05
35 *228:30 *869:C 6.4393e-05
36 *228:30 *230:33 2.4754e-05
37 *228:41 *230:33 2.93747e-05
38 *228:59 *230:18 6.21448e-05
39 *228:59 *230:27 6.39531e-05
*RES
1 *866:X *230:10 47.1557 
2 *230:10 *230:18 24.3629 
3 *230:18 *868:A2 23 
4 *230:18 *230:27 3.72857 
5 *230:27 *230:33 21.235 
6 *230:33 *869:C 42.2879 
7 *230:33 *867:A2 38.6214 
8 *230:27 *874:D 23 
*END

*D_NET *231 0.00327817
*CONN
*I *870:A I *D sky130_fd_sc_hd__nor2_2
*I *868:Y O *D sky130_fd_sc_hd__a21oi_2
*CAP
1 *870:A 0
2 *868:Y 0.000342675
3 *231:20 0.000603995
4 *231:10 0.00094667
5 *231:10 *266:21 0
6 *231:10 *266:25 1.14154e-05
7 *231:10 *266:31 0.000253542
8 *231:10 *266:41 0.000226306
9 *231:20 *872:A 3.71697e-05
10 *231:20 *873:A 5.67058e-05
11 *231:20 *919:CLK 9.5877e-05
12 *231:20 *235:12 5.50049e-05
13 *231:20 *235:23 8.17328e-05
14 *231:20 *236:8 0.000517745
15 *185:10 *231:20 0
16 *215:50 *231:20 4.93341e-05
*RES
1 *868:Y *231:10 43.8829 
2 *231:10 *231:20 27.615 
3 *231:20 *870:A 23 
*END

*D_NET *232 0.00107296
*CONN
*I *876:A2 I *D sky130_fd_sc_hd__o21ba_2
*I *870:B I *D sky130_fd_sc_hd__nor2_2
*I *869:X O *D sky130_fd_sc_hd__and3_2
*CAP
1 *876:A2 5.20679e-05
2 *870:B 0.000148794
3 *869:X 9.23569e-05
4 *232:8 0.000293219
5 *870:B *247:73 0
6 *876:A2 *876:A1 0.000283919
7 *876:A2 *247:73 6.17437e-06
8 *184:8 *870:B 0.000129651
9 *184:8 *232:8 6.67764e-05
10 *228:16 *870:B 0
11 *228:16 *232:8 0
*RES
1 *869:X *232:8 39.9057 
2 *232:8 *870:B 41.3143 
3 *232:8 *876:A2 40.0507 
*END

*D_NET *233 0.00175071
*CONN
*I *872:C I *D sky130_fd_sc_hd__and3_2
*I *871:X O *D sky130_fd_sc_hd__and3_2
*CAP
1 *872:C 0.000602647
2 *871:X 0.000160633
3 *233:8 0.00076328
4 *872:C *872:A 0.000182826
5 *872:C *918:CLK 1.21972e-05
6 *233:8 *872:A 0
7 *233:8 *920:CLK 0
8 *233:8 *266:8 0
9 *233:8 *267:33 0
10 *918:D *872:C 2.9132e-05
*RES
1 *871:X *233:8 40.9621 
2 *233:8 *872:C 46.2443 
*END

*D_NET *234 0.00106098
*CONN
*I *873:D I *D sky130_fd_sc_hd__and4_2
*I *872:X O *D sky130_fd_sc_hd__and3_2
*CAP
1 *873:D 0
2 *872:X 0.000202249
3 *234:10 0.000202249
4 *234:10 *946:A 2.08324e-05
5 *234:10 *235:12 0.000140958
6 *234:10 *251:10 1.99391e-05
7 *234:10 *251:36 7.20312e-05
8 *918:D *234:10 2.64616e-05
9 *228:16 *234:10 0.000376261
*RES
1 *872:X *234:10 43.6964 
2 *234:10 *873:D 38 
*END

*D_NET *235 0.00860841
*CONN
*I *879:C I *D sky130_fd_sc_hd__and3_2
*I *884:A1_N I *D sky130_fd_sc_hd__o2bb2a_2
*I *877:B I *D sky130_fd_sc_hd__xor2_2
*I *878:A2 I *D sky130_fd_sc_hd__a21oi_2
*I *885:A1 I *D sky130_fd_sc_hd__a21oi_2
*I *891:B I *D sky130_fd_sc_hd__and4_2
*I *876:B1_N I *D sky130_fd_sc_hd__o21ba_2
*I *873:X O *D sky130_fd_sc_hd__and4_2
*CAP
1 *879:C 0
2 *884:A1_N 6.00206e-05
3 *877:B 0.000282561
4 *878:A2 2.34823e-05
5 *885:A1 5.44936e-05
6 *891:B 0
7 *876:B1_N 0
8 *873:X 0
9 *235:75 0.000606536
10 *235:67 0.000399167
11 *235:63 0.000214868
12 *235:45 0.000858265
13 *235:25 0.00141206
14 *235:23 0.00124278
15 *235:12 9.858e-05
16 *235:4 0.000665847
17 *877:B *268:76 8.8375e-05
18 *877:B *268:86 5.41288e-05
19 *877:B *269:35 0.000139352
20 *884:A1_N *879:B 4.04206e-05
21 *884:A1_N *884:A2_N 0.000110053
22 *884:A1_N *239:14 6.69016e-05
23 *884:A1_N *268:86 5.67058e-05
24 *885:A1 *241:37 0.000141954
25 *885:A1 *242:12 7.53384e-06
26 *235:12 *251:10 8.62876e-05
27 *235:12 *251:36 5.24393e-05
28 *235:23 *919:CLK 2.4754e-05
29 *235:23 *236:8 0
30 *235:25 *884:A2_N 0
31 *235:25 *885:B1 9.28078e-06
32 *235:25 *237:8 0
33 *235:25 *237:14 0
34 *235:25 *241:37 0
35 *235:45 *815:B 2.17681e-05
36 *235:45 *885:B1 2.11066e-05
37 *235:45 *891:C 3.7681e-05
38 *235:45 *237:14 0
39 *235:45 *241:31 7.87537e-05
40 *235:45 *244:22 0
41 *235:45 *249:125 3.64538e-05
42 *235:45 *272:16 5.52635e-05
43 *235:45 *275:16 0.00010018
44 *235:45 *306:12 0.000384972
45 *235:45 *347:18 6.12823e-05
46 *235:45 *374:12 0.000106777
47 *235:63 *239:14 0.00010018
48 *235:67 *879:B 3.22879e-05
49 *235:67 *884:A2_N 0
50 *235:67 *239:14 2.18409e-05
51 *235:75 *876:A1 1.21972e-05
52 *235:75 *923:CLK 7.76364e-06
53 *235:75 *251:74 9.41704e-05
54 *235:75 *267:12 0.000114083
55 *235:75 *268:86 0.000142007
56 *27:17 *235:45 0.000105097
57 *185:10 *235:23 0
58 *231:20 *235:12 5.50049e-05
59 *231:20 *235:23 8.17328e-05
60 *234:10 *235:12 0.000140958
*RES
1 *873:X *235:4 23 
2 *235:4 *235:12 32.5271 
3 *235:12 *876:B1_N 23 
4 *235:4 *235:23 23.7 
5 *235:23 *235:25 9.30071 
6 *235:25 *235:45 39.1089 
7 *235:45 *891:B 23 
8 *235:25 *885:A1 39.5743 
9 *235:23 *235:63 18.48 
10 *235:63 *235:67 1.11857 
11 *235:67 *235:75 37.1257 
12 *235:75 *878:A2 23.4971 
13 *235:75 *877:B 5.68607 
14 *235:67 *884:A1_N 25.2061 
15 *235:63 *879:C 23 
*END

*D_NET *236 0.00224602
*CONN
*I *875:D I *D sky130_fd_sc_hd__and4_2
*I *874:X O *D sky130_fd_sc_hd__and4_2
*CAP
1 *875:D 2.32824e-05
2 *874:X 0.000432591
3 *236:8 0.000455874
4 *875:D *946:A 5.50049e-05
5 *236:8 *946:A 0.000169674
6 *236:8 *251:10 0.000133316
7 *236:8 *251:36 0.000293785
8 *236:8 *251:47 0.000138727
9 *215:50 *236:8 2.60152e-05
10 *231:20 *236:8 0.000517745
11 *235:23 *236:8 0
*RES
1 *874:X *236:8 48.3571 
2 *236:8 *875:D 38.6214 
*END

*D_NET *237 0.00729458
*CONN
*I *881:D I *D sky130_fd_sc_hd__and4_2
*I *889:A I *D sky130_fd_sc_hd__and3_2
*I *886:B I *D sky130_fd_sc_hd__and3_2
*I *875:X O *D sky130_fd_sc_hd__and4_2
*CAP
1 *881:D 0
2 *889:A 0
3 *886:B 0.000277245
4 *875:X 0.00028207
5 *237:42 0.000752086
6 *237:29 0.000382095
7 *237:14 0.00120187
8 *237:8 0.00157668
9 *886:B *886:A 0.000116564
10 *886:B *886:C 8.91468e-07
11 *237:8 *247:45 0
12 *237:14 *885:B1 0
13 *237:14 *886:A 9.30054e-05
14 *237:14 *247:15 0
15 *237:14 *247:45 0
16 *237:14 *364:26 0
17 *237:29 *838:A1 3.04381e-05
18 *237:29 *838:B1 0.000178517
19 *237:29 *892:B 0.000113576
20 *237:29 *283:33 0.000223704
21 *237:42 *1029:A 0.000485452
22 *825:A_N *237:14 4.23817e-05
23 *825:A_N *237:29 0.000189916
24 *838:A2 *237:29 0.000537451
25 *21:23 *237:42 6.54004e-05
26 *100:8 *237:42 0.000443673
27 *195:12 *237:14 0
28 *205:88 *237:29 1.12487e-05
29 *206:16 *237:29 0.000237012
30 *210:26 *237:29 5.3304e-05
31 *235:25 *237:8 0
32 *235:25 *237:14 0
33 *235:45 *237:14 0
*RES
1 *875:X *237:8 43.4271 
2 *237:8 *237:14 24.2386 
3 *237:14 *886:B 26.48 
4 *237:14 *237:29 41.0821 
5 *237:29 *889:A 23 
6 *237:8 *237:42 31.385 
7 *237:42 *881:D 23 
*END

*D_NET *238 0.000427903
*CONN
*I *880:A I *D sky130_fd_sc_hd__nor2_2
*I *878:Y O *D sky130_fd_sc_hd__a21oi_2
*CAP
1 *880:A 1.49804e-05
2 *878:Y 9.74627e-05
3 *238:8 0.000112443
4 *880:A *880:B 5.50106e-05
5 *880:A *920:CLK 5.50106e-05
6 *238:8 *880:B 6.7177e-06
7 *238:8 *918:RESET_B 8.62783e-05
8 *238:8 *267:33 0
9 *187:10 *238:8 0
*RES
1 *878:Y *238:8 39.9057 
2 *238:8 *880:A 38.6214 
*END

*D_NET *239 0.00290662
*CONN
*I *880:B I *D sky130_fd_sc_hd__nor2_2
*I *882:A2 I *D sky130_fd_sc_hd__o21ba_2
*I *879:X O *D sky130_fd_sc_hd__and3_2
*CAP
1 *880:B 0.000361831
2 *882:A2 2.32701e-05
3 *879:X 0.000444356
4 *239:14 0.000829457
5 *880:B *918:RESET_B 0.000172333
6 *880:B *920:CLK 0.000132749
7 *880:B *923:CLK 7.75329e-06
8 *880:B *251:76 5.68527e-05
9 *880:B *267:33 6.68793e-05
10 *880:B *269:35 0.000215801
11 *882:A2 *882:A1 5.3304e-05
12 *882:A2 *251:89 5.3304e-05
13 *239:14 *923:CLK 5.87176e-05
14 *239:14 *268:86 5.50049e-05
15 *239:14 *269:35 0.000124357
16 *880:A *880:B 5.50106e-05
17 *884:A1_N *239:14 6.69016e-05
18 *235:63 *239:14 0.00010018
19 *235:67 *239:14 2.18409e-05
20 *238:8 *880:B 6.7177e-06
*RES
1 *879:X *239:14 44.6286 
2 *239:14 *882:A2 38.6214 
3 *239:14 *880:B 46.9279 
*END

*D_NET *240 0.00150537
*CONN
*I *882:B1_N I *D sky130_fd_sc_hd__o21ba_2
*I *884:B1 I *D sky130_fd_sc_hd__o2bb2a_2
*I *881:X O *D sky130_fd_sc_hd__and4_2
*CAP
1 *882:B1_N 0.000132285
2 *884:B1 0
3 *881:X 0.000375222
4 *240:10 0.000507506
5 *882:B1_N *882:A1 5.50106e-05
6 *882:B1_N *918:RESET_B 2.96154e-05
7 *882:B1_N *251:89 5.50106e-05
8 *882:B1_N *251:95 8.9356e-05
9 *882:B1_N *268:25 0
10 *882:B1_N *269:35 2.65002e-05
11 *882:B1_N *269:48 0
12 *882:B1_N *365:79 3.83778e-05
13 *240:10 *884:A2_N 0
14 *240:10 *249:125 4.08537e-05
15 *240:10 *269:35 1.19796e-05
16 *240:10 *269:48 0
17 *21:23 *240:10 0.000143655
18 *189:10 *240:10 0
*RES
1 *881:X *240:10 44.2971 
2 *240:10 *884:B1 38 
3 *240:10 *882:B1_N 41.5836 
*END

*D_NET *241 0.00986614
*CONN
*I *884:A2_N I *D sky130_fd_sc_hd__o2bb2a_2
*I *885:A2 I *D sky130_fd_sc_hd__a21oi_2
*I *886:C I *D sky130_fd_sc_hd__and3_2
*I *889:B I *D sky130_fd_sc_hd__and3_2
*I *891:C I *D sky130_fd_sc_hd__and4_2
*I *883:X O *D sky130_fd_sc_hd__and4_2
*CAP
1 *884:A2_N 0.000360944
2 *885:A2 0
3 *886:C 6.23257e-05
4 *889:B 0.000464417
5 *891:C 0.000310788
6 *883:X 0
7 *241:43 0.0012137
8 *241:37 0.00111099
9 *241:31 0.00145082
10 *241:6 0.000976627
11 *884:A2_N *879:B 0.000182826
12 *884:A2_N *923:CLK 0.000194309
13 *884:A2_N *269:18 0
14 *884:A2_N *299:8 0.000139411
15 *889:B *892:B 0.0001508
16 *889:B *243:8 0.000184825
17 *889:B *243:12 5.50049e-05
18 *889:B *282:16 7.76364e-06
19 *891:C *246:10 2.93845e-05
20 *891:C *272:16 2.02872e-05
21 *891:C *272:44 1.46594e-05
22 *891:C *275:16 5.3304e-05
23 *891:C *346:10 0.000192337
24 *891:C *365:54 0.000326243
25 *241:31 *814:A 4.51797e-05
26 *241:31 *268:37 0.000117839
27 *241:31 *270:24 6.69209e-05
28 *241:31 *306:12 0
29 *241:31 *365:54 8.58497e-05
30 *241:37 *242:12 0.000146183
31 *241:37 *249:125 0
32 *241:37 *341:18 5.67058e-05
33 *241:43 *247:8 0.000103647
34 *241:43 *247:15 0
35 *241:43 *247:45 0
36 *241:43 *282:29 9.50092e-05
37 *241:43 *283:46 1.4471e-05
38 *241:43 *365:213 0
39 axi_rdata[3] *241:37 3.98859e-05
40 *884:A1_N *884:A2_N 0.000110053
41 *885:A1 *241:37 0.000141954
42 *886:B *886:C 8.91468e-07
43 *22:15 *241:31 0.000148916
44 *27:17 *891:C 8.14254e-05
45 *94:10 *891:C 5.87104e-05
46 *94:10 *241:31 2.31765e-05
47 *95:10 *241:37 0.000359326
48 *212:12 *889:B 0.000207219
49 *212:12 *241:43 0.0002487
50 *214:10 *889:B 9.5877e-05
51 *235:25 *884:A2_N 0
52 *235:25 *241:37 0
53 *235:45 *891:C 3.7681e-05
54 *235:45 *241:31 7.87537e-05
55 *235:67 *884:A2_N 0
56 *240:10 *884:A2_N 0
*RES
1 *883:X *241:6 38 
2 *241:6 *891:C 45.9129 
3 *241:6 *241:31 19.065 
4 *241:31 *241:37 25.4296 
5 *241:37 *241:43 29.6036 
6 *241:43 *889:B 45.8714 
7 *241:43 *886:C 38.6214 
8 *241:37 *885:A2 23 
9 *241:31 *884:A2_N 47.1246 
*END

*D_NET *242 0.0043685
*CONN
*I *887:A I *D sky130_fd_sc_hd__nor2_2
*I *885:Y O *D sky130_fd_sc_hd__a21oi_2
*CAP
1 *887:A 0
2 *885:Y 0.000395423
3 *242:18 0.00122771
4 *242:12 0.00162314
5 *242:12 *885:B1 0
6 *242:12 *302:10 7.23805e-05
7 *242:12 *306:12 7.37814e-06
8 *242:12 *341:18 6.17437e-06
9 *242:18 *788:B 0
10 *242:18 *823:D 3.71251e-05
11 *242:18 *885:B1 0
12 *242:18 *886:A 0
13 *242:18 *896:RESET_B 4.86636e-05
14 *242:18 *898:RESET_B 1.44546e-05
15 *242:18 *249:16 9.62666e-05
16 *242:18 *315:77 4.48568e-05
17 *242:18 *346:22 2.31209e-05
18 *242:18 *375:10 0.000139072
19 axi_rdata[3] *242:12 0
20 axi_rdata[3] *242:18 0.00047902
21 *885:A1 *242:12 7.53384e-06
22 *28:9 *242:18 0
23 *241:37 *242:12 0.000146183
*RES
1 *885:Y *242:12 44.6079 
2 *242:12 *242:18 40.085 
3 *242:18 *887:A 23 
*END

*D_NET *243 0.00842156
*CONN
*I *890:A2 I *D sky130_fd_sc_hd__o21ba_2
*I *887:B I *D sky130_fd_sc_hd__nor2_2
*I *886:X O *D sky130_fd_sc_hd__and3_2
*CAP
1 *890:A2 0.000203143
2 *887:B 0
3 *886:X 0.000106158
4 *243:20 0.000538663
5 *243:12 0.00168231
6 *243:8 0.00104666
7 *890:A2 *890:B1_N 4.67488e-05
8 *890:A2 *927:CLK 0.000150445
9 *243:8 *282:16 2.96051e-05
10 *243:8 *282:29 6.33614e-05
11 *243:12 *890:B1_N 4.05745e-05
12 *243:12 *892:B 0.00128191
13 *243:12 *307:8 0.000308946
14 *243:12 *379:14 0.000348905
15 *243:20 *816:B 0.000160859
16 *243:20 *966:A 9.5877e-05
17 *243:20 *347:18 6.42354e-05
18 *243:20 *379:14 1.88823e-05
19 *243:20 *382:8 0.000792181
20 *889:B *243:8 0.000184825
21 *889:B *243:12 5.50049e-05
22 *190:8 *243:20 5.3304e-05
23 *192:12 *243:20 0.000812506
24 *193:8 *243:20 0.000336449
*RES
1 *886:X *243:8 40.61 
2 *243:8 *243:12 34.6786 
3 *243:12 *243:20 47.4414 
4 *243:20 *887:B 23 
5 *243:12 *890:A2 26.9979 
*END

*D_NET *244 0.00730818
*CONN
*I *891:D I *D sky130_fd_sc_hd__and4_2
*I *889:C I *D sky130_fd_sc_hd__and3_2
*I *888:X O *D sky130_fd_sc_hd__and2_2
*CAP
1 *891:D 0.000234901
2 *889:C 0
3 *888:X 0.000574784
4 *244:22 0.00191191
5 *244:14 0.00226181
6 *244:10 0.000689784
7 *891:D *275:16 0.000141152
8 *891:D *347:18 0
9 *891:D *365:54 1.02104e-05
10 *244:10 *272:52 5.50106e-05
11 *244:10 *365:54 2.26497e-05
12 *244:10 *374:24 4.35681e-06
13 *244:10 *378:12 0.000103637
14 *244:22 *798:B 0
15 *244:22 *817:B 0
16 *244:22 *374:12 0.00025098
17 axi_rdata[31] *244:14 0.000101269
18 axi_rdata[31] *244:22 0.000216348
19 *24:15 *244:10 0.000395901
20 *26:19 *244:14 2.79044e-05
21 *26:19 *244:22 0.000221433
22 *213:10 *244:22 8.41515e-05
23 *235:45 *244:22 0
*RES
1 *888:X *244:10 49.4239 
2 *244:10 *244:14 8.39947 
3 *244:14 *244:22 30.2985 
4 *244:22 *889:C 23 
5 *244:14 *891:D 49.4075 
*END

*D_NET *245 0.00462176
*CONN
*I *890:B1_N I *D sky130_fd_sc_hd__o21ba_2
*I *892:B I *D sky130_fd_sc_hd__xor2_2
*I *889:X O *D sky130_fd_sc_hd__and3_2
*CAP
1 *890:B1_N 0.000140368
2 *892:B 0.000841228
3 *889:X 0.000700861
4 *890:B1_N *927:CLK 0.0002246
5 *890:B1_N *379:14 0.000130122
6 *892:B *838:A1 3.04381e-05
7 *892:B *838:B1 0.000180218
8 *892:B *283:33 0.000253941
9 *892:B *283:68 1.41129e-05
10 *889:B *892:B 0.0001508
11 *890:A2 *890:B1_N 4.67488e-05
12 *985:A *892:B 5.50049e-05
13 *25:17 *892:B 0.00026808
14 *210:26 *892:B 5.3304e-05
15 *214:10 *892:B 9.5877e-05
16 *237:29 *892:B 0.000113576
17 *243:12 *890:B1_N 4.05745e-05
18 *243:12 *892:B 0.00128191
*RES
1 *889:X *892:B 43.6004 
2 *892:B *890:B1_N 26.4075 
*END

*D_NET *246 0.000929857
*CONN
*I *893:B I *D sky130_fd_sc_hd__xor2_2
*I *891:X O *D sky130_fd_sc_hd__and4_2
*CAP
1 *893:B 0
2 *891:X 0.000236329
3 *246:10 0.000236329
4 *246:10 *272:44 0.00026808
5 *246:10 *341:10 1.94693e-05
6 *246:10 *374:24 8.14029e-05
7 *891:C *246:10 2.93845e-05
8 *24:15 *246:10 0
9 *27:17 *246:10 2.65753e-05
10 *94:10 *246:10 3.22879e-05
*RES
1 *891:X *246:10 43.6136 
2 *246:10 *893:B 15 
*END

*D_NET *247 0.0092394
*CONN
*I *943:A I *D sky130_fd_sc_hd__clkbuf_16
*I *942:A I *D sky130_fd_sc_hd__clkbuf_16
*I *941:A I *D sky130_fd_sc_hd__clkbuf_16
*I *940:A I *D sky130_fd_sc_hd__clkbuf_16
*I *939:X O *D sky130_fd_sc_hd__clkbuf_16
*CAP
1 *943:A 0.00015006
2 *942:A 0.000133309
3 *941:A 0.000148389
4 *940:A 0.000150862
5 *939:X 9.5908e-05
6 *247:73 0.00042363
7 *247:57 0.00104706
8 *247:45 0.00183526
9 *247:31 0.000625457
10 *247:17 0.000262266
11 *247:15 0.0012454
12 *247:8 0.00140078
13 *941:A *1004:A 2.64616e-05
14 *942:A *250:150 1.81259e-05
15 *943:A *876:A1 4.48115e-05
16 *943:A *251:8 5.3304e-05
17 *247:15 *283:46 0.000199551
18 *247:15 *304:10 0.00013655
19 *247:45 *873:A 0
20 *247:45 *254:58 0
21 *247:57 *250:150 2.90391e-05
22 *247:73 *876:A1 3.75544e-05
23 *825:A_N *247:15 0
24 *870:B *247:73 0
25 *876:A2 *247:73 6.17437e-06
26 *34:17 *940:A 5.8912e-05
27 *75:8 *941:A 2.00606e-05
28 *75:8 *247:31 4.48855e-05
29 *149:10 *247:57 1.44534e-05
30 *206:16 *247:15 0.000460105
31 *210:41 *247:17 7.43209e-05
32 *210:41 *247:31 4.68302e-05
33 *211:10 *247:15 9.23932e-05
34 *211:10 *247:31 5.53276e-05
35 *212:12 *247:15 0
36 *218:8 *247:45 3.21327e-05
37 *228:16 *247:45 6.9717e-05
38 *228:16 *247:73 9.6652e-05
39 *237:8 *247:45 0
40 *237:14 *247:15 0
41 *237:14 *247:45 0
42 *241:43 *247:8 0.000103647
43 *241:43 *247:15 0
44 *241:43 *247:45 0
*RES
1 *939:X *247:8 40.0507 
2 *247:8 *247:15 30.9914 
3 *247:15 *247:17 1.8125 
4 *247:17 *940:A 25.6618 
5 *247:15 *247:31 7.52964 
6 *247:31 *941:A 25.6618 
7 *247:8 *247:45 11.5896 
8 *247:45 *247:57 34.3531 
9 *247:57 *942:A 25.0145 
10 *247:45 *247:73 19.1843 
11 *247:73 *943:A 25.5996 
*END

*D_NET *248 0.0106163
*CONN
*I *906:CLK I *D sky130_fd_sc_hd__dfrtp_2
*I *932:CLK I *D sky130_fd_sc_hd__dfrtp_2
*I *930:CLK I *D sky130_fd_sc_hd__dfrtp_2
*I *905:CLK I *D sky130_fd_sc_hd__dfrtp_2
*I *944:A I *D sky130_fd_sc_hd__inv_4
*I *902:CLK I *D sky130_fd_sc_hd__dfrtp_2
*I *903:CLK I *D sky130_fd_sc_hd__dfrtp_2
*I *900:CLK I *D sky130_fd_sc_hd__dfrtp_2
*I *901:CLK I *D sky130_fd_sc_hd__dfrtp_2
*I *940:X O *D sky130_fd_sc_hd__clkbuf_16
*CAP
1 *906:CLK 3.79282e-05
2 *932:CLK 0
3 *930:CLK 0
4 *905:CLK 0.000389183
5 *944:A 0.000125643
6 *902:CLK 0
7 *903:CLK 0.000143393
8 *900:CLK 0.00025613
9 *901:CLK 0.000262795
10 *940:X 0.000115988
11 *248:120 0.000137557
12 *248:112 0.000720493
13 *248:108 0.00102219
14 *248:78 0.000535518
15 *248:74 0.000730377
16 *248:20 0.000806795
17 *248:14 0.000645777
18 *248:10 0.00043778
19 *248:8 0.000647611
20 *900:CLK *791:B 0
21 *900:CLK *278:14 0.000159755
22 *900:CLK *356:24 0
23 *901:CLK *278:31 0.000125182
24 *901:CLK *278:44 4.21594e-06
25 *903:CLK *792:A 5.05796e-05
26 *248:8 *310:8 0.000265277
27 *248:10 *280:16 0.000282327
28 *248:14 *900:RESET_B 0.000217678
29 *248:14 *280:16 6.2683e-05
30 *248:14 *309:16 0.000109024
31 *248:20 *278:31 5.56356e-05
32 *248:20 *308:8 0.000271906
33 *248:112 *377:6 0.000263293
34 *248:120 *367:6 5.67058e-05
35 *248:120 *370:8 0
36 *826:B *900:CLK 1.007e-05
37 *826:B *901:CLK 5.79413e-06
38 *839:A2 *905:CLK 0.000463581
39 *839:A2 *944:A 1.24376e-05
40 *900:D *900:CLK 8.16912e-05
41 *901:D *901:CLK 2.93431e-05
42 *905:D *905:CLK 3.94118e-05
43 *988:A *248:8 5.3304e-05
44 *5:11 *248:120 0.000219891
45 *29:21 *248:20 9.78729e-06
46 *198:10 *248:8 4.82016e-05
47 *198:10 *248:10 9.39365e-05
48 *198:10 *248:74 2.39877e-05
49 *201:14 *905:CLK 0.000141347
50 *207:10 *901:CLK 0
51 *207:10 *248:14 0
52 *207:10 *248:20 0.000144494
53 *211:49 *944:A 2.8639e-05
54 *211:49 *248:74 0.000160915
55 *211:49 *248:108 8.50366e-05
56 *213:18 *905:CLK 2.50118e-05
*RES
1 *940:X *248:8 41.0036 
2 *248:8 *248:10 5.42714 
3 *248:10 *248:14 20.075 
4 *248:14 *248:20 21.1832 
5 *248:20 *901:CLK 43.2096 
6 *248:20 *900:CLK 42.8575 
7 *248:14 *903:CLK 25.6929 
8 *248:10 *902:CLK 38 
9 *248:8 *248:74 5.42714 
10 *248:74 *248:78 15.4971 
11 *248:78 *944:A 25.0714 
12 *248:78 *905:CLK 31.5964 
13 *248:74 *248:108 21.4836 
14 *248:108 *248:112 10.6471 
15 *248:112 *248:120 33.5836 
16 *248:120 *930:CLK 23 
17 *248:112 *932:CLK 23 
18 *248:108 *906:CLK 23.6214 
*END

*D_NET *249 0.0180044
*CONN
*I *928:CLK I *D sky130_fd_sc_hd__dfrtp_2
*I *895:CLK I *D sky130_fd_sc_hd__dfrtp_2
*I *898:CLK I *D sky130_fd_sc_hd__dfrtp_2
*I *945:A I *D sky130_fd_sc_hd__clkbuf_4
*I *924:CLK I *D sky130_fd_sc_hd__dfrtp_2
*I *927:CLK I *D sky130_fd_sc_hd__dfrtp_2
*I *925:CLK I *D sky130_fd_sc_hd__dfrtp_2
*I *929:CLK I *D sky130_fd_sc_hd__dfrtp_2
*I *904:CLK I *D sky130_fd_sc_hd__dfrtp_2
*I *926:CLK I *D sky130_fd_sc_hd__dfrtp_2
*I *897:CLK I *D sky130_fd_sc_hd__dfrtp_2
*I *899:CLK I *D sky130_fd_sc_hd__dfrtp_2
*I *896:CLK I *D sky130_fd_sc_hd__dfrtp_2
*I *941:X O *D sky130_fd_sc_hd__clkbuf_16
*CAP
1 *928:CLK 0
2 *895:CLK 0.000105074
3 *898:CLK 0.000359069
4 *945:A 0
5 *924:CLK 0.000114899
6 *927:CLK 0.000403753
7 *925:CLK 0
8 *929:CLK 0
9 *904:CLK 0
10 *926:CLK 8.72863e-05
11 *897:CLK 0
12 *899:CLK 5.45616e-05
13 *896:CLK 0
14 *941:X 0.000199903
15 *249:141 0.00055587
16 *249:137 0.000228892
17 *249:125 0.00106782
18 *249:108 0.00130688
19 *249:95 0.000657107
20 *249:78 0.000291416
21 *249:66 0.000807068
22 *249:64 0.000600981
23 *249:60 0.000305395
24 *249:49 0.000238716
25 *249:24 0.000330134
26 *249:16 0.00132343
27 *249:10 0.00114407
28 *249:8 0.000328631
29 *895:CLK *252:71 0.000213797
30 *895:CLK *364:20 0.000239623
31 *898:CLK *894:B 0
32 *898:CLK *288:12 0.000163256
33 *898:CLK *304:24 0
34 *898:CLK *347:18 0
35 *898:CLK *357:14 0.000433736
36 *898:CLK *365:10 9.4745e-05
37 *899:CLK *823:D 2.93845e-05
38 *924:CLK *303:8 5.97178e-05
39 *926:CLK *822:A 8.73233e-05
40 *926:CLK *282:79 4.22275e-05
41 *927:CLK *927:RESET_B 0.00014196
42 *249:10 *379:14 0.000217685
43 *249:16 *823:D 6.30556e-05
44 *249:24 *823:D 4.02485e-05
45 *249:24 *824:A3 0.000111106
46 *249:24 *263:12 8.57577e-05
47 *249:24 *263:14 5.3304e-05
48 *249:24 *353:10 1.29944e-05
49 *249:49 *379:14 0.000163102
50 *249:60 *379:14 0.000212291
51 *249:64 *929:RESET_B 6.55954e-05
52 *249:66 *905:RESET_B 0.00017977
53 *249:66 *929:D 9.75894e-05
54 *249:66 *929:RESET_B 0.000121068
55 *249:78 *905:RESET_B 0.000115435
56 *249:78 *282:8 9.66585e-05
57 *249:78 *283:16 0.000108129
58 *249:78 *283:31 7.66753e-05
59 *249:95 *816:B 0
60 *249:95 *379:14 0.000181176
61 *249:108 *816:B 0
62 *249:108 *347:18 0
63 *249:125 *813:B 0.000227208
64 *249:125 *299:8 0
65 *249:125 *347:18 0
66 *249:137 *928:D 4.67488e-05
67 *249:141 *288:12 0.000211198
68 *249:141 *357:14 0.000201946
69 axi_rdata[3] *249:108 1.52227e-05
70 axi_rdata[3] *249:125 0.000137326
71 *890:A2 *927:CLK 0.000150445
72 *890:B1_N *927:CLK 0.0002246
73 *904:D *249:78 5.29205e-05
74 *925:D *249:64 9.04105e-06
75 *926:D *926:CLK 9.91548e-05
76 *14:13 *249:24 0.000129923
77 *22:15 *249:125 0
78 *24:15 *924:CLK 0.000168985
79 *97:8 *898:CLK 1.76557e-05
80 *99:10 *249:125 4.56255e-05
81 *143:14 *898:CLK 7.53384e-06
82 *181:8 *249:10 3.70094e-05
83 *181:8 *249:16 0.000166522
84 *190:8 *249:16 5.50106e-05
85 *190:14 *924:CLK 7.44257e-05
86 *190:14 *249:10 0.000470414
87 *190:14 *249:16 0.000164291
88 *190:14 *249:49 0.000156141
89 *190:14 *249:60 0.000203192
90 *190:14 *249:95 0.000224933
91 *190:14 *249:108 0.000127263
92 *192:12 *249:10 0.000105138
93 *205:12 *249:24 9.55792e-05
94 *206:16 *249:78 0.000187036
95 *235:45 *249:125 3.64538e-05
96 *240:10 *249:125 4.08537e-05
97 *241:37 *249:125 0
98 *242:18 *249:16 9.62666e-05
*RES
1 *941:X *249:8 38.6214 
2 *249:8 *249:10 6.48357 
3 *249:10 *249:16 27.8843 
4 *249:16 *249:24 37.25 
5 *249:24 *896:CLK 23 
6 *249:16 *899:CLK 24.6157 
7 *249:10 *897:CLK 38 
8 *249:8 *249:49 2.25786 
9 *249:49 *926:CLK 40.0507 
10 *249:49 *249:60 2.96214 
11 *249:60 *249:64 16.5743 
12 *249:64 *249:66 10.15 
13 *249:66 *249:78 36.7321 
14 *249:78 *904:CLK 23 
15 *249:66 *929:CLK 23 
16 *249:64 *925:CLK 23 
17 *249:60 *249:95 3.31429 
18 *249:95 *927:CLK 45.7886 
19 *249:95 *249:108 2.61 
20 *249:108 *924:CLK 41.48 
21 *249:108 *249:125 30.2871 
22 *249:125 *945:A 23 
23 *941:X *249:137 25.0507 
24 *249:137 *249:141 17.9621 
25 *249:141 *898:CLK 47.2179 
26 *249:141 *895:CLK 41.48 
27 *249:137 *928:CLK 23 
*END

*D_NET *250 0.0125019
*CONN
*I *911:CLK I *D sky130_fd_sc_hd__dfrtp_2
*I *907:CLK I *D sky130_fd_sc_hd__dfrtp_2
*I *915:CLK I *D sky130_fd_sc_hd__dfrtp_2
*I *913:CLK I *D sky130_fd_sc_hd__dfrtp_2
*I *912:CLK I *D sky130_fd_sc_hd__dfrtp_2
*I *914:CLK I *D sky130_fd_sc_hd__dfrtp_2
*I *931:CLK I *D sky130_fd_sc_hd__dfrtp_2
*I *909:CLK I *D sky130_fd_sc_hd__dfrtp_2
*I *935:CLK I *D sky130_fd_sc_hd__dfrtp_2
*I *908:CLK I *D sky130_fd_sc_hd__dfrtp_2
*I *933:CLK I *D sky130_fd_sc_hd__dfrtp_2
*I *934:CLK I *D sky130_fd_sc_hd__dfrtp_2
*I *910:CLK I *D sky130_fd_sc_hd__dfrtp_2
*I *942:X O *D sky130_fd_sc_hd__clkbuf_16
*CAP
1 *911:CLK 1.73916e-06
2 *907:CLK 0.000147199
3 *915:CLK 0.000310024
4 *913:CLK 0
5 *912:CLK 0
6 *914:CLK 0
7 *931:CLK 0.000158776
8 *909:CLK 3.6708e-05
9 *935:CLK 0.000313009
10 *908:CLK 0
11 *933:CLK 0
12 *934:CLK 0
13 *910:CLK 0
14 *942:X 0.000300328
15 *250:150 0.000512375
16 *250:123 0.000230827
17 *250:115 0.000692834
18 *250:109 0.000868123
19 *250:100 0.00024239
20 *250:89 0.000456036
21 *250:85 0.00071342
22 *250:48 0.000237857
23 *250:40 0.000632762
24 *250:34 0.000810903
25 *250:32 0.000244626
26 *250:18 0.000230554
27 *250:10 0.000515634
28 *250:6 0.000491314
29 *909:CLK *909:RESET_B 5.3304e-05
30 *915:CLK *913:RESET_B 4.58951e-05
31 *915:CLK *260:34 9.41704e-05
32 *935:CLK *368:6 9.99781e-05
33 *250:6 *847:B1 6.34799e-05
34 *250:6 *255:101 1.24376e-05
35 *250:10 *255:80 0.000305431
36 *250:10 *255:101 4.17736e-05
37 *250:18 *801:A 8.45804e-05
38 *250:18 *848:B 0
39 *250:18 *255:80 1.14452e-05
40 *250:18 *256:68 0
41 *250:18 *373:23 0
42 *250:40 *256:14 2.64616e-05
43 *250:40 *257:29 6.362e-05
44 *250:48 *799:B 9.28078e-06
45 *250:48 *255:50 6.23243e-05
46 *250:48 *255:65 2.51497e-05
47 *250:48 *256:14 4.5051e-05
48 *250:48 *323:10 2.81066e-05
49 *250:115 *856:A 6.2982e-05
50 *250:123 *1013:A 2.3164e-05
51 *250:123 *259:22 0
52 *250:123 *372:8 7.87147e-05
53 *849:A *935:CLK 2.64616e-05
54 *853:C *250:150 0.000206315
55 *856:B *250:123 1.04983e-05
56 *908:D *250:40 2.93431e-05
57 *910:D *250:18 6.17437e-06
58 *912:D *250:123 7.87147e-05
59 *915:D *915:CLK 0.00013623
60 *915:D *250:115 3.57595e-06
61 *942:A *250:150 1.81259e-05
62 *5:11 *250:48 0.000213764
63 *11:13 *250:123 0
64 *81:6 *250:48 0.000137651
65 *149:10 *907:CLK 8.44311e-05
66 *149:10 *915:CLK 3.347e-05
67 *149:10 *250:89 0.000206807
68 *149:10 *250:100 0.000240917
69 *149:10 *250:109 6.98829e-05
70 *149:10 *250:150 1.52635e-05
71 *173:8 *250:40 0.00018742
72 *174:10 *935:CLK 5.3304e-05
73 *177:8 *250:123 0
74 *178:10 *250:123 3.36312e-06
75 *217:42 *250:18 0
76 *219:8 *250:32 0.000128583
77 *219:8 *250:34 0.000185104
78 *219:8 *250:40 6.25829e-05
79 *220:26 *250:32 1.22803e-05
80 *221:10 *250:40 0
81 *222:10 *907:CLK 0.000107538
82 *222:10 *911:CLK 2.5343e-05
83 *222:10 *250:150 5.31385e-05
84 *223:23 *250:89 0.000304171
85 *223:23 *250:100 0.000183237
86 *223:78 *250:100 0.000246248
87 *223:78 *250:109 1.81838e-05
88 *247:57 *250:150 2.90391e-05
*RES
1 *942:X *250:6 25.0507 
2 *250:6 *250:10 4.93 
3 *250:10 *250:18 34.5364 
4 *250:18 *910:CLK 23 
5 *250:10 *934:CLK 23 
6 *250:6 *250:32 17.2579 
7 *250:32 *250:34 2.61 
8 *250:34 *250:40 22.7057 
9 *250:40 *250:48 35.4893 
10 *250:48 *933:CLK 23 
11 *250:40 *908:CLK 23 
12 *250:34 *935:CLK 42.93 
13 *250:32 *909:CLK 38.6214 
14 *942:X *250:85 25.5271 
15 *250:85 *250:89 20.075 
16 *250:89 *931:CLK 40.5271 
17 *250:89 *250:100 5.77929 
18 *250:100 *914:CLK 38 
19 *250:100 *250:109 1.90571 
20 *250:109 *250:115 21.235 
21 *250:115 *250:123 34.8886 
22 *250:123 *912:CLK 23 
23 *250:115 *913:CLK 23 
24 *250:109 *915:CLK 44.235 
25 *250:85 *250:150 21.4939 
26 *250:150 *907:CLK 41.7596 
27 *250:150 *911:CLK 38.3211 
*END

*D_NET *251 0.00990004
*CONN
*I *920:CLK I *D sky130_fd_sc_hd__dfrtp_2
*I *921:CLK I *D sky130_fd_sc_hd__dfrtp_2
*I *922:CLK I *D sky130_fd_sc_hd__dfrtp_2
*I *923:CLK I *D sky130_fd_sc_hd__dfrtp_2
*I *916:CLK I *D sky130_fd_sc_hd__dfrtp_2
*I *917:CLK I *D sky130_fd_sc_hd__dfrtp_2
*I *918:CLK I *D sky130_fd_sc_hd__dfrtp_2
*I *919:CLK I *D sky130_fd_sc_hd__dfrtp_2
*I *946:A I *D sky130_fd_sc_hd__inv_4
*I *943:X O *D sky130_fd_sc_hd__clkbuf_16
*CAP
1 *920:CLK 0.000404297
2 *921:CLK 1.73025e-05
3 *922:CLK 0
4 *923:CLK 0.000237765
5 *916:CLK 0.000184391
6 *917:CLK 0
7 *918:CLK 6.23157e-05
8 *919:CLK 7.19781e-05
9 *946:A 0.000235474
10 *943:X 0.000545878
11 *251:95 0.000145309
12 *251:89 0.000308693
13 *251:76 0.000497267
14 *251:74 0.00056224
15 *251:47 0.000576527
16 *251:36 0.000583242
17 *251:10 0.000373556
18 *251:8 0.000696249
19 *916:CLK *807:A 0
20 *916:CLK *264:12 0
21 *916:CLK *330:10 5.50106e-05
22 *918:CLK *872:A 4.96717e-05
23 *920:CLK *918:RESET_B 4.2062e-05
24 *920:CLK *267:12 1.22803e-05
25 *920:CLK *267:33 0.000192087
26 *920:CLK *268:86 2.46345e-05
27 *921:CLK *882:A1 2.32101e-05
28 *921:CLK *267:65 2.93845e-05
29 *923:CLK *268:86 0.000191157
30 *923:CLK *269:35 0
31 *251:8 *876:A1 0.000173868
32 *251:47 *872:A 0
33 *251:47 *264:12 0
34 *251:47 *266:41 0
35 *251:47 *359:12 0
36 *251:74 *876:A1 6.17437e-06
37 *251:74 *267:33 1.41129e-05
38 *251:74 *268:86 5.3304e-05
39 *251:76 *268:86 0.000179702
40 *251:89 *882:A1 0.000104205
41 *251:89 *919:RESET_B 4.16667e-05
42 *251:89 *267:12 6.17437e-06
43 *251:89 *267:65 0.000204939
44 *251:95 *918:RESET_B 0
45 *251:95 *268:25 0
46 *872:C *918:CLK 1.21972e-05
47 *875:D *946:A 5.50049e-05
48 *880:A *920:CLK 5.50106e-05
49 *880:B *920:CLK 0.000132749
50 *880:B *923:CLK 7.75329e-06
51 *880:B *251:76 5.68527e-05
52 *882:A2 *251:89 5.3304e-05
53 *882:B1_N *251:89 5.50106e-05
54 *882:B1_N *251:95 8.9356e-05
55 *884:A2_N *923:CLK 0.000194309
56 *918:D *918:CLK 0.000136743
57 *943:A *251:8 5.3304e-05
58 *83:14 *916:CLK 0.000185104
59 *83:14 *251:47 0.000166513
60 *183:8 *251:47 6.42079e-05
61 *187:10 *920:CLK 4.06849e-05
62 *188:10 *251:95 3.21223e-05
63 *189:10 *923:CLK 4.5882e-05
64 *215:35 *946:A 0
65 *215:50 *946:A 0.000111852
66 *228:16 *946:A 4.99753e-06
67 *228:16 *251:36 2.61802e-05
68 *228:16 *251:47 7.75329e-06
69 *229:10 *251:47 0.000138708
70 *231:20 *919:CLK 9.5877e-05
71 *233:8 *920:CLK 0
72 *234:10 *946:A 2.08324e-05
73 *234:10 *251:10 1.99391e-05
74 *234:10 *251:36 7.20312e-05
75 *235:12 *251:10 8.62876e-05
76 *235:12 *251:36 5.24393e-05
77 *235:23 *919:CLK 2.4754e-05
78 *235:75 *923:CLK 7.76364e-06
79 *235:75 *251:74 9.41704e-05
80 *236:8 *946:A 0.000169674
81 *236:8 *251:10 0.000133316
82 *236:8 *251:36 0.000293785
83 *236:8 *251:47 0.000138727
84 *239:14 *923:CLK 5.87176e-05
*RES
1 *943:X *251:8 45.2914 
2 *251:8 *251:10 1.90571 
3 *251:10 *946:A 43.3029 
4 *251:10 *919:CLK 39.5743 
5 *251:8 *251:36 4.01857 
6 *251:36 *918:CLK 39.5743 
7 *251:36 *251:47 8.59643 
8 *251:47 *917:CLK 38 
9 *251:47 *916:CLK 42.1843 
10 *943:X *251:74 39.0979 
11 *251:74 *251:76 2.61 
12 *251:76 *923:CLK 43.7793 
13 *251:76 *251:89 19.4329 
14 *251:89 *251:95 32.9621 
15 *251:95 *922:CLK 23 
16 *251:89 *921:CLK 23.6214 
17 *251:74 *920:CLK 47.1764 
*END

*D_NET *252 0.00987685
*CONN
*I *820:A I *D sky130_fd_sc_hd__or2_2
*I *959:A I *D sky130_fd_sc_hd__dlygate4sd3_1
*I *823:A I *D sky130_fd_sc_hd__and4_2
*I *819:A I *D sky130_fd_sc_hd__nand2_2
*I *824:A1 I *D sky130_fd_sc_hd__a31o_2
*I *787:A I *D sky130_fd_sc_hd__xor2_2
*I *896:Q O *D sky130_fd_sc_hd__dfrtp_2
*CAP
1 *820:A 6.1681e-05
2 *959:A 0
3 *823:A 0
4 *819:A 3.9772e-05
5 *824:A1 0
6 *787:A 0.000103748
7 *896:Q 0
8 *252:71 0.00159412
9 *252:56 0.00177364
10 *252:37 0.00025522
11 *252:25 0.000548315
12 *252:23 0.000281126
13 *252:10 0.000835481
14 *252:4 0.000945123
15 *787:A *284:10 1.14452e-05
16 *819:A *819:B 5.55743e-06
17 *819:A *823:D 0
18 *820:A *263:76 0.000359332
19 *820:A *345:18 3.53115e-05
20 *252:10 *896:RESET_B 4.36616e-05
21 *252:10 *364:20 9.99085e-05
22 *252:23 *823:D 5.50049e-05
23 *252:25 *823:D 0.000181925
24 *252:25 *263:14 7.07903e-05
25 *252:37 *263:14 2.68258e-05
26 *252:37 *263:26 0.000161301
27 *252:37 *350:10 0.00018904
28 *252:56 *364:20 0.000141543
29 *252:56 *375:10 2.64616e-05
30 *252:71 *263:76 2.29192e-05
31 *252:71 *364:20 0.000200359
32 *252:71 *364:37 0
33 *252:71 *378:12 0
34 axi_bvalid *252:71 0
35 axi_rdata[29] *252:71 0.000371677
36 uart_tx *252:71 0
37 *895:CLK *252:71 0.000213797
38 *895:D *252:71 9.2057e-05
39 *938:A *252:71 0
40 *14:13 *787:A 8.8178e-05
41 *14:13 *252:10 0.000138297
42 *25:17 *787:A 8.21019e-05
43 *25:17 *252:10 0.000201968
44 *98:6 *820:A 0.000447976
45 *106:10 *252:37 3.01464e-05
46 *170:10 *252:10 0.000141038
47 *202:10 *252:71 0
*RES
1 *896:Q *252:4 23 
2 *252:4 *252:10 28.4229 
3 *252:10 *787:A 40.61 
4 *252:10 *252:23 15.6214 
5 *252:23 *252:25 4.43286 
6 *252:25 *252:37 35.9036 
7 *252:37 *824:A1 23 
8 *252:25 *819:A 23.8493 
9 *252:23 *823:A 23 
10 *252:4 *252:56 4.43286 
11 *252:56 *959:A 23 
12 *252:56 *252:71 40.9757 
13 *252:71 *820:A 42.9093 
*END

*D_NET *253 0.00774009
*CONN
*I *952:A I *D sky130_fd_sc_hd__dlygate4sd3_1
*I *841:B1_N I *D sky130_fd_sc_hd__o21ba_2
*I *797:A I *D sky130_fd_sc_hd__xor2_2
*I *840:A I *D sky130_fd_sc_hd__and4_2
*I *906:Q O *D sky130_fd_sc_hd__dfrtp_2
*CAP
1 *952:A 0
2 *841:B1_N 4.82949e-05
3 *797:A 0
4 *840:A 0
5 *906:Q 0.000674158
6 *253:35 0.0009368
7 *253:20 0.00036834
8 *253:14 0.00146436
9 *253:12 0.000309694
10 *253:10 0.000776337
11 *253:10 *906:RESET_B 0.000133138
12 *253:20 *965:A 0.000357484
13 *253:20 *279:23 8.36198e-05
14 *253:20 *287:10 0.000368569
15 *253:35 *797:B 0.000465424
16 *253:35 *834:A1 0.000493746
17 *839:A2 *841:B1_N 5.45644e-05
18 *839:B1 *841:B1_N 9.84851e-05
19 *906:D *253:10 9.67842e-05
20 *164:6 *253:35 1.09834e-05
21 *171:8 *253:10 4.08537e-05
22 *198:10 *253:20 4.51746e-05
23 *201:14 *253:14 3.18716e-05
24 *205:24 *253:20 0.000489873
25 *210:10 *253:20 0.000186363
26 *211:32 *253:35 1.21972e-05
27 *211:49 *253:14 0
28 *215:8 *253:20 9.78166e-05
29 *215:19 *253:10 0
30 *216:8 *253:10 1.44546e-05
31 *216:8 *253:12 5.26101e-05
32 *216:8 *253:14 2.80934e-05
*RES
1 *906:Q *253:10 47.5493 
2 *253:10 *253:12 2.25786 
3 *253:12 *253:14 2.96214 
4 *253:14 *253:20 27.2214 
5 *253:20 *840:A 23 
6 *253:14 *253:35 33.1871 
7 *253:35 *797:A 23 
8 *253:12 *841:B1_N 39.595 
9 *253:10 *952:A 38 
*END

*D_NET *254 0.00509477
*CONN
*I *873:A I *D sky130_fd_sc_hd__and4_2
*I *875:A I *D sky130_fd_sc_hd__and4_2
*I *844:A I *D sky130_fd_sc_hd__nor2_2
*I *862:A I *D sky130_fd_sc_hd__and4_2
*I *956:A I *D sky130_fd_sc_hd__dlygate4sd3_1
*I *853:A I *D sky130_fd_sc_hd__and3_2
*I *798:A I *D sky130_fd_sc_hd__xor2_2
*I *843:A I *D sky130_fd_sc_hd__and2_2
*I *907:Q O *D sky130_fd_sc_hd__dfrtp_2
*CAP
1 *873:A 0.000331953
2 *875:A 3.11048e-05
3 *844:A 0
4 *862:A 0
5 *956:A 0.000303492
6 *853:A 4.50261e-05
7 *798:A 0
8 *843:A 0
9 *907:Q 0
10 *254:71 0.000110806
11 *254:60 7.97011e-05
12 *254:58 0.000496576
13 *254:36 0.00050967
14 *254:25 0.000301521
15 *254:12 0.00047904
16 *254:4 0.000503294
17 *853:A *371:10 9.84794e-05
18 *873:A *931:RESET_B 0
19 *956:A *876:A1 0
20 *956:A *371:10 0.000228909
21 *254:12 *798:B 6.95665e-05
22 *254:12 *931:RESET_B 0
23 *254:25 *798:B 0.00016278
24 *254:36 *798:B 1.05441e-05
25 *254:58 *931:RESET_B 0
26 *844:B *254:71 9.84851e-05
27 *853:B *853:A 2.45549e-06
28 *853:B *254:25 7.63458e-05
29 *853:B *254:36 7.71682e-05
30 *853:C *254:36 0
31 *862:C *254:25 0.000203078
32 *215:23 *254:25 0.000141052
33 *215:27 *254:25 3.32563e-05
34 *215:35 *875:A 2.98648e-05
35 *215:35 *254:71 0.000133164
36 *215:57 *254:71 5.90675e-06
37 *218:8 *873:A 6.07611e-06
38 *218:8 *254:58 5.21127e-05
39 *218:16 *254:12 0.00022296
40 *218:16 *254:58 5.41288e-05
41 *227:12 *254:36 0
42 *228:8 *875:A 9.75779e-05
43 *228:8 *254:71 4.19743e-05
44 *231:20 *873:A 5.67058e-05
45 *247:45 *873:A 0
46 *247:45 *254:58 0
*RES
1 *907:Q *254:4 23 
2 *254:4 *254:12 37.395 
3 *254:12 *843:A 23 
4 *254:12 *254:25 19.8057 
5 *254:25 *798:A 38 
6 *254:25 *254:36 18.6664 
7 *254:36 *853:A 24.0979 
8 *254:36 *956:A 28.8829 
9 *254:4 *254:58 18.3557 
10 *254:58 *254:60 15 
11 *254:60 *862:A 23 
12 *254:60 *254:71 3.045 
13 *254:71 *844:A 23 
14 *254:71 *875:A 24.0979 
15 *254:58 *873:A 43.0129 
*END

*D_NET *255 0.00831786
*CONN
*I *848:A I *D sky130_fd_sc_hd__and3_2
*I *847:A1 I *D sky130_fd_sc_hd__a21oi_2
*I *846:A I *D sky130_fd_sc_hd__xor2_2
*I *799:A I *D sky130_fd_sc_hd__xor2_2
*I *961:A I *D sky130_fd_sc_hd__dlygate4sd3_1
*I *852:A I *D sky130_fd_sc_hd__and4_2
*I *850:A I *D sky130_fd_sc_hd__and4_2
*I *908:Q O *D sky130_fd_sc_hd__dfrtp_2
*CAP
1 *848:A 0
2 *847:A1 0
3 *846:A 2.37985e-05
4 *799:A 5.9561e-05
5 *961:A 0
6 *852:A 0
7 *850:A 0.000431215
8 *908:Q 0.000152599
9 *255:101 0.000565733
10 *255:80 0.00110446
11 *255:65 0.000765298
12 *255:50 0.000555233
13 *255:34 0.000122534
14 *255:16 0.000258374
15 *255:14 0.000376675
16 *255:10 0.000286676
17 *799:A *799:B 0.000109345
18 *799:A *323:10 0.000185428
19 *846:A *802:A 5.67058e-05
20 *850:A *852:B 0.000265305
21 *850:A *256:28 0.00010018
22 *255:10 *365:193 0.000166522
23 *255:14 *365:193 5.50106e-05
24 *255:16 *852:B 0.000101762
25 *255:16 *852:C 2.4754e-05
26 *255:16 *258:46 1.40958e-05
27 *255:50 *256:28 5.50106e-05
28 *255:50 *361:14 9.47917e-06
29 *255:50 *365:287 0
30 *255:65 *799:B 0.000135159
31 *255:65 *326:10 9.82555e-05
32 *255:65 *365:287 0
33 *255:80 *934:RESET_B 0
34 *255:80 *256:14 0.00017672
35 *255:80 *365:285 0
36 *255:80 *365:287 0
37 *255:80 *373:23 0
38 *255:101 *847:B1 2.77502e-05
39 *255:101 *848:B 3.46673e-05
40 *850:D *255:50 5.67058e-05
41 *856:B *255:101 1.83564e-05
42 *5:11 *255:65 1.27508e-05
43 *5:11 *255:80 0.000153173
44 *78:8 *255:34 0.000218677
45 *149:14 *255:10 1.39447e-05
46 *215:19 *255:10 0
47 *217:42 *255:80 0.00013129
48 *217:67 *255:80 8.34394e-05
49 *217:67 *255:101 0.000758393
50 *220:10 *255:101 3.7122e-06
51 *220:26 *255:101 1.22906e-05
52 *222:8 *255:14 7.82513e-05
53 *250:6 *255:101 1.24376e-05
54 *250:10 *255:80 0.000305431
55 *250:10 *255:101 4.17736e-05
56 *250:18 *255:80 1.14452e-05
57 *250:48 *255:50 6.23243e-05
58 *250:48 *255:65 2.51497e-05
*RES
1 *908:Q *255:10 40.8793 
2 *255:10 *255:14 18.0036 
3 *255:14 *255:16 2.52714 
4 *255:16 *850:A 26.9564 
5 *255:16 *852:A 23 
6 *255:14 *255:34 32.9621 
7 *255:34 *961:A 23 
8 *850:A *255:50 42.9093 
9 *255:50 *799:A 40.5479 
10 *255:50 *255:65 4.41214 
11 *255:65 *846:A 38.6214 
12 *255:65 *255:80 27.0764 
13 *255:80 *847:A1 23 
14 *255:80 *255:101 43.8371 
15 *255:101 *848:A 23 
*END

*D_NET *256 0.0107795
*CONN
*I *848:B I *D sky130_fd_sc_hd__and3_2
*I *847:B1 I *D sky130_fd_sc_hd__a21oi_2
*I *852:B I *D sky130_fd_sc_hd__and4_2
*I *850:B I *D sky130_fd_sc_hd__and4_2
*I *955:A I *D sky130_fd_sc_hd__dlygate4sd3_1
*I *800:A I *D sky130_fd_sc_hd__xor2_2
*I *909:Q O *D sky130_fd_sc_hd__dfrtp_2
*CAP
1 *848:B 0.000447324
2 *847:B1 0.000276023
3 *852:B 5.26965e-05
4 *850:B 0
5 *955:A 0
6 *800:A 0.000464462
7 *909:Q 0.000508188
8 *256:68 0.000905115
9 *256:28 0.000913716
10 *256:20 0.000659731
11 *256:14 0.000556897
12 *256:6 0.00108907
13 *800:A *324:8 0.000311431
14 *848:B *957:A 0.000295366
15 *848:B *257:29 8.4047e-05
16 *848:B *373:23 0
17 *852:B *852:C 0.00031007
18 *852:B *257:29 5.50106e-05
19 *256:6 *909:RESET_B 0.000132736
20 *256:6 *365:283 2.56175e-05
21 *256:20 *257:29 0.0002387
22 *256:28 *1007:A 0.000433478
23 *256:28 *257:29 5.50049e-05
24 *256:28 *370:8 0
25 *256:68 *909:RESET_B 8.34394e-05
26 *256:68 *257:29 0.00021356
27 *850:A *852:B 0.000265305
28 *850:A *256:28 0.00010018
29 *850:D *256:14 0.000163352
30 *850:D *256:28 1.72202e-05
31 *5:11 *256:14 0.000281738
32 *79:6 *800:A 0.000165416
33 *81:6 *256:14 5.50049e-05
34 *173:8 *256:20 0.000112891
35 *175:8 *848:B 0
36 *217:20 *256:14 0.000128958
37 *217:42 *847:B1 2.64616e-05
38 *217:42 *256:14 0.000342696
39 *217:42 *256:68 0.000161121
40 *217:67 *847:B1 6.40166e-05
41 *217:67 *848:B 0.000103901
42 *220:10 *848:B 0.000148614
43 *221:10 *256:20 0
44 *250:6 *847:B1 6.34799e-05
45 *250:18 *848:B 0
46 *250:18 *256:68 0
47 *250:40 *256:14 2.64616e-05
48 *250:48 *256:14 4.5051e-05
49 *255:16 *852:B 0.000101762
50 *255:50 *256:28 5.50106e-05
51 *255:80 *256:14 0.00017672
52 *255:101 *847:B1 2.77502e-05
53 *255:101 *848:B 3.46673e-05
*RES
1 *909:Q *256:6 29.815 
2 *256:6 *256:14 40.6471 
3 *256:14 *256:20 33.6664 
4 *256:20 *256:28 40.5229 
5 *256:28 *800:A 34.3307 
6 *256:28 *955:A 23 
7 *256:20 *850:B 23 
8 *256:20 *852:B 26.9564 
9 *256:6 *256:68 19.06 
10 *256:68 *847:B1 42.4743 
11 *256:68 *848:B 47.3629 
*END

*D_NET *257 0.00707207
*CONN
*I *957:A I *D sky130_fd_sc_hd__dlygate4sd3_1
*I *852:C I *D sky130_fd_sc_hd__and4_2
*I *850:C I *D sky130_fd_sc_hd__and4_2
*I *801:A I *D sky130_fd_sc_hd__xor2_2
*I *910:Q O *D sky130_fd_sc_hd__dfrtp_2
*CAP
1 *957:A 0.00028426
2 *852:C 0.000107119
3 *850:C 0
4 *801:A 0.000464585
5 *910:Q 0.000435406
6 *257:29 0.000668924
7 *257:23 0.000846065
8 *257:6 0.000899991
9 *852:C *258:46 1.32314e-05
10 *957:A *373:8 5.50106e-05
11 *257:6 *910:RESET_B 2.04295e-05
12 *257:29 *1007:A 6.02684e-06
13 *848:B *957:A 0.000295366
14 *848:B *257:29 8.4047e-05
15 *850:D *852:C 5.73309e-05
16 *850:D *257:29 0.00026865
17 *852:B *852:C 0.00031007
18 *852:B *257:29 5.50106e-05
19 *910:D *801:A 1.14876e-05
20 *173:8 *257:29 5.87296e-05
21 *174:10 *257:29 0.000194318
22 *217:20 *257:29 7.03663e-05
23 *217:42 *257:29 7.1949e-05
24 *217:67 *957:A 1.12487e-05
25 *220:26 *957:A 0.000331938
26 *220:26 *257:29 0.000579668
27 *221:10 *852:C 0.000190627
28 *250:18 *801:A 8.45804e-05
29 *250:40 *257:29 6.362e-05
30 *255:16 *852:C 2.4754e-05
31 *256:20 *257:29 0.0002387
32 *256:28 *257:29 5.50049e-05
33 *256:68 *257:29 0.00021356
*RES
1 *910:Q *257:6 27.9093 
2 *257:6 *801:A 30.0221 
3 *257:6 *257:23 15 
4 *257:23 *257:29 31.7371 
5 *257:29 *850:C 23 
6 *257:29 *852:C 27.4536 
7 *257:23 *957:A 45.4986 
*END

*D_NET *258 0.00478161
*CONN
*I *953:A I *D sky130_fd_sc_hd__dlygate4sd3_1
*I *852:D I *D sky130_fd_sc_hd__and4_2
*I *854:A1 I *D sky130_fd_sc_hd__o21ba_2
*I *802:A I *D sky130_fd_sc_hd__xor2_2
*I *911:Q O *D sky130_fd_sc_hd__dfrtp_2
*CAP
1 *953:A 0.000112823
2 *852:D 0
3 *854:A1 0
4 *802:A 0.000668922
5 *911:Q 0.000360709
6 *258:46 0.000301822
7 *258:20 0.000717612
8 *258:18 0.000505899
9 *258:14 0.000628919
10 *802:A *322:6 0.000475201
11 *802:A *326:10 5.50049e-05
12 *258:14 *909:RESET_B 3.12298e-05
13 *258:20 *322:6 7.0933e-05
14 *258:46 *911:RESET_B 0
15 *258:46 *322:6 4.21062e-05
16 *258:46 *365:193 0
17 *846:A *802:A 5.67058e-05
18 *852:C *258:46 1.32314e-05
19 *854:A2 *258:20 5.56279e-05
20 *854:A2 *258:46 5.3304e-05
21 *6:11 *258:46 0
22 *176:10 *258:46 3.7122e-06
23 *217:18 *953:A 0.000122057
24 *221:10 *258:18 3.43144e-05
25 *221:10 *258:46 0.000348167
26 *223:14 *258:14 6.29947e-05
27 *223:14 *258:18 4.62182e-05
28 *255:16 *258:46 1.40958e-05
*RES
1 *911:Q *258:14 43.5514 
2 *258:14 *258:18 17.9621 
3 *258:18 *258:20 1.57429 
4 *258:20 *802:A 35.5736 
5 *258:20 *854:A1 23 
6 *258:18 *258:46 36.4421 
7 *258:46 *852:D 23 
8 *258:14 *953:A 40.5271 
*END

*D_NET *259 0.00604051
*CONN
*I *803:A I *D sky130_fd_sc_hd__xor2_2
*I *856:A I *D sky130_fd_sc_hd__xor2_2
*I *858:A1 I *D sky130_fd_sc_hd__a31oi_2
*I *859:A I *D sky130_fd_sc_hd__and4_2
*I *861:A I *D sky130_fd_sc_hd__and4_2
*I *855:A I *D sky130_fd_sc_hd__nand2_2
*I *912:Q O *D sky130_fd_sc_hd__dfrtp_2
*CAP
1 *803:A 0.000280783
2 *856:A 0.00029262
3 *858:A1 0
4 *859:A 0
5 *861:A 0
6 *855:A 0
7 *912:Q 0.000130007
8 *259:50 0.000308253
9 *259:37 0.000521691
10 *259:33 0.000429841
11 *259:22 0.000521669
12 *259:16 0.000972956
13 *259:8 0.000785859
14 *259:8 *805:B 0.000103647
15 *259:33 *260:63 5.50106e-05
16 *259:37 *858:B1 0.000184527
17 *259:37 *260:63 0.000116236
18 *259:50 *858:B1 0.000143655
19 *259:50 *861:D 9.00922e-05
20 *259:50 *914:RESET_B 0
21 *259:50 *261:26 9.24795e-06
22 *259:50 *321:8 6.48142e-05
23 *259:50 *359:12 0
24 axi_rdata[11] *259:50 3.21327e-05
25 *149:10 *259:16 8.34779e-06
26 *149:10 *259:22 0
27 *178:10 *259:22 9.63918e-05
28 *179:8 *803:A 0
29 *179:8 *259:16 0
30 *180:14 *803:A 7.2864e-05
31 *180:14 *259:16 0.000111816
32 *223:29 *259:33 0.000233359
33 *224:10 *259:22 0.000169683
34 *224:10 *259:33 0.000100069
35 *225:12 *803:A 0
36 *227:19 *259:50 0.00014196
37 *230:33 *259:50 0
38 *250:115 *856:A 6.2982e-05
39 *250:123 *259:22 0
*RES
1 *912:Q *259:8 40.0507 
2 *259:8 *259:16 6.78393 
3 *259:16 *259:22 21.5768 
4 *259:22 *855:A 23 
5 *259:22 *259:33 5.075 
6 *259:33 *259:37 4.93 
7 *259:37 *861:A 23 
8 *259:37 *259:50 37.395 
9 *259:50 *859:A 23 
10 *259:33 *858:A1 23 
11 *259:16 *856:A 42.7746 
12 *259:8 *803:A 42.7229 
*END

*D_NET *260 0.0059599
*CONN
*I *858:A2 I *D sky130_fd_sc_hd__a31oi_2
*I *859:B I *D sky130_fd_sc_hd__and4_2
*I *861:B I *D sky130_fd_sc_hd__and4_2
*I *947:A I *D sky130_fd_sc_hd__dlygate4sd3_1
*I *804:A I *D sky130_fd_sc_hd__xor2_2
*I *913:Q O *D sky130_fd_sc_hd__dfrtp_2
*CAP
1 *858:A2 0
2 *859:B 0.000239214
3 *861:B 0.000213186
4 *947:A 8.41529e-05
5 *804:A 0.000102354
6 *913:Q 0
7 *260:63 0.000213186
8 *260:40 5.76293e-05
9 *260:34 0.000625649
10 *260:10 0.000374289
11 *260:4 0.000516587
12 *804:A *289:8 0.000354122
13 *859:B *859:C 0.000102093
14 *947:A *289:8 0.000385158
15 *947:A *328:8 0.00035673
16 *260:10 *912:RESET_B 0.000161121
17 *260:10 *365:327 8.94487e-05
18 *260:34 *914:RESET_B 3.70187e-05
19 *260:34 *915:RESET_B 0
20 *260:34 *261:26 0
21 *260:34 *286:8 0.000111852
22 *260:40 *914:RESET_B 2.54046e-05
23 *260:40 *261:26 2.54046e-05
24 *260:63 *858:B1 0.000271476
25 *863:B1_N *804:A 0.000132166
26 *863:B1_N *947:A 1.21972e-05
27 *915:CLK *260:34 9.41704e-05
28 *179:8 *260:10 0.000100533
29 *223:78 *859:B 0.000309947
30 *223:78 *260:34 6.343e-05
31 *225:8 *260:63 3.22879e-05
32 *225:12 *260:10 0.000451103
33 *225:12 *260:34 0.000246748
34 *226:10 *260:34 0
35 *259:33 *260:63 5.50106e-05
36 *259:37 *260:63 0.000116236
*RES
1 *913:Q *260:4 23 
2 *260:4 *260:10 36.1314 
3 *260:10 *804:A 26.9564 
4 *260:10 *947:A 27.4329 
5 *260:4 *260:34 36.4629 
6 *260:34 *260:40 31.2014 
7 *260:40 *861:B 23 
8 *260:34 *859:B 28.4271 
9 *861:B *260:63 28.8621 
10 *260:63 *858:A2 23 
*END

*D_NET *261 0.00295807
*CONN
*I *858:B1 I *D sky130_fd_sc_hd__a31oi_2
*I *805:A I *D sky130_fd_sc_hd__xor2_2
*I *861:C I *D sky130_fd_sc_hd__and4_2
*I *859:C I *D sky130_fd_sc_hd__and4_2
*I *914:Q O *D sky130_fd_sc_hd__dfrtp_2
*CAP
1 *858:B1 8.1953e-05
2 *805:A 0
3 *861:C 8.1953e-05
4 *859:C 0.000163757
5 *914:Q 0.000163757
6 *261:39 0.000241452
7 *261:26 0.000274789
8 *261:16 0.000516241
9 *261:26 *861:D 5.67058e-05
10 *261:26 *914:RESET_B 0
11 *261:26 *915:RESET_B 9.92556e-05
12 *261:39 *1012:A 0
13 *261:39 *291:10 0
14 axi_rdata[11] *261:26 0.00021039
15 axi_rdata[11] *261:39 0.000174407
16 *859:B *859:C 0.000102093
17 *223:78 *859:C 1.76557e-05
18 *226:8 *261:26 9.5877e-05
19 *226:8 *261:39 4.34745e-05
20 *259:37 *858:B1 0.000184527
21 *259:50 *858:B1 0.000143655
22 *259:50 *261:26 9.24795e-06
23 *260:34 *261:26 0
24 *260:40 *261:26 2.54046e-05
25 *260:63 *858:B1 0.000271476
*RES
1 *914:Q *859:C 48.5271 
2 *914:Q *261:16 23 
3 *261:16 *261:26 35.1579 
4 *261:26 *861:C 23 
5 *261:16 *261:39 35.3443 
6 *261:39 *805:A 23 
7 *861:C *858:B1 49.9771 
*END

*D_NET *262 0.00341024
*CONN
*I *950:A I *D sky130_fd_sc_hd__dlygate4sd3_1
*I *806:A I *D sky130_fd_sc_hd__xor2_2
*I *861:D I *D sky130_fd_sc_hd__and4_2
*I *915:Q O *D sky130_fd_sc_hd__dfrtp_2
*CAP
1 *950:A 5.03938e-05
2 *806:A 0.000196087
3 *861:D 0.000387184
4 *915:Q 0
5 *262:19 0.000367686
6 *262:6 0.000508389
7 *861:D *1006:A 0.000228909
8 *861:D *359:12 0.000379413
9 *950:A *359:12 0.00016046
10 *262:19 *359:12 0.000265339
11 *867:A2 *861:D 5.3304e-05
12 *77:8 *861:D 0.00010018
13 *227:19 *861:D 7.43025e-06
14 *228:30 *861:D 4.45741e-05
15 *228:41 *861:D 8.16253e-05
16 *228:73 *861:D 0.000111045
17 *228:73 *950:A 8.76088e-05
18 *228:73 *262:19 0.000139639
19 *230:33 *861:D 9.41704e-05
20 *259:50 *861:D 9.00922e-05
21 *261:26 *861:D 5.67058e-05
*RES
1 *915:Q *262:6 38 
2 *262:6 *861:D 49.89 
3 *262:6 *262:19 3.66643 
4 *262:19 *806:A 41.0243 
5 *262:19 *950:A 40.2579 
*END

*D_NET *263 0.00960973
*CONN
*I *820:B I *D sky130_fd_sc_hd__or2_2
*I *788:A I *D sky130_fd_sc_hd__xor2_2
*I *823:B I *D sky130_fd_sc_hd__and4_2
*I *819:B I *D sky130_fd_sc_hd__nand2_2
*I *824:A2 I *D sky130_fd_sc_hd__a31o_2
*I *897:Q O *D sky130_fd_sc_hd__dfrtp_2
*CAP
1 *820:B 0
2 *788:A 4.70839e-05
3 *823:B 0
4 *819:B 2.01555e-05
5 *824:A2 0
6 *897:Q 0
7 *263:76 0.000134694
8 *263:68 0.00130647
9 *263:51 0.00169108
10 *263:26 0.000215297
11 *263:14 0.000408478
12 *263:12 0.000497636
13 *263:4 0.000796823
14 *263:12 *824:A3 1.07299e-05
15 *263:12 *315:52 0.000194614
16 *263:14 *823:D 5.25848e-05
17 *263:14 *277:45 0.000305639
18 *263:26 *824:A3 9.67842e-05
19 *263:26 *277:45 0.000209106
20 *263:26 *315:52 3.28357e-06
21 *263:26 *350:10 1.16455e-05
22 *263:51 *786:A 5.25037e-05
23 *263:51 *790:B 0.000576714
24 *263:51 *315:52 0.000138477
25 *263:68 *277:29 9.22297e-05
26 *263:68 *345:18 0.000419095
27 *263:68 *347:8 0.000123934
28 *263:76 *345:18 9.90162e-05
29 *263:76 *364:37 8.62783e-05
30 axi_rdata[0] *263:51 0.000576714
31 *819:A *819:B 5.55743e-06
32 *820:A *263:76 0.000359332
33 *14:13 *263:12 0.000108129
34 *28:9 *263:68 5.19042e-05
35 *74:8 *263:76 0.000313255
36 *86:10 *263:68 9.76748e-05
37 *98:6 *263:76 7.42621e-05
38 *106:10 *263:26 1.16551e-05
39 *249:24 *263:12 8.57577e-05
40 *249:24 *263:14 5.3304e-05
41 *252:25 *263:14 7.07903e-05
42 *252:37 *263:14 2.68258e-05
43 *252:37 *263:26 0.000161301
44 *252:71 *263:76 2.29192e-05
*RES
1 *897:Q *263:4 23 
2 *263:4 *263:12 35.0336 
3 *263:12 *263:14 4.43286 
4 *263:14 *263:26 35.075 
5 *263:26 *824:A2 23 
6 *263:14 *819:B 23.4971 
7 *263:12 *823:B 23 
8 *263:4 *263:51 41.3721 
9 *263:51 *788:A 23.6214 
10 *263:51 *263:68 47.9179 
11 *263:68 *263:76 36.5871 
12 *263:76 *820:B 23 
*END

*D_NET *264 0.00618157
*CONN
*I *951:A I *D sky130_fd_sc_hd__dlygate4sd3_1
*I *866:A I *D sky130_fd_sc_hd__and2_2
*I *807:A I *D sky130_fd_sc_hd__xor2_2
*I *865:A1 I *D sky130_fd_sc_hd__a21oi_2
*I *872:A I *D sky130_fd_sc_hd__and3_2
*I *916:Q O *D sky130_fd_sc_hd__dfrtp_2
*CAP
1 *951:A 0
2 *866:A 0
3 *807:A 0.000431722
4 *865:A1 0
5 *872:A 0.000464728
6 *916:Q 0
7 *264:69 0.00021028
8 *264:53 0.000446867
9 *264:12 0.000785597
10 *264:8 0.00110977
11 *264:4 0.00101433
12 *807:A *916:RESET_B 0
13 *807:A *265:35 0
14 *807:A *290:8 5.41385e-05
15 *807:A *330:10 0
16 *872:A *267:47 2.31209e-05
17 *264:12 *916:RESET_B 0
18 *264:12 *266:62 0
19 *264:12 *267:47 0
20 *264:12 *380:10 0
21 *264:53 *295:8 0
22 *264:69 *290:8 0.000333095
23 *264:69 *332:10 0.000185428
24 *872:C *872:A 0.000182826
25 *916:CLK *807:A 0
26 *916:CLK *264:12 0
27 *918:CLK *872:A 4.96717e-05
28 *918:D *872:A 4.1657e-05
29 *17:11 *264:69 0.000516381
30 *83:14 *807:A 0
31 *87:8 *264:8 2.21565e-05
32 *87:8 *264:53 4.6447e-05
33 *182:8 *807:A 0.000196549
34 *228:59 *872:A 2.96369e-05
35 *231:20 *872:A 3.71697e-05
36 *233:8 *872:A 0
37 *251:47 *872:A 0
38 *251:47 *264:12 0
*RES
1 *916:Q *264:4 23 
2 *264:4 *264:8 22.2914 
3 *264:8 *264:12 5.69643 
4 *264:12 *872:A 46.9486 
5 *264:12 *865:A1 38 
6 *264:8 *807:A 43.1164 
7 *264:4 *264:53 36.6907 
8 *264:53 *866:A 23 
9 *807:A *264:69 31.41 
10 *264:69 *951:A 23 
*END

*D_NET *265 0.00308828
*CONN
*I *866:B I *D sky130_fd_sc_hd__and2_2
*I *808:A I *D sky130_fd_sc_hd__xor2_2
*I *964:A I *D sky130_fd_sc_hd__dlygate4sd3_1
*I *871:A I *D sky130_fd_sc_hd__and3_2
*I *917:Q O *D sky130_fd_sc_hd__dfrtp_2
*CAP
1 *866:B 0.000103579
2 *808:A 0.000183575
3 *964:A 0.00027782
4 *871:A 0
5 *917:Q 0.000459923
6 *265:35 0.000617813
7 *265:12 0.000264324
8 *265:6 0.00046425
9 *808:A *808:B 0
10 *808:A *293:10 1.24376e-05
11 *964:A *380:10 4.2573e-05
12 *265:6 *380:10 5.50049e-05
13 *265:12 *266:62 5.50955e-05
14 *265:12 *267:33 1.19692e-05
15 *265:12 *380:10 0
16 *265:35 *916:RESET_B 0
17 *265:35 *293:10 0
18 *265:35 *332:10 0
19 *265:35 *380:10 2.65879e-05
20 axi_rdata[20] *265:35 0.0003175
21 *807:A *265:35 0
22 *16:11 *808:A 2.93747e-05
23 *17:11 *265:35 4.34173e-05
24 *230:10 *866:B 9.36522e-05
25 *230:10 *964:A 2.93845e-05
26 *230:10 *265:12 0
*RES
1 *917:Q *265:6 23.6214 
2 *265:6 *265:12 35.075 
3 *265:12 *871:A 23 
4 *265:6 *964:A 26.48 
5 *917:Q *265:35 46.2857 
6 *265:35 *808:A 41.0243 
7 *964:A *866:B 48.5271 
*END

*D_NET *266 0.00364149
*CONN
*I *809:A I *D sky130_fd_sc_hd__xor2_2
*I *868:B1 I *D sky130_fd_sc_hd__a21oi_2
*I *874:A I *D sky130_fd_sc_hd__and4_2
*I *869:A I *D sky130_fd_sc_hd__and3_2
*I *871:B I *D sky130_fd_sc_hd__and3_2
*I *918:Q O *D sky130_fd_sc_hd__dfrtp_2
*CAP
1 *809:A 0
2 *868:B1 0
3 *874:A 0
4 *869:A 0
5 *871:B 0
6 *918:Q 5.59093e-05
7 *266:62 0.000172994
8 *266:41 0.000384649
9 *266:31 0.00044726
10 *266:25 0.00015296
11 *266:21 0.000305209
12 *266:12 0.000175648
13 *266:8 0.000189692
14 *266:8 *267:33 8.62783e-05
15 *266:31 *267:47 7.53384e-06
16 *266:41 *267:47 5.25848e-05
17 *266:41 *359:12 2.26489e-05
18 *266:62 *267:33 0
19 *266:62 *267:47 0
20 *874:C *266:41 0.00035673
21 *918:D *266:41 5.50049e-05
22 *227:27 *266:41 8.4047e-05
23 *228:16 *266:41 8.72173e-05
24 *228:59 *266:62 0
25 *230:18 *266:12 6.7063e-05
26 *230:18 *266:21 2.93845e-05
27 *230:18 *266:25 7.1349e-05
28 *230:18 *266:31 0.000272471
29 *230:27 *266:31 9.24795e-06
30 *230:27 *266:41 9.24795e-06
31 *231:10 *266:21 0
32 *231:10 *266:25 1.14154e-05
33 *231:10 *266:31 0.000253542
34 *231:10 *266:41 0.000226306
35 *233:8 *266:8 0
36 *251:47 *266:41 0
37 *264:12 *266:62 0
38 *265:12 *266:62 5.50955e-05
*RES
1 *918:Q *266:8 39.2014 
2 *266:8 *266:12 17.0507 
3 *266:12 *871:B 23 
4 *266:12 *266:21 1.11857 
5 *266:21 *266:25 2.07143 
6 *266:25 *266:31 4.12214 
7 *266:31 *266:41 38.9693 
8 *266:41 *869:A 23 
9 *266:31 *874:A 23 
10 *266:25 *868:B1 23 
11 *266:21 *266:62 33.3143 
12 *266:62 *809:A 23 
*END

*D_NET *267 0.00885199
*CONN
*I *810:A I *D sky130_fd_sc_hd__xor2_2
*I *871:C I *D sky130_fd_sc_hd__and3_2
*I *874:B I *D sky130_fd_sc_hd__and4_2
*I *876:A1 I *D sky130_fd_sc_hd__o21ba_2
*I *919:Q O *D sky130_fd_sc_hd__dfrtp_2
*CAP
1 *810:A 0
2 *871:C 0
3 *874:B 0
4 *876:A1 0.000791629
5 *919:Q 0
6 *267:65 0.0011553
7 *267:47 0.000510101
8 *267:33 0.0010223
9 *267:12 0.00149563
10 *267:4 0.00134711
11 *267:12 *919:RESET_B 1.95443e-05
12 *267:12 *268:86 0.000163361
13 *267:33 *268:86 9.5877e-05
14 *267:65 *882:A1 0.0001028
15 axi_rdata[25] *267:65 4.58924e-05
16 *872:A *267:47 2.31209e-05
17 *876:A2 *876:A1 0.000283919
18 *880:B *267:33 6.68793e-05
19 *920:CLK *267:12 1.22803e-05
20 *920:CLK *267:33 0.000192087
21 *921:CLK *267:65 2.93845e-05
22 *943:A *876:A1 4.48115e-05
23 *956:A *876:A1 0
24 *185:10 *876:A1 0.000349813
25 *228:59 *267:47 6.07611e-06
26 *230:10 *267:33 1.97329e-05
27 *230:18 *267:33 0.000120857
28 *230:18 *267:47 0.000176355
29 *230:27 *267:47 4.9662e-05
30 *233:8 *267:33 0
31 *235:75 *876:A1 1.21972e-05
32 *235:75 *267:12 0.000114083
33 *238:8 *267:33 0
34 *247:73 *876:A1 3.75544e-05
35 *251:8 *876:A1 0.000173868
36 *251:74 *876:A1 6.17437e-06
37 *251:74 *267:33 1.41129e-05
38 *251:89 *267:12 6.17437e-06
39 *251:89 *267:65 0.000204939
40 *264:12 *267:47 0
41 *265:12 *267:33 1.19692e-05
42 *266:8 *267:33 8.62783e-05
43 *266:31 *267:47 7.53384e-06
44 *266:41 *267:47 5.25848e-05
45 *266:62 *267:33 0
46 *266:62 *267:47 0
*RES
1 *919:Q *267:4 23 
2 *267:4 *267:12 33.7079 
3 *267:12 *876:A1 39.8614 
4 *267:12 *267:33 40.2329 
5 *267:33 *267:47 37.6229 
6 *267:47 *874:B 23 
7 *267:33 *871:C 23 
8 *267:4 *267:65 46.3436 
9 *267:65 *810:A 23 
*END

*D_NET *268 0.00753806
*CONN
*I *878:A1 I *D sky130_fd_sc_hd__a21oi_2
*I *879:A I *D sky130_fd_sc_hd__and3_2
*I *811:A I *D sky130_fd_sc_hd__xor2_2
*I *881:A I *D sky130_fd_sc_hd__and4_2
*I *883:A I *D sky130_fd_sc_hd__and4_2
*I *877:A I *D sky130_fd_sc_hd__xor2_2
*I *920:Q O *D sky130_fd_sc_hd__dfrtp_2
*CAP
1 *878:A1 0
2 *879:A 0
3 *811:A 7.66204e-05
4 *881:A 0
5 *883:A 0
6 *877:A 0.000282218
7 *920:Q 0.000603163
8 *268:86 0.000254091
9 *268:76 0.00040315
10 *268:60 0.000218396
11 *268:37 0.000191144
12 *268:25 0.00058403
13 *268:14 0.000677047
14 *268:10 0.000612388
15 *268:10 *920:RESET_B 0
16 *268:10 *296:8 4.3407e-05
17 *268:14 *810:B 0.000141954
18 *268:25 *920:RESET_B 0.000237534
19 *268:25 *269:48 2.03256e-05
20 *268:25 *365:54 0.000180247
21 *268:25 *365:64 0.000286718
22 *268:25 *365:107 0.000129513
23 *268:37 *270:24 0.000250035
24 *268:37 *306:12 2.01657e-05
25 *268:37 *339:10 9.85586e-06
26 *268:37 *340:12 4.77164e-06
27 *268:37 *365:54 2.33476e-05
28 *268:76 *269:35 0.000139352
29 axi_rdata[25] *268:60 0.000136486
30 *877:B *268:76 8.8375e-05
31 *877:B *268:86 5.41288e-05
32 *882:B1_N *268:25 0
33 *884:A1_N *268:86 5.67058e-05
34 *920:CLK *268:86 2.46345e-05
35 *923:CLK *268:86 0.000191157
36 *18:17 *811:A 9.17998e-05
37 *22:15 *268:37 8.98937e-05
38 *89:10 *811:A 0.000178517
39 *93:8 *268:25 0.000341602
40 *93:8 *268:37 2.5343e-05
41 *187:10 *268:25 6.28488e-05
42 *188:10 *268:25 0
43 *235:75 *268:86 0.000142007
44 *239:14 *268:86 5.50049e-05
45 *241:31 *268:37 0.000117839
46 *251:74 *268:86 5.3304e-05
47 *251:76 *268:86 0.000179702
48 *251:95 *268:25 0
49 *267:12 *268:86 0.000163361
50 *267:33 *268:86 9.5877e-05
*RES
1 *920:Q *268:10 44.6907 
2 *268:10 *268:14 18.0036 
3 *268:14 *877:A 25.0507 
4 *268:14 *268:25 26.4136 
5 *268:25 *268:37 32.3851 
6 *268:37 *883:A 23 
7 *268:25 *881:A 38 
8 *920:Q *268:60 40.5271 
9 *268:60 *811:A 40.0507 
10 *877:A *268:76 26.48 
11 *268:76 *268:86 38.0993 
12 *268:86 *879:A 23 
13 *268:76 *878:A1 23 
*END

*D_NET *269 0.00618786
*CONN
*I *883:B I *D sky130_fd_sc_hd__and4_2
*I *812:A I *D sky130_fd_sc_hd__xor2_2
*I *881:B I *D sky130_fd_sc_hd__and4_2
*I *878:B1 I *D sky130_fd_sc_hd__a21oi_2
*I *879:B I *D sky130_fd_sc_hd__and3_2
*I *921:Q O *D sky130_fd_sc_hd__dfrtp_2
*CAP
1 *883:B 0.000185898
2 *812:A 8.30891e-05
3 *881:B 0.000185898
4 *878:B1 0
5 *879:B 0.000184295
6 *921:Q 0.000148977
7 *269:48 0.000255982
8 *269:35 0.000292059
9 *269:18 0.000637053
10 *269:12 0.000762237
11 *269:10 0.000428645
12 *269:8 0.000148977
13 *883:B *814:A 0.000135037
14 *269:8 *812:B 0
15 *269:8 *270:10 0
16 *269:12 *884:B2 0.000130676
17 *269:12 *270:8 0.000125416
18 *269:12 *365:79 9.31794e-05
19 *269:18 *884:B2 0.000255876
20 *269:18 *365:79 0.000118498
21 *269:35 *918:RESET_B 0.000252685
22 *269:35 *365:79 8.62783e-05
23 axi_rdata[25] *269:8 0
24 *877:B *269:35 0.000139352
25 *880:B *269:35 0.000215801
26 *882:B1_N *269:35 2.65002e-05
27 *882:B1_N *269:48 0
28 *884:A1_N *879:B 4.04206e-05
29 *884:A2_N *879:B 0.000182826
30 *884:A2_N *269:18 0
31 *923:CLK *269:35 0
32 *21:23 *883:B 0.00034107
33 *21:23 *269:48 5.67058e-05
34 *22:15 *269:48 7.14436e-05
35 *93:8 *269:48 0.000134424
36 *189:10 *879:B 0.000140259
37 *235:67 *879:B 3.22879e-05
38 *239:14 *269:35 0.000124357
39 *240:10 *269:35 1.19796e-05
40 *240:10 *269:48 0
41 *268:25 *269:48 2.03256e-05
42 *268:76 *269:35 0.000139352
*RES
1 *921:Q *269:8 40.2579 
2 *269:8 *269:10 15 
3 *269:10 *269:12 7.76786 
4 *269:12 *269:18 5.075 
5 *269:18 *879:B 27.4536 
6 *269:18 *269:35 37.7057 
7 *269:35 *878:B1 23 
8 *269:12 *269:48 35.3443 
9 *269:48 *881:B 23 
10 *269:10 *812:A 24.595 
11 *881:B *883:B 49.9564 
*END

*D_NET *270 0.00553509
*CONN
*I *882:A1 I *D sky130_fd_sc_hd__o21ba_2
*I *813:A I *D sky130_fd_sc_hd__xor2_2
*I *883:C I *D sky130_fd_sc_hd__and4_2
*I *881:C I *D sky130_fd_sc_hd__and4_2
*I *922:Q O *D sky130_fd_sc_hd__dfrtp_2
*CAP
1 *882:A1 0.000581351
2 *813:A 0.000261534
3 *883:C 0
4 *881:C 0
5 *922:Q 0.000221537
6 *270:24 0.000293465
7 *270:12 0.000376726
8 *270:10 0.000551226
9 *270:8 0.00100932
10 *813:A *813:B 8.28202e-05
11 *813:A *339:10 2.93845e-05
12 *882:A1 *919:RESET_B 0.000148153
13 *882:A1 *365:107 0
14 *270:10 *884:B2 3.58436e-05
15 *270:10 *271:8 2.21344e-05
16 *270:10 *365:64 0
17 *270:10 *365:107 0
18 *270:12 *339:10 0.000108978
19 *270:24 *306:12 8.95249e-05
20 *270:24 *339:10 0.000147166
21 axi_rdata[27] *813:A 0.000106693
22 *882:A2 *882:A1 5.3304e-05
23 *882:B1_N *882:A1 5.50106e-05
24 *921:CLK *882:A1 2.32101e-05
25 *22:15 *270:24 0.000104378
26 *93:8 *270:24 5.09756e-05
27 *94:10 *270:10 1.28035e-05
28 *94:10 *270:12 0.000150649
29 *94:10 *270:24 0.000144925
30 *188:10 *882:A1 0.000224605
31 *241:31 *270:24 6.69209e-05
32 *251:89 *882:A1 0.000104205
33 *267:65 *882:A1 0.0001028
34 *268:37 *270:24 0.000250035
35 *269:8 *270:10 0
36 *269:12 *270:8 0.000125416
*RES
1 *922:Q *270:8 41.48 
2 *270:8 *270:10 3.66643 
3 *270:10 *270:12 2.25786 
4 *270:12 *270:24 35.2022 
5 *270:24 *881:C 23 
6 *270:12 *883:C 38 
7 *270:10 *813:A 43.3857 
8 *270:8 *882:A1 49.5379 
*END

*D_NET *271 0.00314808
*CONN
*I *884:B2 I *D sky130_fd_sc_hd__o2bb2a_2
*I *883:D I *D sky130_fd_sc_hd__and4_2
*I *814:A I *D sky130_fd_sc_hd__xor2_2
*I *923:Q O *D sky130_fd_sc_hd__dfrtp_2
*CAP
1 *884:B2 0.000505198
2 *883:D 4.99221e-05
3 *814:A 0.000258766
4 *923:Q 0
5 *271:8 0.000405102
6 *271:6 0.000601613
7 *814:A *340:12 9.84851e-05
8 *814:A *365:54 1.70308e-05
9 *884:B2 *365:64 2.97675e-05
10 *271:8 *365:54 4.01696e-05
11 *271:8 *365:64 6.26356e-05
12 *883:B *814:A 0.000135037
13 *21:23 *814:A 0.000142523
14 *21:23 *883:D 5.3304e-05
15 *94:10 *814:A 8.25833e-05
16 *94:10 *271:8 0.000176236
17 *241:31 *814:A 4.51797e-05
18 *269:12 *884:B2 0.000130676
19 *269:18 *884:B2 0.000255876
20 *270:10 *884:B2 3.58436e-05
21 *270:10 *271:8 2.21344e-05
*RES
1 *923:Q *271:6 38 
2 *271:6 *271:8 2.96214 
3 *271:8 *814:A 44.1314 
4 *271:8 *883:D 38.6214 
5 *271:6 *884:B2 45.54 
*END

*D_NET *272 0.00754079
*CONN
*I *815:A I *D sky130_fd_sc_hd__xor2_2
*I *888:A I *D sky130_fd_sc_hd__and2_2
*I *885:B1 I *D sky130_fd_sc_hd__a21oi_2
*I *886:A I *D sky130_fd_sc_hd__and3_2
*I *924:Q O *D sky130_fd_sc_hd__dfrtp_2
*CAP
1 *815:A 0
2 *888:A 0
3 *885:B1 0.00018143
4 *886:A 0.000526924
5 *924:Q 0.000104434
6 *272:52 0.000189876
7 *272:44 0.000883849
8 *272:16 0.00154558
9 *272:12 0.0015312
10 *272:10 0.000104434
11 *885:B1 *364:26 2.82307e-05
12 *885:B1 *374:12 2.5343e-05
13 *886:A *292:8 0.000388046
14 *886:A *364:26 4.06039e-05
15 *272:10 *924:RESET_B 2.93747e-05
16 *272:10 *275:16 0.000131416
17 *272:10 *365:54 0.000129184
18 *272:16 *275:16 0.00018282
19 *272:44 *341:10 5.13694e-05
20 *272:52 *276:28 8.2778e-05
21 *886:B *886:A 0.000116564
22 *891:C *272:16 2.02872e-05
23 *891:C *272:44 1.46594e-05
24 *970:A *886:A 5.50049e-05
25 *24:15 *272:10 2.64616e-05
26 *24:15 *272:52 0
27 *27:17 *272:16 1.10653e-05
28 *27:17 *272:44 2.57373e-05
29 *99:10 *272:16 0.00061236
30 *235:25 *885:B1 9.28078e-06
31 *235:45 *885:B1 2.11066e-05
32 *235:45 *272:16 5.52635e-05
33 *237:14 *885:B1 0
34 *237:14 *886:A 9.30054e-05
35 *242:12 *885:B1 0
36 *242:18 *885:B1 0
37 *242:18 *886:A 0
38 *244:10 *272:52 5.50106e-05
39 *246:10 *272:44 0.00026808
*RES
1 *924:Q *272:10 40.5271 
2 *272:10 *272:12 15 
3 *272:12 *272:16 27.5321 
4 *272:16 *886:A 49.9521 
5 *272:16 *885:B1 41.6664 
6 *272:12 *272:44 10.6679 
7 *272:44 *272:52 33.2314 
8 *272:52 *888:A 23 
9 *272:44 *815:A 23 
*END

*D_NET *273 0.00532457
*CONN
*I *888:B I *D sky130_fd_sc_hd__and2_2
*I *949:A I *D sky130_fd_sc_hd__dlygate4sd3_1
*I *816:A I *D sky130_fd_sc_hd__xor2_2
*I *925:Q O *D sky130_fd_sc_hd__dfrtp_2
*CAP
1 *888:B 0.000262886
2 *949:A 0
3 *816:A 0.000551588
4 *925:Q 0.000149175
5 *273:30 0.000904707
6 *273:22 0.00157001
7 *816:A *816:B 5.50409e-05
8 *888:B *817:B 1.5484e-05
9 *888:B *276:12 0.000132345
10 *888:B *276:28 0.000137535
11 *888:B *378:12 0
12 *273:30 *817:B 6.30005e-05
13 *273:30 *894:B 3.17516e-05
14 *273:30 *897:RESET_B 0.000109037
15 *273:30 *276:12 0.000822476
16 *273:30 *374:24 5.41385e-05
17 uart_tx *273:30 0.000412094
18 *98:12 *888:B 0
19 *202:10 *273:30 5.3304e-05
*RES
1 *925:Q *816:A 48.4236 
2 *816:A *273:22 44.3386 
3 *273:22 *273:30 35.2793 
4 *273:30 *949:A 23 
5 *273:22 *888:B 43.4271 
*END

*D_NET *274 0.00708065
*CONN
*I *966:A I *D sky130_fd_sc_hd__dlygate4sd3_1
*I *789:A I *D sky130_fd_sc_hd__xor2_2
*I *824:A3 I *D sky130_fd_sc_hd__a31o_2
*I *823:C I *D sky130_fd_sc_hd__and4_2
*I *898:Q O *D sky130_fd_sc_hd__dfrtp_2
*CAP
1 *966:A 0.000415912
2 *789:A 0.000211936
3 *824:A3 0.000452452
4 *823:C 0
5 *898:Q 0
6 *274:40 0.000951274
7 *274:10 0.00123653
8 *274:4 0.00110751
9 *789:A *331:12 0.000123934
10 *824:A3 *315:52 0.000520117
11 *824:A3 *353:10 0.000149667
12 *966:A *357:14 5.50049e-05
13 *274:10 *352:10 9.58714e-05
14 *274:10 *353:10 0.000141577
15 *274:40 *898:RESET_B 9.35646e-05
16 axi_rdata[2] *789:A 1.1892e-05
17 *821:A *789:A 0.00013535
18 *821:A *966:A 7.87557e-05
19 *14:13 *824:A3 1.25419e-05
20 *14:13 *274:10 0.000135862
21 *181:8 *789:A 5.21024e-05
22 *181:8 *966:A 0.000130086
23 *190:8 *966:A 4.5051e-05
24 *203:18 *274:10 0.000207528
25 *203:18 *274:40 9.05962e-05
26 *203:31 *966:A 0.000190009
27 *204:20 *789:A 0.00012103
28 *243:20 *966:A 9.5877e-05
29 *249:24 *824:A3 0.000111106
30 *263:12 *824:A3 1.07299e-05
31 *263:26 *824:A3 9.67842e-05
*RES
1 *898:Q *274:4 23 
2 *274:4 *274:10 27.2629 
3 *274:10 *823:C 38 
4 *274:10 *824:A3 48.005 
5 *274:4 *274:40 19.4329 
6 *274:40 *789:A 43.1993 
7 *274:40 *966:A 47.0521 
*END

*D_NET *275 0.00443036
*CONN
*I *817:A I *D sky130_fd_sc_hd__xor2_2
*I *963:A I *D sky130_fd_sc_hd__dlygate4sd3_1
*I *891:A I *D sky130_fd_sc_hd__and4_2
*I *926:Q O *D sky130_fd_sc_hd__dfrtp_2
*CAP
1 *817:A 0.000115305
2 *963:A 0
3 *891:A 0
4 *926:Q 0
5 *275:27 0.000223866
6 *275:16 0.000703544
7 *275:6 0.00126
8 *275:4 0.000447896
9 *275:16 *288:12 0.000345815
10 *275:16 *347:18 0
11 *275:16 *357:14 8.57485e-05
12 *275:16 *365:30 3.98491e-05
13 *275:16 *365:44 4.95442e-05
14 *275:16 *365:54 2.9789e-05
15 *275:27 *928:RESET_B 4.74882e-05
16 *275:27 *365:10 6.02813e-05
17 *275:27 *365:12 0.000146243
18 *275:27 *365:23 1.7403e-05
19 *275:27 *374:24 0.000241282
20 *891:C *275:16 5.3304e-05
21 *891:D *275:16 0.000141152
22 *27:17 *275:16 7.43025e-06
23 *191:8 *275:16 0
24 *235:45 *275:16 0.00010018
25 *272:10 *275:16 0.000131416
26 *272:16 *275:16 0.00018282
*RES
1 *926:Q *275:4 23 
2 *275:4 *275:6 3.95643 
3 *275:6 *275:16 44.5829 
4 *275:16 *891:A 23 
5 *275:6 *275:27 36.8357 
6 *275:27 *963:A 23 
7 *275:4 *817:A 25.4236 
*END

*D_NET *276 0.0053146
*CONN
*I *818:A I *D sky130_fd_sc_hd__xor2_2
*I *962:A I *D sky130_fd_sc_hd__dlygate4sd3_1
*I *927:Q O *D sky130_fd_sc_hd__dfrtp_2
*CAP
1 *818:A 0.000116878
2 *962:A 0
3 *927:Q 0.000526344
4 *276:28 0.000583542
5 *276:12 0.000569869
6 *276:8 0.000629548
7 *276:12 *345:18 0.00125324
8 *276:28 *815:B 1.89743e-05
9 *276:28 *378:12 0
10 uart_tx *276:12 0.00033091
11 *888:B *276:12 0.000132345
12 *888:B *276:28 0.000137535
13 *23:15 *818:A 7.53384e-06
14 *98:12 *276:12 0.00010263
15 *272:52 *276:28 8.2778e-05
16 *273:30 *276:12 0.000822476
*RES
1 *927:Q *276:8 38.6214 
2 *276:8 *276:12 36.6257 
3 *276:12 *962:A 23 
4 *927:Q *276:28 46.1614 
5 *276:28 *818:A 40.0507 
*END

*D_NET *277 0.00522468
*CONN
*I *824:B1 I *D sky130_fd_sc_hd__a31o_2
*I *790:A I *D sky130_fd_sc_hd__xor2_2
*I *823:D I *D sky130_fd_sc_hd__and4_2
*I *899:Q O *D sky130_fd_sc_hd__dfrtp_2
*CAP
1 *824:B1 0
2 *790:A 0
3 *823:D 0.00125342
4 *899:Q 0
5 *277:45 0.000379419
6 *277:29 0.000485144
7 *277:4 0.00135915
8 *277:29 *898:RESET_B 0
9 *277:45 *796:B 1.39826e-05
10 axi_rdata[3] *277:29 0.000544367
11 *819:A *823:D 0
12 *899:CLK *823:D 2.93845e-05
13 *28:9 *277:29 0
14 *86:10 *277:29 3.71369e-05
15 *106:10 *277:45 8.57577e-05
16 *242:18 *823:D 3.71251e-05
17 *249:16 *823:D 6.30556e-05
18 *249:24 *823:D 4.02485e-05
19 *252:23 *823:D 5.50049e-05
20 *252:25 *823:D 0.000181925
21 *263:14 *823:D 5.25848e-05
22 *263:14 *277:45 0.000305639
23 *263:26 *277:45 0.000209106
24 *263:68 *277:29 9.22297e-05
*RES
1 *899:Q *277:4 23 
2 *277:4 *823:D 36.0707 
3 *277:4 *277:29 40.3571 
4 *277:29 *790:A 23 
5 *823:D *277:45 43.9864 
6 *277:45 *824:B1 38 
*END

*D_NET *278 0.00518226
*CONN
*I *791:A I *D sky130_fd_sc_hd__xor2_2
*I *832:A I *D sky130_fd_sc_hd__and4_2
*I *830:A1 I *D sky130_fd_sc_hd__a31o_2
*I *829:A I *D sky130_fd_sc_hd__and4_2
*I *827:A I *D sky130_fd_sc_hd__xor2_2
*I *826:A I *D sky130_fd_sc_hd__nand2_2
*I *900:Q O *D sky130_fd_sc_hd__dfrtp_2
*CAP
1 *791:A 0
2 *832:A 7.28257e-05
3 *830:A1 0
4 *829:A 0
5 *827:A 0
6 *826:A 0
7 *900:Q 0.000196808
8 *278:77 0.000186706
9 *278:57 9.88716e-05
10 *278:51 0.000187617
11 *278:44 0.000204256
12 *278:31 0.000355913
13 *278:14 0.000818356
14 *278:6 0.00103429
15 *832:A *279:29 2.69729e-05
16 *832:A *279:37 1.83408e-05
17 *278:31 *308:8 6.89486e-05
18 *278:44 *279:37 4.84129e-06
19 *278:44 *381:10 0
20 *278:51 *279:37 1.83327e-05
21 *278:57 *279:37 0.000112303
22 *278:57 *280:24 3.98887e-05
23 *278:77 *791:B 0
24 *278:77 *351:26 2.93335e-05
25 *826:B *278:31 0.00017474
26 *826:B *278:44 2.77955e-05
27 *829:D *832:A 0.000104047
28 *830:A3 *278:44 3.67392e-05
29 *830:A3 *278:57 2.20542e-05
30 *900:CLK *278:14 0.000159755
31 *901:CLK *278:31 0.000125182
32 *901:CLK *278:44 4.21594e-06
33 *990:A *278:77 5.79559e-05
34 *29:21 *278:14 0
35 *29:21 *278:31 7.25297e-05
36 *197:8 *278:44 0.000102365
37 *205:28 *832:A 0.000307228
38 *205:28 *278:44 5.56356e-05
39 *205:28 *278:51 4.44308e-05
40 *205:30 *278:44 0.000357345
41 *207:10 *278:44 0
42 *248:20 *278:31 5.56356e-05
*RES
1 *900:Q *278:6 25.5271 
2 *278:6 *278:14 38.5757 
3 *278:14 *826:A 23 
4 *278:14 *278:31 19.9714 
5 *278:31 *827:A 38 
6 *278:31 *278:44 21.0486 
7 *278:44 *829:A 23 
8 *278:44 *278:51 0.621429 
9 *278:51 *278:57 32.61 
10 *278:57 *830:A1 23 
11 *278:51 *832:A 26.48 
12 *278:6 *278:77 32.8793 
13 *278:77 *791:A 23 
*END

*D_NET *279 0.00545046
*CONN
*I *965:A I *D sky130_fd_sc_hd__dlygate4sd3_1
*I *832:B I *D sky130_fd_sc_hd__and4_2
*I *829:B I *D sky130_fd_sc_hd__and4_2
*I *830:A2 I *D sky130_fd_sc_hd__a31o_2
*I *792:A I *D sky130_fd_sc_hd__xor2_2
*I *901:Q O *D sky130_fd_sc_hd__dfrtp_2
*CAP
1 *965:A 0.000159299
2 *832:B 0
3 *829:B 0
4 *830:A2 0
5 *792:A 0.000257511
6 *901:Q 3.79925e-05
7 *279:37 0.000124254
8 *279:29 0.000214841
9 *279:27 0.000283664
10 *279:23 0.000605736
11 *279:8 0.000548864
12 *792:A *351:26 0.000101514
13 *279:8 *309:16 0.000139352
14 *279:8 *351:8 0.000139352
15 *279:23 *900:RESET_B 0
16 *279:23 *351:26 1.22803e-05
17 *279:27 *832:D 0.000309966
18 *279:27 *280:16 4.21048e-05
19 *279:27 *280:18 5.79559e-05
20 *279:27 *287:10 5.58003e-05
21 *279:29 *280:18 0.000317679
22 *829:D *279:29 0.000273247
23 *830:A3 *279:37 5.511e-05
24 *832:A *279:29 2.69729e-05
25 *832:A *279:37 1.83408e-05
26 *903:CLK *792:A 5.05796e-05
27 *168:23 *792:A 0
28 *198:10 *279:23 4.55813e-05
29 *199:12 *792:A 0.000162777
30 *199:12 *965:A 0.000316419
31 *199:12 *279:23 0.000499277
32 *205:24 *279:27 1.74069e-05
33 *253:20 *965:A 0.000357484
34 *253:20 *279:23 8.36198e-05
35 *278:44 *279:37 4.84129e-06
36 *278:51 *279:37 1.83327e-05
37 *278:57 *279:37 0.000112303
*RES
1 *901:Q *279:8 39.5743 
2 *279:8 *792:A 43.51 
3 *279:8 *279:23 6.83571 
4 *279:23 *279:27 19.4329 
5 *279:27 *279:29 3.95643 
6 *279:29 *279:37 32.6514 
7 *279:37 *830:A2 23 
8 *279:29 *829:B 23 
9 *279:27 *832:B 23 
10 *279:23 *965:A 43.075 
*END

*D_NET *280 0.00533718
*CONN
*I *793:A I *D sky130_fd_sc_hd__xor2_2
*I *832:C I *D sky130_fd_sc_hd__and4_2
*I *829:C I *D sky130_fd_sc_hd__and4_2
*I *830:B1 I *D sky130_fd_sc_hd__a31o_2
*I *902:Q O *D sky130_fd_sc_hd__dfrtp_2
*CAP
1 *793:A 0
2 *832:C 0
3 *829:C 0
4 *830:B1 0
5 *902:Q 0.000179344
6 *280:45 0.000410824
7 *280:24 7.09785e-05
8 *280:18 0.000329853
9 *280:16 0.00117388
10 *280:6 0.00150517
11 *280:6 *902:RESET_B 0.000132736
12 *280:45 *281:10 0.000134324
13 axi_rdata[5] *280:45 0.000255861
14 *30:9 *280:45 0.000237733
15 *31:7 *280:45 7.5178e-05
16 *207:10 *280:16 0
17 *208:8 *280:24 2.8661e-05
18 *248:10 *280:16 0.000282327
19 *248:14 *280:16 6.2683e-05
20 *278:57 *280:24 3.98887e-05
21 *279:27 *280:16 4.21048e-05
22 *279:27 *280:18 5.79559e-05
23 *279:29 *280:18 0.000317679
*RES
1 *902:Q *280:6 25.5271 
2 *280:6 *280:16 42.6357 
3 *280:16 *280:18 3.95643 
4 *280:18 *280:24 31.5536 
5 *280:24 *830:B1 23 
6 *280:18 *829:C 23 
7 *280:16 *832:C 23 
8 *280:6 *280:45 40.7093 
9 *280:45 *793:A 23 
*END

*D_NET *281 0.00490941
*CONN
*I *794:A I *D sky130_fd_sc_hd__xor2_2
*I *948:A I *D sky130_fd_sc_hd__dlygate4sd3_1
*I *832:D I *D sky130_fd_sc_hd__and4_2
*I *903:Q O *D sky130_fd_sc_hd__dfrtp_2
*CAP
1 *794:A 0.000282812
2 *948:A 3.95795e-05
3 *832:D 0.000284245
4 *903:Q 0.000425986
5 *281:20 0.000685807
6 *281:12 0.000644796
7 *281:10 0.000425986
8 *794:A *794:B 4.70852e-05
9 *794:A *309:16 6.70361e-05
10 *281:10 *903:RESET_B 4.87918e-05
11 *281:20 *901:RESET_B 0.000138727
12 *281:20 *309:16 1.03836e-05
13 *281:20 *351:8 0.000266265
14 *30:9 *832:D 2.51558e-05
15 *30:9 *281:20 0.000132403
16 *31:7 *281:10 0.000271103
17 *168:23 *281:20 0.00012733
18 *199:12 *832:D 3.61613e-05
19 *199:12 *281:20 0.000126769
20 *205:24 *832:D 2.57772e-05
21 *210:10 *832:D 0.000347165
22 *215:10 *832:D 5.75756e-06
23 *279:27 *832:D 0.000309966
24 *280:45 *281:10 0.000134324
*RES
1 *903:Q *281:10 45.1464 
2 *281:10 *281:12 15 
3 *281:12 *281:20 24.4043 
4 *281:20 *832:D 44.5457 
5 *281:20 *948:A 38.6214 
6 *281:12 *794:A 26.9564 
*END

*D_NET *282 0.0115806
*CONN
*I *960:A I *D sky130_fd_sc_hd__dlygate4sd3_1
*I *795:A I *D sky130_fd_sc_hd__xor2_2
*I *835:A I *D sky130_fd_sc_hd__xnor2_2
*I *837:A I *D sky130_fd_sc_hd__nand2_2
*I *836:A I *D sky130_fd_sc_hd__and2_2
*I *838:A1 I *D sky130_fd_sc_hd__a31o_2
*I *904:Q O *D sky130_fd_sc_hd__dfrtp_2
*CAP
1 *960:A 0.000159399
2 *795:A 0
3 *835:A 0
4 *837:A 0
5 *836:A 0.000246394
6 *838:A1 1.20572e-05
7 *904:Q 0
8 *282:79 0.00127982
9 *282:64 0.000298425
10 *282:56 0.000764218
11 *282:29 0.000498152
12 *282:16 0.000499763
13 *282:10 0.000280131
14 *282:8 0.00154811
15 *282:4 0.00215856
16 *836:A *837:B 0.000182826
17 *960:A *897:RESET_B 7.61908e-05
18 *282:29 *365:177 7.45278e-05
19 *282:29 *365:181 5.4044e-05
20 *282:29 *365:213 2.89463e-05
21 *282:56 *796:B 9.55249e-05
22 *282:56 *350:10 4.61596e-05
23 *282:64 *796:B 0.000470316
24 *282:64 *283:22 7.74629e-05
25 *282:79 *822:A 4.51618e-05
26 *282:79 *347:18 0.000381807
27 *282:79 *357:14 0.000179118
28 *282:79 *376:8 0.000316705
29 *835:B *282:8 5.14826e-05
30 *889:B *282:16 7.76364e-06
31 *892:B *838:A1 3.04381e-05
32 *904:D *282:8 2.71514e-05
33 *926:CLK *282:79 4.22275e-05
34 *926:D *282:79 0.000224411
35 *203:8 *282:64 8.18846e-05
36 *206:10 *282:56 0.000139346
37 *210:26 *282:16 0.000433695
38 *210:41 *282:8 5.61255e-06
39 *210:41 *282:10 4.69418e-05
40 *210:41 *282:16 3.26241e-05
41 *212:12 *282:16 0
42 *212:12 *282:56 0.000368109
43 *237:29 *838:A1 3.04381e-05
44 *241:43 *282:29 9.50092e-05
45 *243:8 *282:16 2.96051e-05
46 *243:8 *282:29 6.33614e-05
47 *249:78 *282:8 9.66585e-05
*RES
1 *904:Q *282:4 23 
2 *282:4 *282:8 12.905 
3 *282:8 *282:10 1.09786 
4 *282:10 *282:16 21.4007 
5 *282:16 *838:A1 38.3521 
6 *282:16 *282:29 20.7793 
7 *282:29 *836:A 27.4536 
8 *282:29 *837:A 23 
9 *282:10 *835:A 23 
10 *282:8 *282:56 39.4664 
11 *282:56 *282:64 37.105 
12 *282:64 *795:A 23 
13 *282:4 *282:79 49.5957 
14 *282:79 *960:A 25.5271 
*END

*D_NET *283 0.0087124
*CONN
*I *954:A I *D sky130_fd_sc_hd__dlygate4sd3_1
*I *836:B I *D sky130_fd_sc_hd__and2_2
*I *837:B I *D sky130_fd_sc_hd__nand2_2
*I *838:B1 I *D sky130_fd_sc_hd__a31o_2
*I *796:A I *D sky130_fd_sc_hd__xor2_2
*I *905:Q O *D sky130_fd_sc_hd__dfrtp_2
*CAP
1 *954:A 0
2 *836:B 0
3 *837:B 9.09154e-05
4 *838:B1 5.9964e-05
5 *796:A 0
6 *905:Q 0.0001196
7 *283:68 0.000236169
8 *283:46 0.000374651
9 *283:33 0.000413444
10 *283:31 0.000438058
11 *283:22 0.000818297
12 *283:16 0.00116152
13 *283:8 0.000594968
14 *283:8 *905:RESET_B 0.000137525
15 *283:22 *796:B 9.22663e-05
16 *283:22 *313:10 0.00014411
17 *283:22 *353:10 0.00016665
18 axi_rdata[9] *283:22 0
19 *836:A *837:B 0.000182826
20 *838:A2 *283:33 1.56665e-05
21 *838:A2 *283:68 1.32314e-05
22 *892:B *838:B1 0.000180218
23 *892:B *283:33 0.000253941
24 *892:B *283:68 1.41129e-05
25 *14:13 *283:22 0
26 *14:13 *283:68 0.000164291
27 *25:17 *283:68 0.000139357
28 *33:9 *283:22 0
29 *195:12 *283:68 0
30 *203:8 *283:22 0.000161343
31 *205:12 *283:22 0.000239259
32 *205:20 *283:16 9.41704e-05
33 *205:77 *283:16 0.000193554
34 *205:88 *283:16 0.000362294
35 *205:88 *283:31 0.000293345
36 *206:16 *283:16 0.000180102
37 *206:16 *283:22 0.000220665
38 *206:16 *283:31 0.000101554
39 *212:12 *283:46 0.000175821
40 *237:29 *838:B1 0.000178517
41 *237:29 *283:33 0.000223704
42 *241:43 *283:46 1.4471e-05
43 *247:15 *283:46 0.000199551
44 *249:78 *283:16 0.000108129
45 *249:78 *283:31 7.66753e-05
46 *282:64 *283:22 7.74629e-05
*RES
1 *905:Q *283:8 39.5743 
2 *283:8 *283:16 38.41 
3 *283:16 *283:22 32.8557 
4 *283:22 *796:A 23 
5 *283:8 *283:31 19.0186 
6 *283:31 *283:33 3.00357 
7 *283:33 *838:B1 25.0507 
8 *283:33 *283:46 35.7793 
9 *283:46 *837:B 25.0507 
10 *283:46 *836:B 23 
11 *283:31 *283:68 34.8057 
12 *283:68 *954:A 23 
*END

*D_NET *284 0.00198872
*CONN
*I *787:B I *D sky130_fd_sc_hd__xor2_2
*I *967:X O *D sky130_fd_sc_hd__clkdlybuf4s25_1
*CAP
1 *787:B 0
2 *967:X 0.000495284
3 *284:10 0.000495284
4 *284:10 *316:6 0.000483638
5 *284:10 *352:10 0.000150837
6 *787:A *284:10 1.14452e-05
7 *14:13 *284:10 4.99753e-06
8 *25:17 *284:10 0.000347237
*RES
1 *967:X *284:10 48.1086 
2 *284:10 *787:B 15 
*END

*D_NET *285 0.00339857
*CONN
*I *805:B I *D sky130_fd_sc_hd__xor2_2
*I *968:X O *D sky130_fd_sc_hd__clkdlybuf4s25_1
*CAP
1 *805:B 0.000453087
2 *968:X 0.000809732
3 *285:10 0.00126282
4 *805:B *912:RESET_B 0.000261855
5 *805:B *329:12 0.000163033
6 *805:B *372:8 5.40337e-05
7 *285:10 *804:B 3.83778e-05
8 *285:10 *1013:A 0.000238647
9 *863:B1_N *285:10 8.06804e-06
10 *84:10 *285:10 5.27215e-06
11 *180:14 *285:10 0
12 *259:8 *805:B 0.000103647
*RES
1 *968:X *285:10 49.5793 
2 *285:10 *805:B 25.0982 
*END

*D_NET *286 0.00248337
*CONN
*I *857:A I *D sky130_fd_sc_hd__xnor2_2
*I *947:X O *D sky130_fd_sc_hd__dlygate4sd3_1
*CAP
1 *857:A 0.000592857
2 *947:X 0.000313978
3 *286:8 0.000906835
4 *223:78 *857:A 0.000365549
5 *225:12 *286:8 0.000192303
6 *226:10 *286:8 0
7 *260:34 *286:8 0.000111852
*RES
1 *947:X *286:8 44.8357 
2 *286:8 *857:A 46.6379 
*END

*D_NET *287 0.00219773
*CONN
*I *834:A1 I *D sky130_fd_sc_hd__o21a_2
*I *948:X O *D sky130_fd_sc_hd__dlygate4sd3_1
*CAP
1 *834:A1 0.000123097
2 *948:X 0.000242233
3 *287:10 0.00036533
4 *834:A1 *381:10 2.18286e-05
5 *834:A2 *834:A1 2.95526e-05
6 *834:B1 *834:A1 0.000229793
7 *198:10 *287:10 0.000187765
8 *211:32 *834:A1 7.19537e-05
9 *211:49 *287:10 8.0612e-06
10 *253:20 *287:10 0.000368569
11 *253:35 *834:A1 0.000493746
12 *279:27 *287:10 5.58003e-05
*RES
1 *948:X *287:10 43.6964 
2 *287:10 *834:A1 43.3857 
*END

*D_NET *288 0.00237321
*CONN
*I *890:A1 I *D sky130_fd_sc_hd__o21ba_2
*I *949:X O *D sky130_fd_sc_hd__dlygate4sd3_1
*CAP
1 *890:A1 0
2 *949:X 5.54152e-05
3 *288:12 0.000402139
4 *288:8 0.000457555
5 *288:8 *897:RESET_B 5.27215e-06
6 *288:12 *357:14 0.000126502
7 *288:12 *365:10 0.000124435
8 *288:12 *365:12 0.000163029
9 *288:12 *365:23 0.000113817
10 *288:12 *365:30 0.000204777
11 *898:CLK *288:12 0.000163256
12 *249:141 *288:12 0.000211198
13 *275:16 *288:12 0.000345815
*RES
1 *949:X *288:8 38.6214 
2 *288:8 *288:12 28.1743 
3 *288:12 *890:A1 23 
*END

*D_NET *289 0.00227369
*CONN
*I *863:A1 I *D sky130_fd_sc_hd__o21ba_2
*I *950:X O *D sky130_fd_sc_hd__dlygate4sd3_1
*CAP
1 *863:A1 0
2 *950:X 0.000653021
3 *289:8 0.000653021
4 *289:8 *804:B 7.56276e-05
5 *289:8 *328:8 0.000144067
6 *804:A *289:8 0.000354122
7 *863:B1_N *289:8 8.66936e-06
8 *947:A *289:8 0.000385158
*RES
1 *950:X *289:8 36.5057 
2 *289:8 *863:A1 23 
*END

*D_NET *290 0.0017364
*CONN
*I *864:A I *D sky130_fd_sc_hd__xor2_2
*I *951:X O *D sky130_fd_sc_hd__dlygate4sd3_1
*CAP
1 *864:A 0
2 *951:X 0.000646229
3 *290:8 0.000646229
4 *290:8 *332:10 5.67058e-05
5 *807:A *290:8 5.41385e-05
6 *264:69 *290:8 0.000333095
*RES
1 *951:X *290:8 34.6 
2 *290:8 *864:A 23 
*END

*D_NET *291 0.00149204
*CONN
*I *806:B I *D sky130_fd_sc_hd__xor2_2
*I *969:X O *D sky130_fd_sc_hd__clkdlybuf4s25_1
*CAP
1 *806:B 0
2 *969:X 0.000614377
3 *291:10 0.000614377
4 *291:10 *1012:A 0.000129402
5 *291:10 *359:12 0
6 axi_rdata[11] *291:10 0
7 *860:B *291:10 5.50049e-05
8 *13:9 *291:10 7.88828e-05
9 *261:39 *291:10 0
*RES
1 *969:X *291:10 47.9843 
2 *291:10 *806:B 15 
*END

*D_NET *292 0.00557495
*CONN
*I *788:B I *D sky130_fd_sc_hd__xor2_2
*I *970:X O *D sky130_fd_sc_hd__clkdlybuf4s25_1
*CAP
1 *788:B 0.000946932
2 *970:X 0.000513293
3 *292:8 0.00146023
4 *788:B *790:B 0.000174172
5 *788:B *904:RESET_B 7.74854e-05
6 *788:B *319:8 0.000859192
7 *788:B *364:26 0
8 *788:B *369:8 8.06088e-05
9 *292:8 *303:8 5.50049e-05
10 axi_rdata[0] *788:B 0.000964987
11 *886:A *292:8 0.000388046
12 *970:A *292:8 5.50049e-05
13 *25:17 *788:B 0
14 *28:9 *788:B 0
15 *242:18 *788:B 0
*RES
1 *970:X *292:8 47.1971 
2 *292:8 *788:B 39.795 
*END

*D_NET *293 0.00094028
*CONN
*I *807:B I *D sky130_fd_sc_hd__xor2_2
*I *971:X O *D sky130_fd_sc_hd__clkdlybuf4s25_1
*CAP
1 *807:B 0
2 *971:X 0.000419972
3 *293:10 0.000419972
4 *808:A *293:10 1.24376e-05
5 *15:13 *293:10 3.22879e-05
6 *17:11 *293:10 5.561e-05
7 *265:35 *293:10 0
*RES
1 *971:X *293:10 44.3386 
2 *293:10 *807:B 15 
*END

*D_NET *294 0.00187936
*CONN
*I *808:B I *D sky130_fd_sc_hd__xor2_2
*I *972:X O *D sky130_fd_sc_hd__clkdlybuf4s25_1
*CAP
1 *808:B 0.000610642
2 *972:X 0.000610642
3 *808:B *1017:A 0.000361027
4 *808:A *808:B 0
5 *16:11 *808:B 0.000297049
*RES
1 *972:X *808:B 36.4332 
*END

*D_NET *295 0.00173222
*CONN
*I *809:B I *D sky130_fd_sc_hd__xor2_2
*I *973:X O *D sky130_fd_sc_hd__clkdlybuf4s25_1
*CAP
1 *809:B 0.000329653
2 *973:X 0.000422005
3 *295:8 0.000751658
4 *809:B *335:10 0.000228903
5 *264:53 *295:8 0
*RES
1 *973:X *295:8 45.8921 
2 *295:8 *809:B 21.7425 
*END

*D_NET *296 0.00128702
*CONN
*I *810:B I *D sky130_fd_sc_hd__xor2_2
*I *974:X O *D sky130_fd_sc_hd__clkdlybuf4s25_1
*CAP
1 *810:B 0.000244069
2 *974:X 0.000230031
3 *296:8 0.0004741
4 *296:8 *920:RESET_B 1.47563e-05
5 *186:8 *296:8 0.000138708
6 *268:10 *296:8 4.3407e-05
7 *268:14 *810:B 0.000141954
*RES
1 *974:X *296:8 42.7229 
2 *296:8 *810:B 19.8368 
*END

*D_NET *297 0.00151872
*CONN
*I *811:B I *D sky130_fd_sc_hd__xor2_2
*I *975:X O *D sky130_fd_sc_hd__clkdlybuf4s25_1
*CAP
1 *811:B 0
2 *975:X 0.00040888
3 *297:8 0.00040888
4 *297:8 *812:B 0.000138718
5 *297:8 *336:8 0.000428691
6 axi_bresp[0] *297:8 0
7 axi_rdata[25] *297:8 0.000133553
*RES
1 *975:X *297:8 48.3571 
2 *297:8 *811:B 15 
*END

*D_NET *298 0.00277483
*CONN
*I *812:B I *D sky130_fd_sc_hd__xor2_2
*I *976:X O *D sky130_fd_sc_hd__clkdlybuf4s25_1
*CAP
1 *812:B 0.000401985
2 *976:X 0.00018842
3 *298:8 0.000590405
4 *812:B *336:8 0.000200329
5 *812:B *338:14 0
6 axi_rdata[24] *812:B 5.11935e-06
7 axi_rdata[25] *812:B 0.00098008
8 *91:8 *298:8 0.000269769
9 *269:8 *812:B 0
10 *297:8 *812:B 0.000138718
*RES
1 *976:X *298:8 41.0036 
2 *298:8 *812:B 28.1743 
*END

*D_NET *299 0.00272954
*CONN
*I *813:B I *D sky130_fd_sc_hd__xor2_2
*I *977:X O *D sky130_fd_sc_hd__clkdlybuf4s25_1
*CAP
1 *813:B 0.000999888
2 *977:X 8.9113e-05
3 *299:8 0.001089
4 *813:B *923:RESET_B 4.70852e-05
5 *813:B *339:10 5.50106e-05
6 *813:A *813:B 8.28202e-05
7 *884:A2_N *299:8 0.000139411
8 *249:125 *813:B 0.000227208
9 *249:125 *299:8 0
*RES
1 *977:X *299:8 39.9057 
2 *299:8 *813:B 29.4275 
*END

*D_NET *300 0.00145389
*CONN
*I *797:B I *D sky130_fd_sc_hd__xor2_2
*I *978:X O *D sky130_fd_sc_hd__clkdlybuf4s25_1
*CAP
1 *797:B 0.00011886
2 *978:X 0.000260891
3 *300:8 0.000379751
4 *797:B *361:14 5.82853e-05
5 *830:A3 *300:8 3.19287e-05
6 *164:6 *797:B 0.000138753
7 *253:35 *797:B 0.000465424
*RES
1 *978:X *300:8 42.7229 
2 *300:8 *797:B 20.3339 
*END

*D_NET *301 0.00267086
*CONN
*I *814:B I *D sky130_fd_sc_hd__xor2_2
*I *979:X O *D sky130_fd_sc_hd__clkdlybuf4s25_1
*CAP
1 *814:B 0.000150188
2 *979:X 0.000694237
3 *301:8 0.000844425
4 *814:B *339:10 0
5 *814:B *340:12 3.31683e-05
6 *23:15 *301:8 0.000948839
*RES
1 *979:X *301:8 48.6264 
2 *301:8 *814:B 17.2579 
*END

*D_NET *302 0.00438507
*CONN
*I *815:B I *D sky130_fd_sc_hd__xor2_2
*I *980:X O *D sky130_fd_sc_hd__clkdlybuf4s25_1
*CAP
1 *815:B 0.000534809
2 *980:X 3.75346e-05
3 *302:10 0.000572343
4 *815:B *306:12 0.00125792
5 *815:B *346:22 0.000893892
6 *815:B *374:12 5.66449e-05
7 *302:10 *306:12 5.81176e-05
8 axi_rdata[28] *815:B 0.000685788
9 axi_rdata[3] *302:10 5.11935e-06
10 *22:15 *815:B 0
11 *27:17 *815:B 0.000169781
12 *235:45 *815:B 2.17681e-05
13 *242:12 *302:10 7.23805e-05
14 *276:28 *815:B 1.89743e-05
*RES
1 *980:X *302:10 47.0254 
2 *302:10 *815:B 27.1726 
*END

*D_NET *303 0.00362143
*CONN
*I *816:B I *D sky130_fd_sc_hd__xor2_2
*I *981:X O *D sky130_fd_sc_hd__clkdlybuf4s25_1
*CAP
1 *816:B 0.000642714
2 *981:X 0.000681749
3 *303:8 0.00132446
4 *816:B *929:RESET_B 2.8818e-05
5 *816:B *347:18 0.000327852
6 *816:B *357:8 6.05166e-05
7 *816:A *816:B 5.50409e-05
8 *924:CLK *303:8 5.97178e-05
9 *925:D *816:B 5.12254e-05
10 *24:15 *303:8 2.35238e-05
11 *190:14 *303:8 0.000139352
12 *193:8 *816:B 1.05984e-05
13 *243:20 *816:B 0.000160859
14 *249:95 *816:B 0
15 *249:108 *816:B 0
16 *292:8 *303:8 5.50049e-05
*RES
1 *981:X *303:8 47.1971 
2 *303:8 *816:B 27.9154 
*END

*D_NET *304 0.00747998
*CONN
*I *789:B I *D sky130_fd_sc_hd__xor2_2
*I *982:X O *D sky130_fd_sc_hd__clkdlybuf4s25_1
*CAP
1 *789:B 0
2 *982:X 0.000122383
3 *304:24 0.00290634
4 *304:10 0.00302872
5 *304:24 *894:B 0
6 *304:24 *347:18 0.00038246
7 *304:24 *356:24 0.000607579
8 *898:CLK *304:24 0
9 *168:23 *304:24 0.000153166
10 *212:12 *304:10 0.00014278
11 *247:15 *304:10 0.00013655
*RES
1 *982:X *304:10 49.8425 
2 *304:10 *304:24 35.1385 
3 *304:24 *789:B 15 
*END

*D_NET *305 0.00562426
*CONN
*I *817:B I *D sky130_fd_sc_hd__xor2_2
*I *983:X O *D sky130_fd_sc_hd__clkdlybuf4s25_1
*CAP
1 *817:B 0.00178101
2 *983:X 3.34433e-05
3 *305:10 0.00181445
4 *817:B *342:14 0.000170807
5 *817:B *378:12 2.70302e-05
6 gpio_out[1] *817:B 0.000484583
7 *888:B *817:B 1.5484e-05
8 *14:13 *305:10 7.20154e-05
9 *26:19 *817:B 0.00108781
10 *205:88 *305:10 7.46212e-05
11 *244:22 *817:B 0
12 *273:30 *817:B 6.30005e-05
*RES
1 *983:X *305:10 47.0254 
2 *305:10 *817:B 31.7929 
*END

*D_NET *306 0.00326764
*CONN
*I *818:B I *D sky130_fd_sc_hd__xor2_2
*I *984:X O *D sky130_fd_sc_hd__clkdlybuf4s25_1
*CAP
1 *818:B 3.66082e-05
2 *984:X 0.000635812
3 *306:12 0.00067242
4 *818:B *340:12 7.76035e-05
5 axi_rdata[3] *306:12 2.71186e-05
6 *815:B *306:12 0.00125792
7 *22:15 *306:12 0
8 *235:45 *306:12 0.000384972
9 *241:31 *306:12 0
10 *242:12 *306:12 7.37814e-06
11 *268:37 *306:12 2.01657e-05
12 *270:24 *306:12 8.95249e-05
13 *302:10 *306:12 5.81176e-05
*RES
1 *984:X *306:12 49.3998 
2 *306:12 *818:B 24.0254 
*END

*D_NET *307 0.00510933
*CONN
*I *790:B I *D sky130_fd_sc_hd__xor2_2
*I *985:X O *D sky130_fd_sc_hd__clkdlybuf4s25_1
*CAP
1 *790:B 0.000752314
2 *985:X 0.000234056
3 *307:8 0.00098637
4 axi_rdata[0] *790:B 0.000302349
5 *788:B *790:B 0.000174172
6 *28:9 *790:B 0.00177441
7 *243:12 *307:8 0.000308946
8 *263:51 *790:B 0.000576714
*RES
1 *985:X *307:8 41.48 
2 *307:8 *790:B 40.4164 
*END

*D_NET *308 0.00290253
*CONN
*I *791:B I *D sky130_fd_sc_hd__xor2_2
*I *986:X O *D sky130_fd_sc_hd__clkdlybuf4s25_1
*CAP
1 *791:B 0.000312975
2 *986:X 0.000672347
3 *308:8 0.000985323
4 *791:B *900:RESET_B 0
5 *791:B *309:16 0
6 *791:B *351:26 0
7 *308:8 *349:12 2.72293e-05
8 axi_rdata[4] *791:B 6.16439e-05
9 *826:B *308:8 1.41077e-05
10 *900:CLK *791:B 0
11 *29:21 *791:B 0.000397531
12 *29:21 *308:8 3.46673e-05
13 *207:10 *791:B 5.58534e-05
14 *248:20 *308:8 0.000271906
15 *278:31 *308:8 6.89486e-05
16 *278:77 *791:B 0
*RES
1 *986:X *308:8 47.1971 
2 *308:8 *791:B 21.8357 
*END

*D_NET *309 0.00433699
*CONN
*I *792:B I *D sky130_fd_sc_hd__xor2_2
*I *987:X O *D sky130_fd_sc_hd__clkdlybuf4s25_1
*CAP
1 *792:B 0
2 *987:X 0.000409301
3 *309:16 0.000877577
4 *309:8 0.00128688
5 *309:8 *793:B 0.00062955
6 *309:8 *312:24 8.71382e-05
7 *309:16 *900:RESET_B 2.92795e-05
8 *309:16 *351:8 0.000180194
9 *791:B *309:16 0
10 *794:A *309:16 6.70361e-05
11 *31:7 *309:8 0.000213947
12 *207:10 *309:16 0
13 *210:18 *309:8 0.000297332
14 *248:14 *309:16 0.000109024
15 *279:8 *309:16 0.000139352
16 *281:20 *309:16 1.03836e-05
*RES
1 *987:X *309:8 49.4136 
2 *309:8 *309:16 41.9314 
3 *309:16 *792:B 15 
*END

*D_NET *310 0.00488724
*CONN
*I *793:B I *D sky130_fd_sc_hd__xor2_2
*I *988:X O *D sky130_fd_sc_hd__clkdlybuf4s25_1
*CAP
1 *793:B 0.000494339
2 *988:X 0.000811613
3 *310:8 0.00130595
4 *793:B *903:RESET_B 0.000430368
5 *793:B *312:24 0.000261059
6 *988:A *310:8 0.00025625
7 *32:15 *793:B 3.70094e-05
8 *34:17 *793:B 0.000376533
9 *198:10 *310:8 1.92887e-05
10 *248:8 *310:8 0.000265277
11 *309:8 *793:B 0.00062955
*RES
1 *988:X *310:8 48.6264 
2 *310:8 *793:B 31.3436 
*END

*D_NET *311 0.00416195
*CONN
*I *798:B I *D sky130_fd_sc_hd__xor2_2
*I *989:X O *D sky130_fd_sc_hd__clkdlybuf4s25_1
*CAP
1 *798:B 0.000814057
2 *989:X 0.000705366
3 *311:6 0.00151942
4 *798:B *931:RESET_B 0
5 *798:B *365:213 0
6 *311:6 *1007:A 5.79559e-05
7 *311:6 *367:6 0.000247033
8 *853:B *798:B 7.76364e-06
9 *213:10 *798:B 0
10 *215:19 *798:B 0.000347592
11 *217:10 *798:B 0.000219873
12 *227:12 *798:B 0
13 *244:22 *798:B 0
14 *254:12 *798:B 6.95665e-05
15 *254:25 *798:B 0.00016278
16 *254:36 *798:B 1.05441e-05
*RES
1 *989:X *311:6 35.5321 
2 *311:6 *798:B 49.1607 
*END

*D_NET *312 0.00619222
*CONN
*I *794:B I *D sky130_fd_sc_hd__xor2_2
*I *990:X O *D sky130_fd_sc_hd__clkdlybuf4s25_1
*CAP
1 *794:B 3.35774e-05
2 *990:X 7.99533e-05
3 *312:24 0.000445381
4 *312:16 0.00195715
5 *312:8 0.0016253
6 *793:B *312:24 0.000261059
7 *794:A *794:B 4.70852e-05
8 *31:7 *312:24 0.000688331
9 *32:15 *312:24 0.000398348
10 *104:14 *312:24 0.000568897
11 *309:8 *312:24 8.71382e-05
*RES
1 *990:X *312:8 39.2014 
2 *312:8 *312:16 49.8029 
3 *312:16 *312:24 45.6393 
4 *312:24 *794:B 15.5489 
*END

*D_NET *313 0.00136036
*CONN
*I *795:B I *D sky130_fd_sc_hd__xor2_2
*I *991:X O *D sky130_fd_sc_hd__clkdlybuf4s25_1
*CAP
1 *795:B 0
2 *991:X 0.000494992
3 *313:10 0.000494992
4 *313:10 *353:10 0.000196884
5 *33:9 *313:10 2.93845e-05
6 *283:22 *313:10 0.00014411
*RES
1 *991:X *313:10 45.2914 
2 *313:10 *795:B 15 
*END

*D_NET *314 0.00281908
*CONN
*I *796:B I *D sky130_fd_sc_hd__xor2_2
*I *992:X O *D sky130_fd_sc_hd__clkdlybuf4s25_1
*CAP
1 *796:B 0.000593737
2 *992:X 0.000130072
3 *314:8 0.000723809
4 axi_rdata[9] *796:B 0.000113442
5 *106:10 *796:B 0.000333228
6 *210:41 *314:8 2.19403e-05
7 *211:10 *314:8 0.000147146
8 *212:12 *796:B 8.36198e-05
9 *277:45 *796:B 1.39826e-05
10 *282:56 *796:B 9.55249e-05
11 *282:64 *796:B 0.000470316
12 *283:22 *796:B 9.22663e-05
*RES
1 *992:X *314:8 40.0507 
2 *314:8 *796:B 29.1996 
*END

*D_NET *315 0.0133942
*CONN
*I *900:RESET_B I *D sky130_fd_sc_hd__dfrtp_2
*I *901:RESET_B I *D sky130_fd_sc_hd__dfrtp_2
*I *896:RESET_B I *D sky130_fd_sc_hd__dfrtp_2
*I *899:RESET_B I *D sky130_fd_sc_hd__dfrtp_2
*I *898:RESET_B I *D sky130_fd_sc_hd__dfrtp_2
*I *903:RESET_B I *D sky130_fd_sc_hd__dfrtp_2
*I *902:RESET_B I *D sky130_fd_sc_hd__dfrtp_2
*I *895:RESET_B I *D sky130_fd_sc_hd__dfrtp_2
*I *897:RESET_B I *D sky130_fd_sc_hd__dfrtp_2
*I *1001:A I *D sky130_fd_sc_hd__buf_12
*I *993:X O *D sky130_fd_sc_hd__buf_4
*CAP
1 *900:RESET_B 0.000311791
2 *901:RESET_B 0.000437327
3 *896:RESET_B 0.000156461
4 *899:RESET_B 0
5 *898:RESET_B 0.000187676
6 *903:RESET_B 0.000173677
7 *902:RESET_B 0.000271293
8 *895:RESET_B 0
9 *897:RESET_B 0.00200908
10 *1001:A 0.000161871
11 *993:X 0.000168943
12 *315:77 0.000248881
13 *315:75 0.000217665
14 *315:52 0.000848605
15 *315:12 0.00172004
16 *315:10 0.000247211
17 *896:RESET_B *364:20 8.79516e-05
18 *896:RESET_B *375:10 6.79467e-05
19 *897:RESET_B *786:A 2.8521e-05
20 *897:RESET_B *894:B 0.000270682
21 *900:RESET_B *351:26 6.60367e-05
22 *901:RESET_B *351:8 4.65845e-05
23 *1001:A *356:10 0.000141869
24 *315:10 *342:14 1.23319e-05
25 *315:10 *356:10 0.000123165
26 *315:12 *356:10 0.000294221
27 *315:52 *786:A 0.000158745
28 axi_rdata[3] *898:RESET_B 0
29 uart_tx *1001:A 0.000139647
30 uart_tx *315:10 0.000161484
31 uart_tx *315:12 0.000304365
32 *791:B *900:RESET_B 0
33 *793:B *903:RESET_B 0.000430368
34 *824:A3 *315:52 0.000520117
35 *897:D *897:RESET_B 7.11433e-05
36 *960:A *897:RESET_B 7.61908e-05
37 *28:9 *896:RESET_B 0.000289411
38 *28:9 *898:RESET_B 0.000295847
39 *28:9 *315:77 0.000129504
40 *34:17 *903:RESET_B 0.000430368
41 *170:10 *315:52 5.25848e-05
42 *199:12 *901:RESET_B 0.000138727
43 *202:10 *897:RESET_B 1.94693e-05
44 *203:18 *898:RESET_B 5.03716e-05
45 *206:10 *315:52 0.000562976
46 *242:18 *896:RESET_B 4.86636e-05
47 *242:18 *898:RESET_B 1.44546e-05
48 *242:18 *315:77 4.48568e-05
49 *248:14 *900:RESET_B 0.000217678
50 *252:10 *896:RESET_B 4.36616e-05
51 *263:12 *315:52 0.000194614
52 *263:26 *315:52 3.28357e-06
53 *263:51 *315:52 0.000138477
54 *273:30 *897:RESET_B 0.000109037
55 *274:40 *898:RESET_B 9.35646e-05
56 *277:29 *898:RESET_B 0
57 *279:23 *900:RESET_B 0
58 *280:6 *902:RESET_B 0.000132736
59 *281:10 *903:RESET_B 4.87918e-05
60 *281:20 *901:RESET_B 0.000138727
61 *288:8 *897:RESET_B 5.27215e-06
62 *309:16 *900:RESET_B 2.92795e-05
*RES
1 *993:X *315:10 41.3557 
2 *315:10 *315:12 4.01857 
3 *315:12 *1001:A 41.48 
4 *315:12 *897:RESET_B 34.7718 
5 *315:10 *895:RESET_B 15 
6 *897:RESET_B *315:52 14.7796 
7 *315:52 *902:RESET_B 2.45464 
8 *315:52 *903:RESET_B 36.3282 
9 *897:RESET_B *315:75 15 
10 *315:75 *315:77 1.90571 
11 *315:77 *898:RESET_B 20.0439 
12 *315:77 *899:RESET_B 15 
13 *315:75 *896:RESET_B 20.0439 
14 *902:RESET_B *901:RESET_B 32.9311 
15 *901:RESET_B *900:RESET_B 36.8979 
*END

*D_NET *316 0.00876837
*CONN
*I *894:B I *D sky130_fd_sc_hd__xor2_2
*I *994:X O *D sky130_fd_sc_hd__clkdlybuf4s25_1
*CAP
1 *894:B 0.000895873
2 *994:X 0.00111875
3 *316:14 0.00207891
4 *316:6 0.00230179
5 *894:B *331:12 8.72889e-05
6 *894:B *343:10 0
7 *894:B *347:18 0
8 *894:B *354:10 3.88504e-05
9 *894:B *364:37 0
10 *894:B *365:10 0.000194318
11 *894:B *374:24 0.00010018
12 *316:6 *1034:A 5.41385e-05
13 *316:6 *351:26 5.67058e-05
14 axi_bvalid *894:B 0
15 axi_rdata[0] *316:14 0.000195238
16 *897:RESET_B *894:B 0.000270682
17 *898:CLK *894:B 0
18 *3:11 *316:6 0.000109137
19 *3:11 *316:14 3.21223e-05
20 *25:17 *316:14 0
21 *32:15 *316:6 0.000635324
22 *104:14 *316:6 5.88828e-05
23 *105:8 *316:6 2.47815e-05
24 *273:30 *894:B 3.17516e-05
25 *284:10 *316:6 0.000483638
26 *304:24 *894:B 0
*RES
1 *994:X *316:6 45.5371 
2 *316:6 *316:14 46.095 
3 *316:14 *894:B 46.2504 
*END

*D_NET *317 0.000439947
*CONN
*I *1002:A I *D sky130_fd_sc_hd__clkdlybuf4s25_1
*I *936:X O *D sky130_fd_sc_hd__buf_2
*CAP
1 *1002:A 9.37445e-05
2 *936:X 0.000126229
3 *317:8 0.000219974
*RES
1 *936:X *317:8 40.2579 
2 *317:8 *1002:A 39.5743 
*END

*D_NET *318 0.00139489
*CONN
*I *1003:A I *D sky130_fd_sc_hd__clkdlybuf4s25_1
*I *937:X O *D sky130_fd_sc_hd__buf_2
*CAP
1 *1003:A 0
2 *937:X 0.000491143
3 *318:10 0.000491143
4 *318:10 *802:B 0.000299178
5 *318:10 *344:10 8.4047e-05
6 *9:13 *318:10 0
7 *69:10 *318:10 0
8 *70:15 *318:10 2.93747e-05
*RES
1 *937:X *318:10 47.4664 
2 *318:10 *1003:A 38 
*END

*D_NET *319 0.00200007
*CONN
*I *1004:A I *D sky130_fd_sc_hd__clkdlybuf4s25_1
*I *787:X O *D sky130_fd_sc_hd__xor2_2
*CAP
1 *1004:A 3.21736e-05
2 *787:X 0.000492983
3 *319:8 0.000525157
4 *319:8 *364:26 3.76387e-05
5 *788:B *319:8 0.000859192
6 *941:A *1004:A 2.64616e-05
7 *25:17 *319:8 0
8 *75:8 *1004:A 2.64616e-05
9 *195:12 *319:8 0
*RES
1 *787:X *319:8 49.7657 
2 *319:8 *1004:A 38.6214 
*END

*D_NET *320 0.000636958
*CONN
*I *1005:A I *D sky130_fd_sc_hd__clkdlybuf4s25_1
*I *797:X O *D sky130_fd_sc_hd__xor2_2
*CAP
1 *1005:A 5.64729e-05
2 *797:X 0.000125679
3 *320:8 0.000182152
4 *320:8 *333:8 6.90927e-05
5 *7:13 *320:8 5.83896e-05
6 *163:6 *1005:A 0.000145171
*RES
1 *797:X *320:8 40.9621 
2 *320:8 *1005:A 39.5743 
*END

*D_NET *321 0.00161025
*CONN
*I *1006:A I *D sky130_fd_sc_hd__clkdlybuf4s25_1
*I *798:X O *D sky130_fd_sc_hd__xor2_2
*CAP
1 *1006:A 5.35934e-05
2 *798:X 0.000359368
3 *321:8 0.000412961
4 *321:8 *931:RESET_B 0.000222442
5 *861:D *1006:A 0.000228909
6 *869:C *321:8 0
7 *184:8 *321:8 0.000147971
8 *227:12 *321:8 0
9 *227:19 *1006:A 6.51763e-05
10 *228:30 *1006:A 5.50106e-05
11 *228:30 *321:8 0
12 *259:50 *321:8 6.48142e-05
*RES
1 *798:X *321:8 46.9486 
2 *321:8 *1006:A 40.5271 
*END

*D_NET *322 0.00362679
*CONN
*I *799:B I *D sky130_fd_sc_hd__xor2_2
*I *995:X O *D sky130_fd_sc_hd__clkdlybuf4s25_1
*CAP
1 *799:B 0.000166058
2 *995:X 0.00103696
3 *322:6 0.00120302
4 *799:B *323:10 3.34247e-05
5 *799:A *799:B 0.000109345
6 *802:A *322:6 0.000475201
7 *5:11 *799:B 5.59613e-05
8 *81:6 *799:B 0.000267167
9 *176:10 *322:6 2.2182e-05
10 *250:48 *799:B 9.28078e-06
11 *255:65 *799:B 0.000135159
12 *258:20 *322:6 7.0933e-05
13 *258:46 *322:6 4.21062e-05
*RES
1 *995:X *322:6 36.485 
2 *322:6 *799:B 35.3339 
*END

*D_NET *323 0.00355627
*CONN
*I *1007:A I *D sky130_fd_sc_hd__clkdlybuf4s25_1
*I *799:X O *D sky130_fd_sc_hd__xor2_2
*CAP
1 *1007:A 0.000317818
2 *799:X 0.000558981
3 *323:10 0.000876799
4 *1007:A *367:6 0.000316534
5 *799:A *323:10 0.000185428
6 *799:B *323:10 3.34247e-05
7 *850:D *1007:A 8.62783e-05
8 *5:11 *1007:A 0.000560164
9 *81:6 *323:10 9.52732e-05
10 *250:48 *323:10 2.81066e-05
11 *256:28 *1007:A 0.000433478
12 *257:29 *1007:A 6.02684e-06
13 *311:6 *1007:A 5.79559e-05
*RES
1 *799:X *323:10 46.265 
2 *323:10 *1007:A 49.02 
*END

*D_NET *324 0.000985823
*CONN
*I *1008:A I *D sky130_fd_sc_hd__clkdlybuf4s25_1
*I *800:X O *D sky130_fd_sc_hd__xor2_2
*CAP
1 *1008:A 0
2 *800:X 0.000108212
3 *324:8 0.000108212
4 *800:A *324:8 0.000311431
5 *79:6 *324:8 0.000457969
*RES
1 *800:X *324:8 28.4064 
2 *324:8 *1008:A 23 
*END

*D_NET *325 0.000977411
*CONN
*I *1009:A I *D sky130_fd_sc_hd__clkdlybuf4s25_1
*I *801:X O *D sky130_fd_sc_hd__xor2_2
*CAP
1 *1009:A 0
2 *801:X 0.000122368
3 *325:8 0.000122368
4 *325:8 *802:B 0.000471344
5 *325:8 *344:10 3.92407e-05
6 gpio_out[7] *325:8 0.000222091
*RES
1 *801:X *325:8 44.1314 
2 *325:8 *1009:A 38 
*END

*D_NET *326 0.000517991
*CONN
*I *1010:A I *D sky130_fd_sc_hd__clkdlybuf4s25_1
*I *802:X O *D sky130_fd_sc_hd__xor2_2
*CAP
1 *1010:A 0
2 *802:X 0.000182365
3 *326:10 0.000182365
4 *326:10 *365:287 0
5 *802:A *326:10 5.50049e-05
6 *255:65 *326:10 9.82555e-05
*RES
1 *802:X *326:10 41.5836 
2 *326:10 *1010:A 38 
*END

*D_NET *327 0.00145376
*CONN
*I *1011:A I *D sky130_fd_sc_hd__clkdlybuf4s25_1
*I *803:X O *D sky130_fd_sc_hd__xor2_2
*CAP
1 *1011:A 0
2 *803:X 0.000195003
3 *327:8 0.000195003
4 *327:8 *803:B 0.000171725
5 *10:13 *327:8 0.000448137
6 *82:6 *327:8 0.000443897
*RES
1 *803:X *327:8 32.2179 
2 *327:8 *1011:A 23 
*END

*D_NET *328 0.00259882
*CONN
*I *1012:A I *D sky130_fd_sc_hd__clkdlybuf4s25_1
*I *804:X O *D sky130_fd_sc_hd__xor2_2
*CAP
1 *1012:A 0.000437109
2 *804:X 0.000214373
3 *328:8 0.000651482
4 *1012:A *359:12 0.000227107
5 *863:B1_N *328:8 0.000409165
6 *947:A *328:8 0.00035673
7 *226:8 *1012:A 2.93845e-05
8 *261:39 *1012:A 0
9 *289:8 *328:8 0.000144067
10 *291:10 *1012:A 0.000129402
*RES
1 *804:X *328:8 46.2443 
2 *328:8 *1012:A 48.5229 
*END

*D_NET *329 0.00243807
*CONN
*I *1013:A I *D sky130_fd_sc_hd__clkdlybuf4s25_1
*I *805:X O *D sky130_fd_sc_hd__xor2_2
*CAP
1 *1013:A 0.000259691
2 *805:X 0.000593664
3 *329:12 0.000853355
4 *1013:A *804:B 1.69668e-05
5 *329:12 *912:RESET_B 0.000226338
6 *329:12 *372:8 3.70553e-06
7 *805:B *329:12 0.000163033
8 *863:B1_N *1013:A 5.9504e-05
9 *180:14 *1013:A 0
10 *250:123 *1013:A 2.3164e-05
11 *285:10 *1013:A 0.000238647
*RES
1 *805:X *329:12 46.8864 
2 *329:12 *1013:A 44.2143 
*END

*D_NET *330 0.000903845
*CONN
*I *1014:A I *D sky130_fd_sc_hd__clkdlybuf4s25_1
*I *806:X O *D sky130_fd_sc_hd__xor2_2
*CAP
1 *1014:A 0
2 *806:X 0.000320694
3 *330:10 0.000320694
4 *807:A *330:10 0
5 *916:CLK *330:10 5.50106e-05
6 *15:13 *330:10 0
7 *83:14 *330:10 0.000207447
8 *182:8 *330:10 0
*RES
1 *806:X *330:10 45.0014 
2 *330:10 *1014:A 38 
*END

*D_NET *331 0.00158184
*CONN
*I *1015:A I *D sky130_fd_sc_hd__clkdlybuf4s25_1
*I *788:X O *D sky130_fd_sc_hd__xor2_2
*CAP
1 *1015:A 0
2 *788:X 0.000634741
3 *331:12 0.000634741
4 *331:12 *347:18 0
5 axi_rdata[2] *331:12 0
6 *789:A *331:12 0.000123934
7 *894:B *331:12 8.72889e-05
8 *204:20 *331:12 0.000101137
*RES
1 *788:X *331:12 48.875 
2 *331:12 *1015:A 38 
*END

*D_NET *332 0.000703755
*CONN
*I *1016:A I *D sky130_fd_sc_hd__clkdlybuf4s25_1
*I *807:X O *D sky130_fd_sc_hd__xor2_2
*CAP
1 *1016:A 0
2 *807:X 0.00023081
3 *332:10 0.00023081
4 axi_rdata[20] *332:10 0
5 *264:69 *332:10 0.000185428
6 *265:35 *332:10 0
7 *290:8 *332:10 5.67058e-05
*RES
1 *807:X *332:10 43.0129 
2 *332:10 *1016:A 38 
*END

*D_NET *333 0.000541951
*CONN
*I *800:B I *D sky130_fd_sc_hd__xor2_2
*I *996:X O *D sky130_fd_sc_hd__clkdlybuf4s25_1
*CAP
1 *800:B 0
2 *996:X 0.000236429
3 *333:8 0.000236429
4 *320:8 *333:8 6.90927e-05
*RES
1 *996:X *333:8 42.7229 
2 *333:8 *800:B 15 
*END

*D_NET *334 0.00080795
*CONN
*I *1017:A I *D sky130_fd_sc_hd__clkdlybuf4s25_1
*I *808:X O *D sky130_fd_sc_hd__xor2_2
*CAP
1 *1017:A 4.29479e-05
2 *808:X 4.29479e-05
3 *808:B *1017:A 0.000361027
4 *16:11 *1017:A 0.000361027
*RES
1 *808:X *1017:A 49.9564 
*END

*D_NET *335 0.000697215
*CONN
*I *1018:A I *D sky130_fd_sc_hd__clkdlybuf4s25_1
*I *809:X O *D sky130_fd_sc_hd__xor2_2
*CAP
1 *1018:A 0
2 *809:X 0.000234156
3 *335:10 0.000234156
4 *809:B *335:10 0.000228903
5 *230:10 *335:10 0
*RES
1 *809:X *335:10 42.785 
2 *335:10 *1018:A 38 
*END

*D_NET *336 0.00201175
*CONN
*I *1019:A I *D sky130_fd_sc_hd__clkdlybuf4s25_1
*I *810:X O *D sky130_fd_sc_hd__xor2_2
*CAP
1 *1019:A 3.80122e-05
2 *810:X 0.000305402
3 *336:8 0.000343414
4 *1019:A *338:14 5.3304e-05
5 *336:8 *338:14 7.8085e-05
6 axi_rdata[24] *336:8 0.000564517
7 *812:B *336:8 0.000200329
8 *297:8 *336:8 0.000428691
*RES
1 *810:X *336:8 49.0614 
2 *336:8 *1019:A 38.6214 
*END

*D_NET *337 0.000258345
*CONN
*I *1020:A I *D sky130_fd_sc_hd__clkdlybuf4s25_1
*I *811:X O *D sky130_fd_sc_hd__xor2_2
*CAP
1 *1020:A 0
2 *811:X 0.000129173
3 *337:8 0.000129173
4 axi_rdata[25] *337:8 0
*RES
1 *811:X *337:8 40.2579 
2 *337:8 *1020:A 38 
*END

*D_NET *338 0.00247641
*CONN
*I *1021:A I *D sky130_fd_sc_hd__clkdlybuf4s25_1
*I *812:X O *D sky130_fd_sc_hd__xor2_2
*CAP
1 *1021:A 0
2 *812:X 0
3 *338:14 0.000772487
4 *338:6 0.000772487
5 axi_rdata[23] *338:14 0.000156895
6 axi_rdata[24] *338:14 0.000211285
7 *812:B *338:14 0
8 *1019:A *338:14 5.3304e-05
9 *18:17 *338:14 0.000278729
10 *20:13 *338:14 0
11 *89:10 *338:14 0.000153144
12 *336:8 *338:14 7.8085e-05
*RES
1 *812:X *338:6 38 
2 *338:6 *338:14 34.3679 
3 *338:14 *1021:A 23 
*END

*D_NET *339 0.00103806
*CONN
*I *1022:A I *D sky130_fd_sc_hd__clkdlybuf4s25_1
*I *813:X O *D sky130_fd_sc_hd__xor2_2
*CAP
1 *1022:A 0
2 *813:X 0.000312823
3 *339:10 0.000312823
4 *339:10 *340:12 0
5 *813:A *339:10 2.93845e-05
6 *813:B *339:10 5.50106e-05
7 *814:B *339:10 0
8 *94:10 *339:10 6.20168e-05
9 *268:37 *339:10 9.85586e-06
10 *270:12 *339:10 0.000108978
11 *270:24 *339:10 0.000147166
*RES
1 *813:X *339:10 44.0486 
2 *339:10 *1022:A 38 
*END

*D_NET *340 0.00160483
*CONN
*I *1023:A I *D sky130_fd_sc_hd__clkdlybuf4s25_1
*I *814:X O *D sky130_fd_sc_hd__xor2_2
*CAP
1 *1023:A 0
2 *814:X 0.000648738
3 *340:12 0.000648738
4 axi_rdata[28] *340:12 0
5 *814:A *340:12 9.84851e-05
6 *814:B *340:12 3.31683e-05
7 *818:B *340:12 7.76035e-05
8 *21:23 *340:12 9.33238e-05
9 *23:15 *340:12 0
10 *94:10 *340:12 0
11 *268:37 *340:12 4.77164e-06
12 *339:10 *340:12 0
*RES
1 *814:X *340:12 49.4343 
2 *340:12 *1023:A 38 
*END

*D_NET *341 0.00320021
*CONN
*I *1024:A I *D sky130_fd_sc_hd__clkdlybuf4s25_1
*I *815:X O *D sky130_fd_sc_hd__xor2_2
*CAP
1 *1024:A 0
2 *815:X 0.000167133
3 *341:18 0.000768992
4 *341:10 0.000936125
5 *341:18 *346:10 1.21972e-05
6 axi_rdata[28] *341:10 0.000101527
7 *27:17 *341:10 0.000226306
8 *95:10 *341:18 0.000854214
9 *241:37 *341:18 5.67058e-05
10 *242:12 *341:18 6.17437e-06
11 *246:10 *341:10 1.94693e-05
12 *272:44 *341:10 5.13694e-05
*RES
1 *815:X *341:10 42.0807 
2 *341:10 *341:18 27.5736 
3 *341:18 *1024:A 23 
*END

*D_NET *342 0.00392302
*CONN
*I *1025:A I *D sky130_fd_sc_hd__clkdlybuf4s25_1
*I *816:X O *D sky130_fd_sc_hd__xor2_2
*CAP
1 *1025:A 0
2 *816:X 0
3 *342:14 0.000641712
4 *342:6 0.000641712
5 *342:14 *354:10 9.84851e-05
6 *342:14 *356:10 0.000703212
7 *342:14 *378:12 0.00137633
8 uart_tx *342:14 8.98642e-05
9 *817:B *342:14 0.000170807
10 *938:A *342:14 1.22906e-05
11 *143:14 *342:14 2.31209e-05
12 *204:20 *342:14 0.000153155
13 *315:10 *342:14 1.23319e-05
*RES
1 *816:X *342:6 38 
2 *342:6 *342:14 37.3093 
3 *342:14 *1025:A 23 
*END

*D_NET *343 0.000581198
*CONN
*I *1026:A I *D sky130_fd_sc_hd__clkdlybuf4s25_1
*I *789:X O *D sky130_fd_sc_hd__xor2_2
*CAP
1 *1026:A 0
2 *789:X 0.000113949
3 *343:10 0.000113949
4 *343:10 *354:10 0.000193723
5 *343:10 *364:37 7.81176e-05
6 *894:B *343:10 0
7 *96:8 *343:10 5.67058e-05
8 *204:20 *343:10 2.4754e-05
*RES
1 *789:X *343:10 41.3557 
2 *343:10 *1026:A 38 
*END

*D_NET *344 0.00103975
*CONN
*I *801:B I *D sky130_fd_sc_hd__xor2_2
*I *997:X O *D sky130_fd_sc_hd__clkdlybuf4s25_1
*CAP
1 *801:B 0
2 *997:X 0.000218114
3 *344:10 0.000218114
4 *344:10 *802:B 0.000112721
5 *344:10 *363:14 1.59094e-05
6 gpio_out[7] *344:10 0.000351608
7 *318:10 *344:10 8.4047e-05
8 *325:8 *344:10 3.92407e-05
*RES
1 *997:X *344:10 43.3443 
2 *344:10 *801:B 15 
*END

*D_NET *345 0.00535188
*CONN
*I *1027:A I *D sky130_fd_sc_hd__clkdlybuf4s25_1
*I *817:X O *D sky130_fd_sc_hd__xor2_2
*CAP
1 *1027:A 0
2 *817:X 0
3 *345:18 0.000891502
4 *345:6 0.000891502
5 uart_tx *345:18 4.2781e-06
6 *820:A *345:18 3.53115e-05
7 *993:A *345:18 0.000177514
8 *74:8 *345:18 0.000394988
9 *86:10 *345:18 0.000143159
10 *98:6 *345:18 2.65879e-05
11 *98:12 *345:18 0.00062228
12 *169:8 *345:18 0.000274078
13 *204:10 *345:18 0.000119327
14 *263:68 *345:18 0.000419095
15 *263:76 *345:18 9.90162e-05
16 *276:12 *345:18 0.00125324
*RES
1 *817:X *345:6 38 
2 *345:6 *345:18 47.3557 
3 *345:18 *1027:A 23 
*END

*D_NET *346 0.00342498
*CONN
*I *1028:A I *D sky130_fd_sc_hd__clkdlybuf4s25_1
*I *818:X O *D sky130_fd_sc_hd__xor2_2
*CAP
1 *1028:A 0
2 *818:X 0.000196005
3 *346:22 0.00027802
4 *346:10 0.000474025
5 *346:22 *374:12 0.000900695
6 axi_rdata[3] *346:22 8.22421e-06
7 *815:B *346:22 0.000893892
8 *891:C *346:10 0.000192337
9 *23:15 *346:10 0.000180224
10 *94:10 *346:10 0.000190106
11 *95:10 *346:10 4.67488e-05
12 *99:10 *346:22 2.93845e-05
13 *242:18 *346:22 2.31209e-05
14 *341:18 *346:10 1.21972e-05
*RES
1 *818:X *346:10 42.8368 
2 *346:10 *346:22 33.63 
3 *346:22 *1028:A 23 
*END

*D_NET *347 0.00727412
*CONN
*I *1029:A I *D sky130_fd_sc_hd__clkdlybuf4s25_1
*I *790:X O *D sky130_fd_sc_hd__xor2_2
*CAP
1 *1029:A 0.000194927
2 *790:X 6.40947e-05
3 *347:18 0.00194368
4 *347:8 0.00181285
5 *347:18 *357:14 1.71301e-05
6 *347:18 *365:54 0
7 *347:18 *382:8 0.000794403
8 axi_rdata[2] *347:18 9.81961e-05
9 *816:B *347:18 0.000327852
10 *891:D *347:18 0
11 *894:B *347:18 0
12 *898:CLK *347:18 0
13 *21:23 *1029:A 7.88828e-05
14 *22:15 *347:18 5.87687e-05
15 *86:10 *347:8 0.000119749
16 *181:8 *347:18 0
17 *191:8 *347:18 0.000207889
18 *192:12 *347:18 5.65323e-05
19 *235:45 *347:18 6.12823e-05
20 *237:42 *1029:A 0.000485452
21 *243:20 *347:18 6.42354e-05
22 *249:108 *347:18 0
23 *249:125 *347:18 0
24 *263:68 *347:8 0.000123934
25 *275:16 *347:18 0
26 *282:79 *347:18 0.000381807
27 *304:24 *347:18 0.00038246
28 *331:12 *347:18 0
*RES
1 *790:X *347:8 40.5271 
2 *347:8 *347:18 37.9486 
3 *347:18 *1029:A 43.8829 
*END

*D_NET *348 0.00181103
*CONN
*I *1030:A I *D sky130_fd_sc_hd__clkdlybuf4s25_1
*I *791:X O *D sky130_fd_sc_hd__xor2_2
*CAP
1 *1030:A 0
2 *791:X 0.000227475
3 *348:8 0.000227475
4 *348:8 *351:26 0.000231229
5 *990:A *348:8 0.000198032
6 *101:6 *348:8 0.000926821
*RES
1 *791:X *348:8 33.6471 
2 *348:8 *1030:A 23 
*END

*D_NET *349 0.0017444
*CONN
*I *1031:A I *D sky130_fd_sc_hd__clkdlybuf4s25_1
*I *792:X O *D sky130_fd_sc_hd__xor2_2
*CAP
1 *1031:A 0
2 *792:X 0.000627997
3 *349:12 0.000627997
4 *29:21 *349:12 0.000396201
5 *196:8 *349:12 6.49713e-05
6 *308:8 *349:12 2.72293e-05
*RES
1 *792:X *349:12 47.6943 
2 *349:12 *1031:A 38 
*END

*D_NET *350 0.00238813
*CONN
*I *1032:A I *D sky130_fd_sc_hd__clkdlybuf4s25_1
*I *793:X O *D sky130_fd_sc_hd__xor2_2
*CAP
1 *1032:A 0
2 *793:X 0
3 *350:10 0.000493473
4 *350:6 0.000493473
5 axi_rdata[6] *350:10 0.000972957
6 axi_rdata[9] *350:10 0.000141773
7 *34:17 *350:10 3.96108e-05
8 *106:10 *350:10 0
9 *252:37 *350:10 0.00018904
10 *263:26 *350:10 1.16455e-05
11 *282:56 *350:10 4.61596e-05
*RES
1 *793:X *350:6 38 
2 *350:6 *350:10 29.2307 
3 *350:10 *1032:A 23 
*END

*D_NET *351 0.00403544
*CONN
*I *1033:A I *D sky130_fd_sc_hd__clkdlybuf4s25_1
*I *794:X O *D sky130_fd_sc_hd__xor2_2
*CAP
1 *1033:A 0
2 *794:X 0.000182532
3 *351:26 0.000824388
4 *351:8 0.00100692
5 *791:B *351:26 0
6 *792:A *351:26 0.000101514
7 *900:RESET_B *351:26 6.60367e-05
8 *901:RESET_B *351:8 4.65845e-05
9 *990:A *351:26 0.000564007
10 *32:15 *351:26 3.53115e-05
11 *101:6 *351:26 0.000292784
12 *168:23 *351:26 0
13 *278:77 *351:26 2.93335e-05
14 *279:8 *351:8 0.000139352
15 *279:23 *351:26 1.22803e-05
16 *281:20 *351:8 0.000266265
17 *309:16 *351:8 0.000180194
18 *316:6 *351:26 5.67058e-05
19 *348:8 *351:26 0.000231229
*RES
1 *794:X *351:8 43.3857 
2 *351:8 *351:26 35.0929 
3 *351:26 *1033:A 23 
*END

*D_NET *352 0.00135008
*CONN
*I *1034:A I *D sky130_fd_sc_hd__clkdlybuf4s25_1
*I *795:X O *D sky130_fd_sc_hd__xor2_2
*CAP
1 *1034:A 2.03249e-05
2 *795:X 0.000228279
3 *352:10 0.000248604
4 *3:11 *1034:A 0.00010018
5 *14:13 *352:10 0.000396497
6 *25:17 *352:10 2.36844e-05
7 *203:18 *352:10 3.16665e-05
8 *274:10 *352:10 9.58714e-05
9 *284:10 *352:10 0.000150837
10 *316:6 *1034:A 5.41385e-05
*RES
1 *795:X *352:10 44.525 
2 *352:10 *1034:A 39.0979 
*END

*D_NET *353 0.00163983
*CONN
*I *1035:A I *D sky130_fd_sc_hd__clkdlybuf4s25_1
*I *796:X O *D sky130_fd_sc_hd__xor2_2
*CAP
1 *1035:A 0
2 *796:X 0.000392649
3 *353:10 0.000392649
4 *824:A3 *353:10 0.000149667
5 *14:13 *353:10 0
6 *205:12 *353:10 0.000186763
7 *249:24 *353:10 1.29944e-05
8 *274:10 *353:10 0.000141577
9 *283:22 *353:10 0.00016665
10 *313:10 *353:10 0.000196884
*RES
1 *796:X *353:10 47.9429 
2 *353:10 *1035:A 38 
*END

*D_NET *354 0.0012195
*CONN
*I *1036:A I *D sky130_fd_sc_hd__clkdlybuf4s25_1
*I *938:X O *D sky130_fd_sc_hd__buf_2
*CAP
1 *1036:A 0
2 *938:X 0.000384379
3 *354:10 0.000384379
4 *894:B *354:10 3.88504e-05
5 *96:8 *354:10 9.16459e-05
6 *204:20 *354:10 2.80394e-05
7 *342:14 *354:10 9.84851e-05
8 *343:10 *354:10 0.000193723
*RES
1 *938:X *354:10 44.3386 
2 *354:10 *1036:A 38 
*END

*D_NET *355 0.00270354
*CONN
*I *802:B I *D sky130_fd_sc_hd__xor2_2
*I *998:X O *D sky130_fd_sc_hd__clkdlybuf4s25_1
*CAP
1 *802:B 0.000667902
2 *998:X 6.27375e-05
3 *355:8 0.000730639
4 *802:B *363:14 0
5 *802:B *365:285 0
6 *802:B *365:287 0
7 axi_rdata[15] *802:B 0
8 gpio_out[7] *802:B 3.10575e-05
9 *9:13 *802:B 0.000327967
10 *318:10 *802:B 0.000299178
11 *325:8 *802:B 0.000471344
12 *344:10 *802:B 0.000112721
*RES
1 *998:X *355:8 38.6214 
2 *355:8 *802:B 33.8086 
*END

*D_NET *356 0.0110051
*CONN
*I *1037:A I *D sky130_fd_sc_hd__clkdlybuf4s25_1
*I *928:Q O *D sky130_fd_sc_hd__dfrtp_2
*CAP
1 *1037:A 0
2 *928:Q 0.000351614
3 *356:24 0.00371285
4 *356:10 0.00406446
5 axi_rdata[5] *356:24 0.000306709
6 axi_wready *356:24 2.81221e-05
7 gpio_out[0] *356:24 0.000509053
8 uart_tx *356:10 7.05442e-05
9 *826:B *356:24 5.04995e-05
10 *900:CLK *356:24 0
11 *938:A *356:24 4.11854e-05
12 *1001:A *356:10 0.000141869
13 *168:23 *356:24 0
14 *196:8 *356:24 0
15 *304:24 *356:24 0.000607579
16 *315:10 *356:10 0.000123165
17 *315:12 *356:10 0.000294221
18 *342:14 *356:10 0.000703212
*RES
1 *928:Q *356:10 48.5746 
2 *356:10 *356:24 43.9643 
3 *356:24 *1037:A 23 
*END

*D_NET *357 0.00390925
*CONN
*I *1038:A I *D sky130_fd_sc_hd__clkdlybuf4s25_1
*I *929:Q O *D sky130_fd_sc_hd__dfrtp_2
*CAP
1 *1038:A 0
2 *929:Q 0.000491934
3 *357:14 0.000510219
4 *357:8 0.00100215
5 *357:8 *929:RESET_B 0.000430746
6 *357:14 *376:8 0.000314495
7 *816:B *357:8 6.05166e-05
8 *898:CLK *357:14 0.000433736
9 *966:A *357:14 5.50049e-05
10 *249:141 *357:14 0.000201946
11 *275:16 *357:14 8.57485e-05
12 *282:79 *357:14 0.000179118
13 *288:12 *357:14 0.000126502
14 *347:18 *357:14 1.71301e-05
*RES
1 *929:Q *357:8 44.815 
2 *357:8 *357:14 29.7486 
3 *357:14 *1038:A 23 
*END

*D_NET *358 0.00238758
*CONN
*I *1039:A I *D sky130_fd_sc_hd__clkdlybuf4s25_1
*I *930:Q O *D sky130_fd_sc_hd__dfrtp_2
*CAP
1 *1039:A 9.31962e-05
2 *930:Q 0.000305924
3 *358:8 0.00039912
4 *4:17 *1039:A 0.000279227
5 *4:17 *358:8 6.51997e-06
6 *7:13 *358:8 0.000586402
7 *161:8 *358:8 0.000717185
*RES
1 *930:Q *358:8 48.3571 
2 *358:8 *1039:A 41.0036 
*END

*D_NET *359 0.00312478
*CONN
*I *1040:A I *D sky130_fd_sc_hd__clkdlybuf4s25_1
*I *931:Q O *D sky130_fd_sc_hd__dfrtp_2
*CAP
1 *1040:A 0
2 *931:Q 8.89226e-05
3 *359:12 0.000645005
4 *359:8 0.000733928
5 *861:D *359:12 0.000379413
6 *869:C *359:12 0.00021356
7 *918:D *359:8 0.000182832
8 *950:A *359:12 0.00016046
9 *1012:A *359:12 0.000227107
10 *13:9 *359:12 1.01436e-05
11 *83:14 *359:12 0
12 *227:27 *359:12 3.83778e-05
13 *228:16 *359:8 1.24376e-05
14 *228:30 *359:8 6.82416e-05
15 *228:41 *359:12 6.7177e-06
16 *228:73 *359:12 1.02387e-05
17 *230:33 *359:12 5.94125e-05
18 *251:47 *359:12 0
19 *259:50 *359:12 0
20 *262:19 *359:12 0.000265339
21 *266:41 *359:12 2.26489e-05
22 *291:10 *359:12 0
*RES
1 *931:Q *359:8 40.5271 
2 *359:8 *359:12 31.6957 
3 *359:12 *1040:A 23 
*END

*D_NET *360 0.0028559
*CONN
*I *1041:A I *D sky130_fd_sc_hd__clkdlybuf4s25_1
*I *932:Q O *D sky130_fd_sc_hd__dfrtp_2
*CAP
1 *1041:A 0.000577728
2 *932:Q 0.000502107
3 *360:8 0.00107984
4 *1041:A *930:RESET_B 3.56433e-05
5 *1041:A *361:14 0.000560098
6 *163:6 *1041:A 0.000100486
*RES
1 *932:Q *360:8 44.3386 
2 *360:8 *1041:A 49.8071 
*END

*D_NET *361 0.00323941
*CONN
*I *1042:A I *D sky130_fd_sc_hd__clkdlybuf4s25_1
*I *933:Q O *D sky130_fd_sc_hd__dfrtp_2
*CAP
1 *1042:A 0
2 *933:Q 0.000537682
3 *361:14 0.000425147
4 *361:8 0.000962829
5 *361:14 *930:RESET_B 0
6 *361:14 *365:287 0
7 *361:14 *365:289 0
8 *361:14 *370:8 0.000656338
9 *797:B *361:14 5.82853e-05
10 *1041:A *361:14 0.000560098
11 *5:11 *361:14 0
12 *164:6 *361:14 2.95526e-05
13 *255:50 *361:14 9.47917e-06
*RES
1 *933:Q *361:8 44.815 
2 *361:8 *361:14 27.7393 
3 *361:14 *1042:A 23 
*END

*D_NET *362 0.00143602
*CONN
*I *1043:A I *D sky130_fd_sc_hd__clkdlybuf4s25_1
*I *934:Q O *D sky130_fd_sc_hd__dfrtp_2
*CAP
1 *1043:A 0.000149172
2 *934:Q 0.000113921
3 *362:8 0.000263093
4 *362:8 *363:14 0.00035793
5 *8:11 *362:8 0.000287342
6 *70:15 *1043:A 0.000264564
7 *165:10 *362:8 0
*RES
1 *934:Q *362:8 42.7229 
2 *362:8 *1043:A 41.0036 
*END

*D_NET *363 0.00275254
*CONN
*I *1044:A I *D sky130_fd_sc_hd__clkdlybuf4s25_1
*I *935:Q O *D sky130_fd_sc_hd__dfrtp_2
*CAP
1 *1044:A 0
2 *935:Q 4.96829e-05
3 *363:14 0.000644686
4 *363:8 0.000694369
5 axi_rdata[14] *363:14 1.70831e-05
6 *802:B *363:14 0
7 *8:11 *363:14 0.000122304
8 *9:13 *363:14 0.000850576
9 *344:10 *363:14 1.59094e-05
10 *362:8 *363:14 0.00035793
*RES
1 *935:Q *363:8 38.6214 
2 *363:8 *363:14 31.53 
3 *363:14 *1044:A 23 
*END

*D_NET *364 0.0099512
*CONN
*I *1045:A I *D sky130_fd_sc_hd__clkdlybuf4s25_1
*I *958:A I *D sky130_fd_sc_hd__dlygate4sd3_1
*I *895:Q O *D sky130_fd_sc_hd__dfrtp_2
*CAP
1 *1045:A 0
2 *958:A 0
3 *895:Q 0.000670514
4 *364:37 0.000699361
5 *364:26 0.000711795
6 *364:20 0.00200464
7 *364:6 0.00266273
8 *364:20 *379:8 0.000304813
9 *364:26 *904:RESET_B 7.74854e-05
10 *364:26 *369:8 0.000285121
11 *364:37 *365:10 0
12 *364:37 *374:24 8.25647e-05
13 axi_bvalid *364:37 3.70094e-05
14 axi_rdata[29] *364:37 0.000198447
15 gpio_out[1] *364:37 0.000477281
16 *788:B *364:26 0
17 *885:B1 *364:26 2.82307e-05
18 *886:A *364:26 4.06039e-05
19 *894:B *364:37 0
20 *895:CLK *364:20 0.000239623
21 *895:D *364:6 0.000117299
22 *895:D *364:20 3.7122e-06
23 *896:RESET_B *364:20 8.79516e-05
24 *26:19 *364:26 4.68153e-05
25 *195:8 *364:26 6.17437e-06
26 *195:12 *364:26 0.000525182
27 *237:14 *364:26 0
28 *252:10 *364:20 9.99085e-05
29 *252:56 *364:20 0.000141543
30 *252:71 *364:20 0.000200359
31 *252:71 *364:37 0
32 *263:76 *364:37 8.62783e-05
33 *319:8 *364:26 3.76387e-05
34 *343:10 *364:37 7.81176e-05
*RES
1 *895:Q *364:6 30.7679 
2 *364:6 *364:20 34.6786 
3 *364:20 *364:26 32.4414 
4 *364:26 *958:A 23 
5 *364:6 *364:37 45.2871 
6 *364:37 *1045:A 23 
*END

*D_NET *365 0.034274
*CONN
*I *916:RESET_B I *D sky130_fd_sc_hd__dfrtp_2
*I *917:RESET_B I *D sky130_fd_sc_hd__dfrtp_2
*I *915:RESET_B I *D sky130_fd_sc_hd__dfrtp_2
*I *912:RESET_B I *D sky130_fd_sc_hd__dfrtp_2
*I *913:RESET_B I *D sky130_fd_sc_hd__dfrtp_2
*I *934:RESET_B I *D sky130_fd_sc_hd__dfrtp_2
*I *935:RESET_B I *D sky130_fd_sc_hd__dfrtp_2
*I *933:RESET_B I *D sky130_fd_sc_hd__dfrtp_2
*I *932:RESET_B I *D sky130_fd_sc_hd__dfrtp_2
*I *930:RESET_B I *D sky130_fd_sc_hd__dfrtp_2
*I *914:RESET_B I *D sky130_fd_sc_hd__dfrtp_2
*I *910:RESET_B I *D sky130_fd_sc_hd__dfrtp_2
*I *909:RESET_B I *D sky130_fd_sc_hd__dfrtp_2
*I *906:RESET_B I *D sky130_fd_sc_hd__dfrtp_2
*I *931:RESET_B I *D sky130_fd_sc_hd__dfrtp_2
*I *907:RESET_B I *D sky130_fd_sc_hd__dfrtp_2
*I *911:RESET_B I *D sky130_fd_sc_hd__dfrtp_2
*I *908:RESET_B I *D sky130_fd_sc_hd__dfrtp_2
*I *904:RESET_B I *D sky130_fd_sc_hd__dfrtp_2
*I *905:RESET_B I *D sky130_fd_sc_hd__dfrtp_2
*I *929:RESET_B I *D sky130_fd_sc_hd__dfrtp_2
*I *928:RESET_B I *D sky130_fd_sc_hd__dfrtp_2
*I *921:RESET_B I *D sky130_fd_sc_hd__dfrtp_2
*I *920:RESET_B I *D sky130_fd_sc_hd__dfrtp_2
*I *918:RESET_B I *D sky130_fd_sc_hd__dfrtp_2
*I *919:RESET_B I *D sky130_fd_sc_hd__dfrtp_2
*I *922:RESET_B I *D sky130_fd_sc_hd__dfrtp_2
*I *923:RESET_B I *D sky130_fd_sc_hd__dfrtp_2
*I *924:RESET_B I *D sky130_fd_sc_hd__dfrtp_2
*I *927:RESET_B I *D sky130_fd_sc_hd__dfrtp_2
*I *925:RESET_B I *D sky130_fd_sc_hd__dfrtp_2
*I *926:RESET_B I *D sky130_fd_sc_hd__dfrtp_2
*I *1001:X O *D sky130_fd_sc_hd__buf_12
*CAP
1 *916:RESET_B 0.000122588
2 *917:RESET_B 0.000657959
3 *915:RESET_B 0.000873603
4 *912:RESET_B 0.000136086
5 *913:RESET_B 3.83263e-05
6 *934:RESET_B 0.000141637
7 *935:RESET_B 0
8 *933:RESET_B 0
9 *932:RESET_B 0
10 *930:RESET_B 9.81706e-05
11 *914:RESET_B 0.000845528
12 *910:RESET_B 0.000332801
13 *909:RESET_B 0.00042502
14 *906:RESET_B 0.000136493
15 *931:RESET_B 0.000848818
16 *907:RESET_B 0
17 *911:RESET_B 0.00112221
18 *908:RESET_B 4.10072e-05
19 *904:RESET_B 8.27492e-05
20 *905:RESET_B 0.000717077
21 *929:RESET_B 0.000821475
22 *928:RESET_B 0.000218755
23 *921:RESET_B 4.68034e-05
24 *920:RESET_B 0.000375188
25 *918:RESET_B 0.000565414
26 *919:RESET_B 0.000299886
27 *922:RESET_B 0.000458051
28 *923:RESET_B 3.20041e-05
29 *924:RESET_B 9.17791e-05
30 *927:RESET_B 0.000400819
31 *925:RESET_B 0.000238647
32 *926:RESET_B 0
33 *1001:X 0.000322627
34 *365:327 0.000316573
35 *365:289 0.000300903
36 *365:287 0.000660252
37 *365:285 0.000623141
38 *365:283 0.000359253
39 *365:213 0.000945471
40 *365:193 0.00134722
41 *365:181 0.00147961
42 *365:177 0.000481485
43 *365:107 0.000530378
44 *365:79 0.00132335
45 *365:64 0.000245294
46 *365:54 0.000747649
47 *365:44 0.000748897
48 *365:30 0.000656647
49 *365:23 0.000315508
50 *365:12 0.000249283
51 *365:10 0.000703782
52 *365:8 0.000696433
53 *914:RESET_B *371:10 4.21594e-06
54 *934:RESET_B *373:23 0
55 *365:10 *374:24 0
56 *365:30 *374:24 0
57 *365:44 *374:24 0
58 *365:54 *374:24 0
59 axi_rdata[11] *915:RESET_B 0.000108569
60 gpio_out[7] *934:RESET_B 6.11183e-05
61 gpio_out[7] *365:285 2.50347e-05
62 *788:B *904:RESET_B 7.74854e-05
63 *798:B *931:RESET_B 0
64 *798:B *365:213 0
65 *802:B *365:285 0
66 *802:B *365:287 0
67 *805:B *912:RESET_B 0.000261855
68 *807:A *916:RESET_B 0
69 *813:B *923:RESET_B 4.70852e-05
70 *814:A *365:54 1.70308e-05
71 *816:B *929:RESET_B 2.8818e-05
72 *873:A *931:RESET_B 0
73 *880:B *918:RESET_B 0.000172333
74 *882:A1 *919:RESET_B 0.000148153
75 *882:A1 *365:107 0
76 *882:B1_N *918:RESET_B 2.96154e-05
77 *882:B1_N *365:79 3.83778e-05
78 *884:B2 *365:64 2.97675e-05
79 *891:C *365:54 0.000326243
80 *891:D *365:54 1.02104e-05
81 *894:B *365:10 0.000194318
82 *898:CLK *365:10 9.4745e-05
83 *909:CLK *909:RESET_B 5.3304e-05
84 *911:D *911:RESET_B 2.64616e-05
85 *915:CLK *913:RESET_B 4.58951e-05
86 *915:D *913:RESET_B 8.92557e-05
87 *915:D *915:RESET_B 0
88 *917:D *917:RESET_B 5.39215e-05
89 *920:CLK *918:RESET_B 4.2062e-05
90 *920:D *920:RESET_B 5.3304e-05
91 *925:D *929:RESET_B 3.08421e-05
92 *927:CLK *927:RESET_B 0.00014196
93 *927:D *927:RESET_B 5.50106e-05
94 *1041:A *930:RESET_B 3.56433e-05
95 *6:11 *911:RESET_B 9.54122e-05
96 *7:13 *930:RESET_B 0
97 *7:13 *365:287 0
98 *7:13 *365:289 0
99 *22:15 *365:54 1.02387e-05
100 *24:15 *924:RESET_B 1.93503e-05
101 *78:8 *365:193 0
102 *93:8 *365:54 7.57695e-05
103 *149:10 *911:RESET_B 0.000389649
104 *149:10 *914:RESET_B 0
105 *160:8 *365:8 9.75779e-05
106 *176:10 *911:RESET_B 0.000347408
107 *179:8 *912:RESET_B 0.000150977
108 *179:8 *365:327 0.000296965
109 *186:8 *920:RESET_B 0.000114074
110 *187:10 *918:RESET_B 0
111 *187:10 *920:RESET_B 0
112 *210:26 *365:177 0.000274269
113 *213:10 *365:177 0.000105519
114 *213:10 *365:181 9.10865e-05
115 *213:10 *365:193 5.12254e-05
116 *213:10 *365:213 2.60152e-05
117 *213:18 *365:177 0
118 *222:8 *365:193 3.08848e-05
119 *222:10 *911:RESET_B 0
120 *222:10 *365:193 0
121 *223:14 *910:RESET_B 0.000166655
122 *223:23 *910:RESET_B 0
123 *225:12 *914:RESET_B 3.47879e-05
124 *225:12 *365:327 0.00010404
125 *226:10 *915:RESET_B 0.00025307
126 *227:12 *914:RESET_B 0
127 *227:12 *931:RESET_B 0.000282643
128 *238:8 *918:RESET_B 8.62783e-05
129 *241:31 *365:54 8.58497e-05
130 *241:43 *365:213 0
131 *244:10 *365:54 2.26497e-05
132 *249:64 *929:RESET_B 6.55954e-05
133 *249:66 *905:RESET_B 0.00017977
134 *249:66 *929:RESET_B 0.000121068
135 *249:78 *905:RESET_B 0.000115435
136 *251:89 *919:RESET_B 4.16667e-05
137 *251:95 *918:RESET_B 0
138 *253:10 *906:RESET_B 0.000133138
139 *254:12 *931:RESET_B 0
140 *254:58 *931:RESET_B 0
141 *255:10 *365:193 0.000166522
142 *255:14 *365:193 5.50106e-05
143 *255:50 *365:287 0
144 *255:65 *365:287 0
145 *255:80 *934:RESET_B 0
146 *255:80 *365:285 0
147 *255:80 *365:287 0
148 *256:6 *909:RESET_B 0.000132736
149 *256:6 *365:283 2.56175e-05
150 *256:68 *909:RESET_B 8.34394e-05
151 *257:6 *910:RESET_B 2.04295e-05
152 *258:14 *909:RESET_B 3.12298e-05
153 *258:46 *911:RESET_B 0
154 *258:46 *365:193 0
155 *259:50 *914:RESET_B 0
156 *260:10 *912:RESET_B 0.000161121
157 *260:10 *365:327 8.94487e-05
158 *260:34 *914:RESET_B 3.70187e-05
159 *260:34 *915:RESET_B 0
160 *260:40 *914:RESET_B 2.54046e-05
161 *261:26 *914:RESET_B 0
162 *261:26 *915:RESET_B 9.92556e-05
163 *264:12 *916:RESET_B 0
164 *265:35 *916:RESET_B 0
165 *267:12 *919:RESET_B 1.95443e-05
166 *268:10 *920:RESET_B 0
167 *268:25 *920:RESET_B 0.000237534
168 *268:25 *365:54 0.000180247
169 *268:25 *365:64 0.000286718
170 *268:25 *365:107 0.000129513
171 *268:37 *365:54 2.33476e-05
172 *269:12 *365:79 9.31794e-05
173 *269:18 *365:79 0.000118498
174 *269:35 *918:RESET_B 0.000252685
175 *269:35 *365:79 8.62783e-05
176 *270:10 *365:64 0
177 *270:10 *365:107 0
178 *271:8 *365:54 4.01696e-05
179 *271:8 *365:64 6.26356e-05
180 *272:10 *924:RESET_B 2.93747e-05
181 *272:10 *365:54 0.000129184
182 *275:16 *365:30 3.98491e-05
183 *275:16 *365:44 4.95442e-05
184 *275:16 *365:54 2.9789e-05
185 *275:27 *928:RESET_B 4.74882e-05
186 *275:27 *365:10 6.02813e-05
187 *275:27 *365:12 0.000146243
188 *275:27 *365:23 1.7403e-05
189 *282:29 *365:177 7.45278e-05
190 *282:29 *365:181 5.4044e-05
191 *282:29 *365:213 2.89463e-05
192 *283:8 *905:RESET_B 0.000137525
193 *288:12 *365:10 0.000124435
194 *288:12 *365:12 0.000163029
195 *288:12 *365:23 0.000113817
196 *288:12 *365:30 0.000204777
197 *296:8 *920:RESET_B 1.47563e-05
198 *321:8 *931:RESET_B 0.000222442
199 *326:10 *365:287 0
200 *329:12 *912:RESET_B 0.000226338
201 *347:18 *365:54 0
202 *357:8 *929:RESET_B 0.000430746
203 *361:14 *930:RESET_B 0
204 *361:14 *365:287 0
205 *361:14 *365:289 0
206 *364:26 *904:RESET_B 7.74854e-05
207 *364:37 *365:10 0
*RES
1 *1001:X *365:8 43.3857 
2 *365:8 *365:10 7.71607 
3 *365:10 *365:12 4.54679 
4 *365:12 *926:RESET_B 15 
5 *365:12 *365:23 3.02429 
6 *365:23 *925:RESET_B 15 
7 *365:23 *365:30 4.01857 
8 *365:30 *927:RESET_B 20.9554 
9 *365:30 *365:44 1.55357 
10 *365:44 *924:RESET_B 16.5018 
11 *365:44 *365:54 11.4136 
12 *365:54 *923:RESET_B 15.5489 
13 *365:54 *365:64 4.01857 
14 *365:64 *922:RESET_B 15 
15 *922:RESET_B *365:79 22.6332 
16 *365:79 *919:RESET_B 19.5261 
17 *365:79 *918:RESET_B 25.3054 
18 *365:64 *365:107 1.90571 
19 *365:107 *920:RESET_B 22.5711 
20 *365:107 *921:RESET_B 15.6214 
21 *365:10 *928:RESET_B 18.2729 
22 *925:RESET_B *929:RESET_B 6.19357 
23 *929:RESET_B *905:RESET_B 8.57571 
24 *929:RESET_B *904:RESET_B 32.2579 
25 *905:RESET_B *365:177 20.7793 
26 *365:177 *365:181 3.23143 
27 *365:181 *365:193 43.2779 
28 *365:193 *908:RESET_B 15.5489 
29 *365:193 *911:RESET_B 25.6782 
30 *365:181 *365:213 9.30071 
31 *365:213 *907:RESET_B 15 
32 *365:213 *931:RESET_B 26.4136 
33 *365:177 *906:RESET_B 17.4546 
34 *911:RESET_B *909:RESET_B 6.19357 
35 *911:RESET_B *910:RESET_B 36.8046 
36 *931:RESET_B *914:RESET_B 36.8046 
37 *909:RESET_B *365:283 16.0461 
38 *365:283 *365:285 3.31429 
39 *365:285 *365:287 7.54 
40 *365:287 *365:289 4.01857 
41 *365:289 *930:RESET_B 16.9057 
42 *365:289 *932:RESET_B 15 
43 *365:287 *933:RESET_B 15 
44 *365:285 *935:RESET_B 15 
45 *365:283 *934:RESET_B 17.61 
46 *914:RESET_B *365:327 19.64 
47 *365:327 *913:RESET_B 16.0254 
48 *365:327 *912:RESET_B 20.1889 
49 *914:RESET_B *915:RESET_B 37.2811 
50 *915:RESET_B *917:RESET_B 8.09929 
51 *917:RESET_B *916:RESET_B 31.9057 
*END

*D_NET *366 0.00184724
*CONN
*I *803:B I *D sky130_fd_sc_hd__xor2_2
*I *999:X O *D sky130_fd_sc_hd__clkdlybuf4s25_1
*CAP
1 *803:B 0.000480688
2 *999:X 0.000480688
3 *10:13 *803:B 0.000607444
4 *11:13 *803:B 0.000106693
5 *327:8 *803:B 0.000171725
*RES
1 *999:X *803:B 33.5746 
*END

*D_NET *367 0.00154894
*CONN
*I *930:D I *D sky130_fd_sc_hd__dfrtp_2
*I *952:X O *D sky130_fd_sc_hd__dlygate4sd3_1
*CAP
1 *930:D 0
2 *952:X 0.000464336
3 *367:6 0.000464336
4 *1007:A *367:6 0.000316534
5 *248:120 *367:6 5.67058e-05
6 *311:6 *367:6 0.000247033
*RES
1 *952:X *367:6 34.1029 
2 *367:6 *930:D 23 
*END

*D_NET *368 0.00126553
*CONN
*I *935:D I *D sky130_fd_sc_hd__dfrtp_2
*I *953:X O *D sky130_fd_sc_hd__dlygate4sd3_1
*CAP
1 *935:D 0
2 *953:X 0.000340036
3 *368:6 0.000340036
4 *849:A *368:6 5.50049e-05
5 *935:CLK *368:6 9.99781e-05
6 *174:10 *368:6 2.93747e-05
7 *217:18 *368:6 0.000401102
*RES
1 *953:X *368:6 30.7679 
2 *368:6 *935:D 23 
*END

*D_NET *369 0.00113422
*CONN
*I *929:D I *D sky130_fd_sc_hd__dfrtp_2
*I *954:X O *D sky130_fd_sc_hd__dlygate4sd3_1
*CAP
1 *929:D 0.000166211
2 *954:X 0.000169238
3 *369:8 0.000335449
4 *788:B *369:8 8.06088e-05
5 *249:66 *929:D 9.75894e-05
6 *364:26 *369:8 0.000285121
*RES
1 *954:X *369:8 42.0186 
2 *369:8 *929:D 40.118 
*END

*D_NET *370 0.00136551
*CONN
*I *933:D I *D sky130_fd_sc_hd__dfrtp_2
*I *955:X O *D sky130_fd_sc_hd__dlygate4sd3_1
*CAP
1 *933:D 4.24211e-05
2 *955:X 0.000312163
3 *370:8 0.000354584
4 *5:11 *370:8 0
5 *248:120 *370:8 0
6 *256:28 *370:8 0
7 *361:14 *370:8 0.000656338
*RES
1 *955:X *370:8 46.5964 
2 *370:8 *933:D 38.6214 
*END

*D_NET *371 0.00100602
*CONN
*I *931:D I *D sky130_fd_sc_hd__dfrtp_2
*I *956:X O *D sky130_fd_sc_hd__dlygate4sd3_1
*CAP
1 *931:D 0
2 *956:X 0.00033502
3 *371:10 0.00033502
4 *853:A *371:10 9.84794e-05
5 *853:B *371:10 4.37586e-06
6 *914:RESET_B *371:10 4.21594e-06
7 *956:A *371:10 0.000228909
8 *149:10 *371:10 0
9 *227:12 *371:10 0
*RES
1 *956:X *371:10 43.51 
2 *371:10 *931:D 38 
*END

*D_NET *372 0.00238172
*CONN
*I *804:B I *D sky130_fd_sc_hd__xor2_2
*I *1000:X O *D sky130_fd_sc_hd__clkdlybuf4s25_1
*CAP
1 *804:B 0.000195232
2 *1000:X 0.000730624
3 *372:8 0.000925857
4 *805:B *372:8 5.40337e-05
5 *863:B1_N *804:B 0.000163233
6 *912:D *372:8 8.88032e-05
7 *1013:A *804:B 1.69668e-05
8 *180:14 *804:B 0
9 *226:20 *804:B 1.05441e-05
10 *250:123 *372:8 7.87147e-05
11 *285:10 *804:B 3.83778e-05
12 *289:8 *804:B 7.56276e-05
13 *329:12 *372:8 3.70553e-06
*RES
1 *1000:X *372:8 48.15 
2 *372:8 *804:B 19.2361 
*END

*D_NET *373 0.00180647
*CONN
*I *934:D I *D sky130_fd_sc_hd__dfrtp_2
*I *851:A I *D sky130_fd_sc_hd__xor2_2
*I *957:X O *D sky130_fd_sc_hd__dlygate4sd3_1
*CAP
1 *934:D 0
2 *851:A 0
3 *957:X 0.0003428
4 *373:23 0.000462702
5 *373:8 0.000805502
6 gpio_out[7] *373:23 0
7 *848:B *373:23 0
8 *851:B *373:8 5.03619e-05
9 *934:RESET_B *373:23 0
10 *957:A *373:8 5.50106e-05
11 *70:15 *373:8 0
12 *175:8 *373:23 0
13 *220:10 *373:23 0
14 *220:26 *373:8 9.00923e-05
15 *250:18 *373:23 0
16 *255:80 *373:23 0
*RES
1 *957:X *373:8 29.3593 
2 *373:8 *851:A 23 
3 *373:8 *373:23 37.7264 
4 *373:23 *934:D 23 
*END

*D_NET *374 0.00605591
*CONN
*I *894:A I *D sky130_fd_sc_hd__xor2_2
*I *958:X O *D sky130_fd_sc_hd__dlygate4sd3_1
*CAP
1 *894:A 0
2 *958:X 0.000538881
3 *374:24 0.00110323
4 *374:12 0.00164211
5 axi_rdata[28] *374:12 2.81221e-05
6 axi_rdata[29] *374:24 0
7 axi_rdata[31] *374:12 0.00069824
8 gpio_out[1] *374:24 0
9 *815:B *374:12 5.66449e-05
10 *885:B1 *374:12 2.5343e-05
11 *894:B *374:24 0.00010018
12 *194:8 *374:24 0.000140949
13 *235:45 *374:12 0.000106777
14 *244:10 *374:24 4.35681e-06
15 *244:22 *374:12 0.00025098
16 *246:10 *374:24 8.14029e-05
17 *273:30 *374:24 5.41385e-05
18 *275:27 *374:24 0.000241282
19 *346:22 *374:12 0.000900695
20 *364:37 *374:24 8.25647e-05
21 *365:10 *374:24 0
22 *365:30 *374:24 0
23 *365:44 *374:24 0
24 *365:54 *374:24 0
*RES
1 *958:X *374:12 48.9531 
2 *374:12 *374:24 44.5532 
3 *374:24 *894:A 23 
*END

*D_NET *375 0.00155504
*CONN
*I *786:A I *D sky130_fd_sc_hd__inv_2
*I *959:X O *D sky130_fd_sc_hd__dlygate4sd3_1
*CAP
1 *786:A 0.000427569
2 *959:X 0.000113327
3 *375:10 0.000540897
4 *896:RESET_B *375:10 6.79467e-05
5 *897:RESET_B *786:A 2.8521e-05
6 *242:18 *375:10 0.000139072
7 *252:56 *375:10 2.64616e-05
8 *263:51 *786:A 5.25037e-05
9 *315:52 *786:A 0.000158745
*RES
1 *959:X *375:10 40.5271 
2 *375:10 *786:A 45.3121 
*END

*D_NET *376 0.00131975
*CONN
*I *928:D I *D sky130_fd_sc_hd__dfrtp_2
*I *960:X O *D sky130_fd_sc_hd__dlygate4sd3_1
*CAP
1 *928:D 0.000190107
2 *960:X 0.000130796
3 *376:8 0.000320903
4 *249:137 *928:D 4.67488e-05
5 *282:79 *376:8 0.000316705
6 *357:14 *376:8 0.000314495
*RES
1 *960:X *376:8 42.3707 
2 *376:8 *928:D 40.5271 
*END

*D_NET *377 0.00100977
*CONN
*I *932:D I *D sky130_fd_sc_hd__dfrtp_2
*I *961:X O *D sky130_fd_sc_hd__dlygate4sd3_1
*CAP
1 *932:D 0
2 *961:X 0.000373241
3 *377:6 0.000373241
4 *248:112 *377:6 0.000263293
*RES
1 *961:X *377:6 29.815 
2 *377:6 *932:D 23 
*END

*D_NET *378 0.0040984
*CONN
*I *893:A I *D sky130_fd_sc_hd__xor2_2
*I *962:X O *D sky130_fd_sc_hd__dlygate4sd3_1
*CAP
1 *893:A 0
2 *962:X 0
3 *378:12 0.00108422
4 *378:6 0.00108422
5 axi_rdata[29] *378:12 0
6 *817:B *378:12 2.70302e-05
7 *888:B *378:12 0
8 *938:A *378:12 7.20089e-05
9 *26:19 *378:12 0.000159906
10 *202:10 *378:12 0.000191037
11 *244:10 *378:12 0.000103637
12 *252:71 *378:12 0
13 *276:28 *378:12 0
14 *342:14 *378:12 0.00137633
*RES
1 *962:X *378:6 38 
2 *378:6 *378:12 41.4936 
3 *378:12 *893:A 23 
*END

*D_NET *379 0.00377725
*CONN
*I *892:A I *D sky130_fd_sc_hd__xor2_2
*I *963:X O *D sky130_fd_sc_hd__dlygate4sd3_1
*CAP
1 *892:A 0
2 *963:X 0.000264951
3 *379:14 0.000481954
4 *379:8 0.000746905
5 *890:B1_N *379:14 0.000130122
6 *192:12 *379:14 0.000345347
7 *193:8 *379:14 0.000361117
8 *243:12 *379:14 0.000348905
9 *243:20 *379:14 1.88823e-05
10 *249:10 *379:14 0.000217685
11 *249:49 *379:14 0.000163102
12 *249:60 *379:14 0.000212291
13 *249:95 *379:14 0.000181176
14 *364:20 *379:8 0.000304813
*RES
1 *963:X *379:8 41.48 
2 *379:8 *379:14 29.3136 
3 *379:14 *892:A 23 
*END

*D_NET *380 0.000988395
*CONN
*I *865:B1 I *D sky130_fd_sc_hd__a21oi_2
*I *964:X O *D sky130_fd_sc_hd__dlygate4sd3_1
*CAP
1 *865:B1 0.000114744
2 *964:X 0.00031737
3 *380:10 0.000432114
4 *964:A *380:10 4.2573e-05
5 *264:12 *380:10 0
6 *265:6 *380:10 5.50049e-05
7 *265:12 *380:10 0
8 *265:35 *380:10 2.65879e-05
*RES
1 *964:X *380:10 43.7379 
2 *380:10 *865:B1 40.0507 
*END

*D_NET *381 0.00154689
*CONN
*I *828:A I *D sky130_fd_sc_hd__xnor2_2
*I *965:X O *D sky130_fd_sc_hd__dlygate4sd3_1
*CAP
1 *828:A 0
2 *965:X 0.000520958
3 *381:10 0.000520958
4 *834:A1 *381:10 2.18286e-05
5 *834:A2 *381:10 7.51578e-05
6 *834:B1 *381:10 0.000188927
7 *199:8 *381:10 0.000100061
8 *207:10 *381:10 6.07611e-06
9 *208:8 *381:10 0.000112928
10 *278:44 *381:10 0
*RES
1 *965:X *381:10 48.7714 
2 *381:10 *828:A 38 
*END

*D_NET *382 0.00295261
*CONN
*I *822:A I *D sky130_fd_sc_hd__xnor2_2
*I *966:X O *D sky130_fd_sc_hd__dlygate4sd3_1
*CAP
1 *822:A 0.000350515
2 *966:X 0.000266254
3 *382:8 0.000616768
4 *926:CLK *822:A 8.73233e-05
5 *243:20 *382:8 0.000792181
6 *282:79 *822:A 4.51618e-05
7 *347:18 *382:8 0.000794403
*RES
1 *966:X *382:8 48.7093 
2 *382:8 *822:A 43.2821 
*END
