*SPEF "ieee 1481-1999"
*DESIGN "soc_top"
*DATE "08:25:18 Monday September 07, 2026"
*VENDOR "The OpenROAD Project"
*PROGRAM "OpenROAD"
*VERSION "dcf36133a369abc8f3c5e5738cd4d82e4903c0e0"
*DESIGN_FLOW "NAME_SCOPE LOCAL" "PIN_CAP NONE"
*DIVIDER /
*DELIMITER :
*BUS_DELIMITER []
*T_UNIT 1 NS
*C_UNIT 1 PF
*R_UNIT 1 OHM
*L_UNIT 1 HENRY

*NAME_MAP
*3 clk
*4 net
*5 net4
*6 net5
*7 net6
*8 net7
*9 net8
*10 net9
*11 net10
*12 net12
*13 net11
*14 rst_n
*15 uart_tx
*16 _000_
*17 _001_
*18 _002_
*19 _003_
*20 _004_
*21 _005_
*22 _006_
*23 _007_
*24 _008_
*25 _009_
*26 _010_
*27 _011_
*28 _012_
*29 _013_
*30 _014_
*31 _015_
*32 _016_
*33 _017_
*34 _018_
*35 _019_
*36 _020_
*37 _021_
*38 _022_
*39 _023_
*40 _024_
*41 _025_
*42 _026_
*43 _027_
*44 _028_
*45 _029_
*46 _030_
*47 _031_
*48 _032_
*49 _033_
*50 _034_
*51 _035_
*52 _036_
*53 _037_
*54 _038_
*55 _039_
*56 _040_
*57 _041_
*58 _042_
*59 _043_
*60 _044_
*61 _045_
*62 _046_
*63 _047_
*64 _048_
*65 _049_
*66 _050_
*67 _051_
*68 _052_
*69 _053_
*70 _054_
*71 _055_
*72 _056_
*73 _057_
*74 _058_
*75 _059_
*76 _060_
*77 _061_
*78 _062_
*79 _063_
*80 _064_
*81 _065_
*82 _066_
*83 clknet_0_clk
*84 clknet_1_0__leaf_clk
*85 clknet_1_1__leaf_clk
*86 net1
*87 net13
*88 net2
*89 net3
*90 u_uart\.bit_idx\[0\]
*91 u_uart\.bit_idx\[1\]
*92 u_uart\.bit_idx\[2\]
*93 u_uart\.clk_cnt\[0\]
*94 u_uart\.clk_cnt\[10\]
*95 u_uart\.clk_cnt\[11\]
*96 u_uart\.clk_cnt\[12\]
*97 u_uart\.clk_cnt\[13\]
*98 u_uart\.clk_cnt\[14\]
*99 u_uart\.clk_cnt\[15\]
*100 u_uart\.clk_cnt\[1\]
*101 u_uart\.clk_cnt\[2\]
*102 u_uart\.clk_cnt\[3\]
*103 u_uart\.clk_cnt\[4\]
*104 u_uart\.clk_cnt\[5\]
*105 u_uart\.clk_cnt\[6\]
*106 u_uart\.clk_cnt\[7\]
*107 u_uart\.clk_cnt\[8\]
*108 u_uart\.clk_cnt\[9\]
*109 u_uart\.state\[0\]
*110 u_uart\.state\[1\]
*111 u_uart\.state\[2\]
*112 u_uart\.state\[3\]
*113 FILLER_0_100
*114 FILLER_0_103
*115 FILLER_0_106
*116 FILLER_0_109
*117 FILLER_0_113
*118 FILLER_0_116
*119 FILLER_0_119
*120 FILLER_0_12
*121 FILLER_0_125
*122 FILLER_0_128
*123 FILLER_0_18
*124 FILLER_0_21
*125 FILLER_0_24
*126 FILLER_0_27
*127 FILLER_0_29
*128 FILLER_0_32
*129 FILLER_0_35
*130 FILLER_0_38
*131 FILLER_0_41
*132 FILLER_0_44
*133 FILLER_0_47
*134 FILLER_0_50
*135 FILLER_0_53
*136 FILLER_0_57
*137 FILLER_0_6
*138 FILLER_0_60
*139 FILLER_0_63
*140 FILLER_0_66
*141 FILLER_0_72
*142 FILLER_0_75
*143 FILLER_0_78
*144 FILLER_0_81
*145 FILLER_0_85
*146 FILLER_0_88
*147 FILLER_0_9
*148 FILLER_0_91
*149 FILLER_0_94
*150 FILLER_0_97
*151 FILLER_10_102
*152 FILLER_10_105
*153 FILLER_10_108
*154 FILLER_10_19
*155 FILLER_10_22
*156 FILLER_10_25
*157 FILLER_10_29
*158 FILLER_10_3
*159 FILLER_10_32
*160 FILLER_10_35
*161 FILLER_10_38
*162 FILLER_10_41
*163 FILLER_10_44
*164 FILLER_10_47
*165 FILLER_10_50
*166 FILLER_10_53
*167 FILLER_10_56
*168 FILLER_10_59
*169 FILLER_10_62
*170 FILLER_10_65
*171 FILLER_10_68
*172 FILLER_10_71
*173 FILLER_10_74
*174 FILLER_10_77
*175 FILLER_10_80
*176 FILLER_10_83
*177 FILLER_10_90
*178 FILLER_10_93
*179 FILLER_10_96
*180 FILLER_10_99
*181 FILLER_11_100
*182 FILLER_11_103
*183 FILLER_11_106
*184 FILLER_11_109
*185 FILLER_11_113
*186 FILLER_11_116
*187 FILLER_11_119
*188 FILLER_11_130
*189 FILLER_11_133
*190 FILLER_11_136
*191 FILLER_11_29
*192 FILLER_11_3
*193 FILLER_11_38
*194 FILLER_11_41
*195 FILLER_11_44
*196 FILLER_11_47
*197 FILLER_11_50
*198 FILLER_11_53
*199 FILLER_11_57
*200 FILLER_11_6
*201 FILLER_11_60
*202 FILLER_11_82
*203 FILLER_11_85
*204 FILLER_11_88
*205 FILLER_11_91
*206 FILLER_11_94
*207 FILLER_11_97
*208 FILLER_12_100
*209 FILLER_12_103
*210 FILLER_12_106
*211 FILLER_12_109
*212 FILLER_12_112
*213 FILLER_12_115
*214 FILLER_12_118
*215 FILLER_12_12
*216 FILLER_12_121
*217 FILLER_12_124
*218 FILLER_12_127
*219 FILLER_12_130
*220 FILLER_12_133
*221 FILLER_12_15
*222 FILLER_12_18
*223 FILLER_12_21
*224 FILLER_12_24
*225 FILLER_12_27
*226 FILLER_12_3
*227 FILLER_12_37
*228 FILLER_12_40
*229 FILLER_12_43
*230 FILLER_12_46
*231 FILLER_12_49
*232 FILLER_12_57
*233 FILLER_12_6
*234 FILLER_12_60
*235 FILLER_12_63
*236 FILLER_12_66
*237 FILLER_12_69
*238 FILLER_12_80
*239 FILLER_12_83
*240 FILLER_12_85
*241 FILLER_12_88
*242 FILLER_12_9
*243 FILLER_12_91
*244 FILLER_12_94
*245 FILLER_12_97
*246 FILLER_13_108
*247 FILLER_13_111
*248 FILLER_13_12
*249 FILLER_13_126
*250 FILLER_13_129
*251 FILLER_13_132
*252 FILLER_13_135
*253 FILLER_13_3
*254 FILLER_13_36
*255 FILLER_13_39
*256 FILLER_13_42
*257 FILLER_13_45
*258 FILLER_13_48
*259 FILLER_13_6
*260 FILLER_13_86
*261 FILLER_13_89
*262 FILLER_13_9
*263 FILLER_13_92
*264 FILLER_13_95
*265 FILLER_13_98
*266 FILLER_14_106
*267 FILLER_14_114
*268 FILLER_14_12
*269 FILLER_14_15
*270 FILLER_14_18
*271 FILLER_14_27
*272 FILLER_14_3
*273 FILLER_14_36
*274 FILLER_14_39
*275 FILLER_14_42
*276 FILLER_14_45
*277 FILLER_14_48
*278 FILLER_14_6
*279 FILLER_14_78
*280 FILLER_14_81
*281 FILLER_14_9
*282 FILLER_15_110
*283 FILLER_15_119
*284 FILLER_15_12
*285 FILLER_15_122
*286 FILLER_15_125
*287 FILLER_15_128
*288 FILLER_15_131
*289 FILLER_15_134
*290 FILLER_15_15
*291 FILLER_15_18
*292 FILLER_15_21
*293 FILLER_15_24
*294 FILLER_15_27
*295 FILLER_15_3
*296 FILLER_15_30
*297 FILLER_15_33
*298 FILLER_15_36
*299 FILLER_15_39
*300 FILLER_15_42
*301 FILLER_15_45
*302 FILLER_15_48
*303 FILLER_15_51
*304 FILLER_15_54
*305 FILLER_15_57
*306 FILLER_15_6
*307 FILLER_15_87
*308 FILLER_15_9
*309 FILLER_15_90
*310 FILLER_15_93
*311 FILLER_15_96
*312 FILLER_15_99
*313 FILLER_16_100
*314 FILLER_16_103
*315 FILLER_16_112
*316 FILLER_16_115
*317 FILLER_16_118
*318 FILLER_16_12
*319 FILLER_16_121
*320 FILLER_16_124
*321 FILLER_16_127
*322 FILLER_16_130
*323 FILLER_16_133
*324 FILLER_16_136
*325 FILLER_16_15
*326 FILLER_16_18
*327 FILLER_16_21
*328 FILLER_16_24
*329 FILLER_16_27
*330 FILLER_16_42
*331 FILLER_16_45
*332 FILLER_16_48
*333 FILLER_16_51
*334 FILLER_16_54
*335 FILLER_16_57
*336 FILLER_16_6
*337 FILLER_16_60
*338 FILLER_16_63
*339 FILLER_16_66
*340 FILLER_16_69
*341 FILLER_16_72
*342 FILLER_16_75
*343 FILLER_16_78
*344 FILLER_16_81
*345 FILLER_16_85
*346 FILLER_16_88
*347 FILLER_16_9
*348 FILLER_16_91
*349 FILLER_16_94
*350 FILLER_16_97
*351 FILLER_17_102
*352 FILLER_17_105
*353 FILLER_17_108
*354 FILLER_17_111
*355 FILLER_17_113
*356 FILLER_17_116
*357 FILLER_17_119
*358 FILLER_17_12
*359 FILLER_17_122
*360 FILLER_17_125
*361 FILLER_17_128
*362 FILLER_17_131
*363 FILLER_17_134
*364 FILLER_17_15
*365 FILLER_17_18
*366 FILLER_17_21
*367 FILLER_17_24
*368 FILLER_17_27
*369 FILLER_17_3
*370 FILLER_17_49
*371 FILLER_17_52
*372 FILLER_17_55
*373 FILLER_17_57
*374 FILLER_17_6
*375 FILLER_17_60
*376 FILLER_17_63
*377 FILLER_17_66
*378 FILLER_17_69
*379 FILLER_17_72
*380 FILLER_17_75
*381 FILLER_17_78
*382 FILLER_17_81
*383 FILLER_17_84
*384 FILLER_17_87
*385 FILLER_17_9
*386 FILLER_17_90
*387 FILLER_17_93
*388 FILLER_17_96
*389 FILLER_17_99
*390 FILLER_18_100
*391 FILLER_18_103
*392 FILLER_18_12
*393 FILLER_18_120
*394 FILLER_18_123
*395 FILLER_18_126
*396 FILLER_18_129
*397 FILLER_18_132
*398 FILLER_18_135
*399 FILLER_18_15
*400 FILLER_18_18
*401 FILLER_18_21
*402 FILLER_18_24
*403 FILLER_18_27
*404 FILLER_18_29
*405 FILLER_18_3
*406 FILLER_18_32
*407 FILLER_18_35
*408 FILLER_18_38
*409 FILLER_18_41
*410 FILLER_18_44
*411 FILLER_18_47
*412 FILLER_18_6
*413 FILLER_18_67
*414 FILLER_18_70
*415 FILLER_18_73
*416 FILLER_18_76
*417 FILLER_18_85
*418 FILLER_18_9
*419 FILLER_18_91
*420 FILLER_18_94
*421 FILLER_18_97
*422 FILLER_19_105
*423 FILLER_19_108
*424 FILLER_19_111
*425 FILLER_19_113
*426 FILLER_19_12
*427 FILLER_19_15
*428 FILLER_19_18
*429 FILLER_19_21
*430 FILLER_19_24
*431 FILLER_19_27
*432 FILLER_19_3
*433 FILLER_19_30
*434 FILLER_19_33
*435 FILLER_19_36
*436 FILLER_19_39
*437 FILLER_19_42
*438 FILLER_19_45
*439 FILLER_19_48
*440 FILLER_19_57
*441 FILLER_19_6
*442 FILLER_19_80
*443 FILLER_19_9
*444 FILLER_19_90
*445 FILLER_1_101
*446 FILLER_1_104
*447 FILLER_1_107
*448 FILLER_1_110
*449 FILLER_1_113
*450 FILLER_1_12
*451 FILLER_1_15
*452 FILLER_1_18
*453 FILLER_1_21
*454 FILLER_1_3
*455 FILLER_1_44
*456 FILLER_1_47
*457 FILLER_1_57
*458 FILLER_1_6
*459 FILLER_1_60
*460 FILLER_1_63
*461 FILLER_1_66
*462 FILLER_1_69
*463 FILLER_1_72
*464 FILLER_1_9
*465 FILLER_1_95
*466 FILLER_1_98
*467 FILLER_20_12
*468 FILLER_20_127
*469 FILLER_20_130
*470 FILLER_20_133
*471 FILLER_20_136
*472 FILLER_20_15
*473 FILLER_20_18
*474 FILLER_20_21
*475 FILLER_20_24
*476 FILLER_20_27
*477 FILLER_20_29
*478 FILLER_20_3
*479 FILLER_20_32
*480 FILLER_20_35
*481 FILLER_20_38
*482 FILLER_20_41
*483 FILLER_20_44
*484 FILLER_20_47
*485 FILLER_20_6
*486 FILLER_20_71
*487 FILLER_20_74
*488 FILLER_20_77
*489 FILLER_20_80
*490 FILLER_20_83
*491 FILLER_20_9
*492 FILLER_21_102
*493 FILLER_21_105
*494 FILLER_21_108
*495 FILLER_21_111
*496 FILLER_21_113
*497 FILLER_21_116
*498 FILLER_21_119
*499 FILLER_21_12
*500 FILLER_21_122
*501 FILLER_21_125
*502 FILLER_21_128
*503 FILLER_21_131
*504 FILLER_21_134
*505 FILLER_21_15
*506 FILLER_21_18
*507 FILLER_21_21
*508 FILLER_21_24
*509 FILLER_21_27
*510 FILLER_21_3
*511 FILLER_21_30
*512 FILLER_21_33
*513 FILLER_21_36
*514 FILLER_21_39
*515 FILLER_21_42
*516 FILLER_21_45
*517 FILLER_21_48
*518 FILLER_21_51
*519 FILLER_21_54
*520 FILLER_21_57
*521 FILLER_21_6
*522 FILLER_21_60
*523 FILLER_21_63
*524 FILLER_21_66
*525 FILLER_21_69
*526 FILLER_21_72
*527 FILLER_21_75
*528 FILLER_21_78
*529 FILLER_21_81
*530 FILLER_21_84
*531 FILLER_21_87
*532 FILLER_21_9
*533 FILLER_21_90
*534 FILLER_21_93
*535 FILLER_21_96
*536 FILLER_21_99
*537 FILLER_22_100
*538 FILLER_22_103
*539 FILLER_22_106
*540 FILLER_22_109
*541 FILLER_22_113
*542 FILLER_22_116
*543 FILLER_22_119
*544 FILLER_22_12
*545 FILLER_22_125
*546 FILLER_22_128
*547 FILLER_22_131
*548 FILLER_22_15
*549 FILLER_22_18
*550 FILLER_22_21
*551 FILLER_22_24
*552 FILLER_22_27
*553 FILLER_22_29
*554 FILLER_22_32
*555 FILLER_22_35
*556 FILLER_22_38
*557 FILLER_22_41
*558 FILLER_22_44
*559 FILLER_22_47
*560 FILLER_22_50
*561 FILLER_22_53
*562 FILLER_22_57
*563 FILLER_22_6
*564 FILLER_22_60
*565 FILLER_22_63
*566 FILLER_22_66
*567 FILLER_22_72
*568 FILLER_22_75
*569 FILLER_22_78
*570 FILLER_22_81
*571 FILLER_22_85
*572 FILLER_22_88
*573 FILLER_22_9
*574 FILLER_22_91
*575 FILLER_22_94
*576 FILLER_22_97
*577 FILLER_2_100
*578 FILLER_2_128
*579 FILLER_2_131
*580 FILLER_2_134
*581 FILLER_2_29
*582 FILLER_2_3
*583 FILLER_2_32
*584 FILLER_2_35
*585 FILLER_2_38
*586 FILLER_2_41
*587 FILLER_2_6
*588 FILLER_2_64
*589 FILLER_2_67
*590 FILLER_2_70
*591 FILLER_2_73
*592 FILLER_2_85
*593 FILLER_2_88
*594 FILLER_3_100
*595 FILLER_3_103
*596 FILLER_3_106
*597 FILLER_3_109
*598 FILLER_3_113
*599 FILLER_3_116
*600 FILLER_3_119
*601 FILLER_3_122
*602 FILLER_3_125
*603 FILLER_3_128
*604 FILLER_3_131
*605 FILLER_3_134
*606 FILLER_3_23
*607 FILLER_3_26
*608 FILLER_3_29
*609 FILLER_3_3
*610 FILLER_3_32
*611 FILLER_3_35
*612 FILLER_3_38
*613 FILLER_3_41
*614 FILLER_3_44
*615 FILLER_3_57
*616 FILLER_3_6
*617 FILLER_3_60
*618 FILLER_3_63
*619 FILLER_3_66
*620 FILLER_3_69
*621 FILLER_3_72
*622 FILLER_3_75
*623 FILLER_3_78
*624 FILLER_3_9
*625 FILLER_4_102
*626 FILLER_4_105
*627 FILLER_4_108
*628 FILLER_4_111
*629 FILLER_4_12
*630 FILLER_4_122
*631 FILLER_4_125
*632 FILLER_4_128
*633 FILLER_4_131
*634 FILLER_4_134
*635 FILLER_4_18
*636 FILLER_4_21
*637 FILLER_4_29
*638 FILLER_4_3
*639 FILLER_4_32
*640 FILLER_4_35
*641 FILLER_4_38
*642 FILLER_4_41
*643 FILLER_4_44
*644 FILLER_4_47
*645 FILLER_4_50
*646 FILLER_4_53
*647 FILLER_4_56
*648 FILLER_4_59
*649 FILLER_4_6
*650 FILLER_4_62
*651 FILLER_4_65
*652 FILLER_4_68
*653 FILLER_4_71
*654 FILLER_4_74
*655 FILLER_4_77
*656 FILLER_4_80
*657 FILLER_4_9
*658 FILLER_4_93
*659 FILLER_4_96
*660 FILLER_4_99
*661 FILLER_5_100
*662 FILLER_5_103
*663 FILLER_5_106
*664 FILLER_5_109
*665 FILLER_5_113
*666 FILLER_5_12
*667 FILLER_5_136
*668 FILLER_5_15
*669 FILLER_5_18
*670 FILLER_5_3
*671 FILLER_5_33
*672 FILLER_5_38
*673 FILLER_5_41
*674 FILLER_5_44
*675 FILLER_5_47
*676 FILLER_5_6
*677 FILLER_5_66
*678 FILLER_5_69
*679 FILLER_5_72
*680 FILLER_5_75
*681 FILLER_5_78
*682 FILLER_5_81
*683 FILLER_5_84
*684 FILLER_5_87
*685 FILLER_5_9
*686 FILLER_5_94
*687 FILLER_5_97
*688 FILLER_6_102
*689 FILLER_6_105
*690 FILLER_6_108
*691 FILLER_6_111
*692 FILLER_6_12
*693 FILLER_6_120
*694 FILLER_6_123
*695 FILLER_6_126
*696 FILLER_6_129
*697 FILLER_6_132
*698 FILLER_6_135
*699 FILLER_6_15
*700 FILLER_6_22
*701 FILLER_6_25
*702 FILLER_6_29
*703 FILLER_6_3
*704 FILLER_6_32
*705 FILLER_6_35
*706 FILLER_6_38
*707 FILLER_6_41
*708 FILLER_6_44
*709 FILLER_6_47
*710 FILLER_6_58
*711 FILLER_6_6
*712 FILLER_6_61
*713 FILLER_6_64
*714 FILLER_6_67
*715 FILLER_6_70
*716 FILLER_6_73
*717 FILLER_6_76
*718 FILLER_6_85
*719 FILLER_6_88
*720 FILLER_6_9
*721 FILLER_6_93
*722 FILLER_6_96
*723 FILLER_6_99
*724 FILLER_7_102
*725 FILLER_7_105
*726 FILLER_7_108
*727 FILLER_7_111
*728 FILLER_7_113
*729 FILLER_7_116
*730 FILLER_7_119
*731 FILLER_7_12
*732 FILLER_7_122
*733 FILLER_7_125
*734 FILLER_7_128
*735 FILLER_7_131
*736 FILLER_7_134
*737 FILLER_7_15
*738 FILLER_7_18
*739 FILLER_7_21
*740 FILLER_7_24
*741 FILLER_7_27
*742 FILLER_7_3
*743 FILLER_7_30
*744 FILLER_7_33
*745 FILLER_7_36
*746 FILLER_7_39
*747 FILLER_7_42
*748 FILLER_7_45
*749 FILLER_7_6
*750 FILLER_7_62
*751 FILLER_7_65
*752 FILLER_7_68
*753 FILLER_7_9
*754 FILLER_7_96
*755 FILLER_7_99
*756 FILLER_8_101
*757 FILLER_8_104
*758 FILLER_8_107
*759 FILLER_8_110
*760 FILLER_8_12
*761 FILLER_8_124
*762 FILLER_8_127
*763 FILLER_8_130
*764 FILLER_8_133
*765 FILLER_8_136
*766 FILLER_8_15
*767 FILLER_8_24
*768 FILLER_8_27
*769 FILLER_8_34
*770 FILLER_8_37
*771 FILLER_8_40
*772 FILLER_8_43
*773 FILLER_8_6
*774 FILLER_8_67
*775 FILLER_8_70
*776 FILLER_8_73
*777 FILLER_8_76
*778 FILLER_8_79
*779 FILLER_8_82
*780 FILLER_8_85
*781 FILLER_8_9
*782 FILLER_8_95
*783 FILLER_8_98
*784 FILLER_9_102
*785 FILLER_9_134
*786 FILLER_9_3
*787 FILLER_9_39
*788 FILLER_9_42
*789 FILLER_9_45
*790 FILLER_9_48
*791 FILLER_9_6
*792 FILLER_9_60
*793 FILLER_9_63
*794 FILLER_9_66
*795 FILLER_9_69
*796 FILLER_9_72
*797 FILLER_9_75
*798 FILLER_9_9
*799 FILLER_9_99
*800 PHY_EDGE_ROW_0_Left_23
*801 PHY_EDGE_ROW_0_Right_0
*802 PHY_EDGE_ROW_10_Left_33
*803 PHY_EDGE_ROW_10_Right_10
*804 PHY_EDGE_ROW_11_Left_34
*805 PHY_EDGE_ROW_11_Right_11
*806 PHY_EDGE_ROW_12_Left_35
*807 PHY_EDGE_ROW_12_Right_12
*808 PHY_EDGE_ROW_13_Left_36
*809 PHY_EDGE_ROW_13_Right_13
*810 PHY_EDGE_ROW_14_Left_37
*811 PHY_EDGE_ROW_14_Right_14
*812 PHY_EDGE_ROW_15_Left_38
*813 PHY_EDGE_ROW_15_Right_15
*814 PHY_EDGE_ROW_16_Left_39
*815 PHY_EDGE_ROW_16_Right_16
*816 PHY_EDGE_ROW_17_Left_40
*817 PHY_EDGE_ROW_17_Right_17
*818 PHY_EDGE_ROW_18_Left_41
*819 PHY_EDGE_ROW_18_Right_18
*820 PHY_EDGE_ROW_19_Left_42
*821 PHY_EDGE_ROW_19_Right_19
*822 PHY_EDGE_ROW_1_Left_24
*823 PHY_EDGE_ROW_1_Right_1
*824 PHY_EDGE_ROW_20_Left_43
*825 PHY_EDGE_ROW_20_Right_20
*826 PHY_EDGE_ROW_21_Left_44
*827 PHY_EDGE_ROW_21_Right_21
*828 PHY_EDGE_ROW_22_Left_45
*829 PHY_EDGE_ROW_22_Right_22
*830 PHY_EDGE_ROW_2_Left_25
*831 PHY_EDGE_ROW_2_Right_2
*832 PHY_EDGE_ROW_3_Left_26
*833 PHY_EDGE_ROW_3_Right_3
*834 PHY_EDGE_ROW_4_Left_27
*835 PHY_EDGE_ROW_4_Right_4
*836 PHY_EDGE_ROW_5_Left_28
*837 PHY_EDGE_ROW_5_Right_5
*838 PHY_EDGE_ROW_6_Left_29
*839 PHY_EDGE_ROW_6_Right_6
*840 PHY_EDGE_ROW_7_Left_30
*841 PHY_EDGE_ROW_7_Right_7
*842 PHY_EDGE_ROW_8_Left_31
*843 PHY_EDGE_ROW_8_Right_8
*844 PHY_EDGE_ROW_9_Left_32
*845 PHY_EDGE_ROW_9_Right_9
*846 TAP_TAPCELL_ROW_0_46
*847 TAP_TAPCELL_ROW_0_47
*848 TAP_TAPCELL_ROW_0_48
*849 TAP_TAPCELL_ROW_0_49
*850 TAP_TAPCELL_ROW_10_68
*851 TAP_TAPCELL_ROW_10_69
*852 TAP_TAPCELL_ROW_11_70
*853 TAP_TAPCELL_ROW_11_71
*854 TAP_TAPCELL_ROW_12_72
*855 TAP_TAPCELL_ROW_12_73
*856 TAP_TAPCELL_ROW_13_74
*857 TAP_TAPCELL_ROW_13_75
*858 TAP_TAPCELL_ROW_14_76
*859 TAP_TAPCELL_ROW_14_77
*860 TAP_TAPCELL_ROW_15_78
*861 TAP_TAPCELL_ROW_15_79
*862 TAP_TAPCELL_ROW_16_80
*863 TAP_TAPCELL_ROW_16_81
*864 TAP_TAPCELL_ROW_17_82
*865 TAP_TAPCELL_ROW_17_83
*866 TAP_TAPCELL_ROW_18_84
*867 TAP_TAPCELL_ROW_18_85
*868 TAP_TAPCELL_ROW_19_86
*869 TAP_TAPCELL_ROW_19_87
*870 TAP_TAPCELL_ROW_1_50
*871 TAP_TAPCELL_ROW_1_51
*872 TAP_TAPCELL_ROW_20_88
*873 TAP_TAPCELL_ROW_20_89
*874 TAP_TAPCELL_ROW_21_90
*875 TAP_TAPCELL_ROW_21_91
*876 TAP_TAPCELL_ROW_22_92
*877 TAP_TAPCELL_ROW_22_93
*878 TAP_TAPCELL_ROW_22_94
*879 TAP_TAPCELL_ROW_22_95
*880 TAP_TAPCELL_ROW_2_52
*881 TAP_TAPCELL_ROW_2_53
*882 TAP_TAPCELL_ROW_3_54
*883 TAP_TAPCELL_ROW_3_55
*884 TAP_TAPCELL_ROW_4_56
*885 TAP_TAPCELL_ROW_4_57
*886 TAP_TAPCELL_ROW_5_58
*887 TAP_TAPCELL_ROW_5_59
*888 TAP_TAPCELL_ROW_6_60
*889 TAP_TAPCELL_ROW_6_61
*890 TAP_TAPCELL_ROW_7_62
*891 TAP_TAPCELL_ROW_7_63
*892 TAP_TAPCELL_ROW_8_64
*893 TAP_TAPCELL_ROW_8_65
*894 TAP_TAPCELL_ROW_9_66
*895 TAP_TAPCELL_ROW_9_67
*896 _067_
*897 _068_
*898 _069_
*899 _070_
*900 _071_
*901 _072_
*902 _073_
*903 _074_
*904 _075_
*905 _076_
*906 _077_
*907 _078_
*908 _079_
*909 _080_
*910 _081_
*911 _082_
*912 _083_
*913 _084_
*914 _085_
*915 _086_
*916 _087_
*917 _088_
*918 _089_
*919 _090_
*920 _091_
*921 _092_
*922 _093_
*923 _094_
*924 _095_
*925 _096_
*926 _097_
*927 _098_
*928 _099_
*929 _100_
*930 _101_
*931 _102_
*932 _103_
*933 _104_
*934 _105_
*935 _106_
*936 _107_
*937 _108_
*938 _109_
*939 _110_
*940 _111_
*941 _112_
*942 _113_
*943 _114_
*944 _115_
*945 _116_
*946 _117_
*947 _118_
*948 _119_
*949 _120_
*950 _121_
*951 _122_
*952 _123_
*953 _124_
*954 _125_
*955 _126_
*956 _127_
*957 _128_
*958 _129_
*959 _130_
*960 _131_
*961 _132_
*962 _133_
*963 _134_
*964 _135_
*965 _136_
*966 _137_
*967 _138_
*968 _139_
*969 _140_
*970 _141_
*971 _142_
*972 _143_
*973 _144_
*974 _145_
*975 _146_
*976 _147_
*977 _148_
*978 _149_
*979 _150_
*980 _151_
*981 _152_
*982 _153_
*983 _154_
*984 _155_
*985 _156_
*986 _157_
*987 clkbuf_0_clk
*988 clkbuf_1_0__f_clk
*989 clkbuf_1_1__f_clk
*990 clkload0
*991 hold13
*992 input1
*993 max_cap3
*994 output2
*995 soc_top
*996 soc_top_10
*997 soc_top_11
*998 soc_top_12
*999 soc_top_4
*1000 soc_top_5
*1001 soc_top_6
*1002 soc_top_7
*1003 soc_top_8
*1004 soc_top_9

*PORTS
clk I
led[0] O
led[1] O
led[2] O
led[3] O
led[4] O
led[5] O
led[6] O
led[7] O
mbox_c0_to_c1_flag O
mbox_c1_to_c0_flag O
rst_n I
uart_tx O

*D_NET *3 0.00635499
*CONN
*P clk I
*I *987:A I *D sky130_fd_sc_hd__clkbuf_16
*CAP
1 clk 0.00281251
2 *987:A 5.49425e-05
3 *3:14 0.00286745
4 *987:A *905:C 7.10902e-05
5 *3:14 *903:C 0
6 *3:14 *903:D_N 0
7 *3:14 *905:C 0.000495568
8 *3:14 *934:B 3.10226e-05
9 *3:14 *969:D 0
10 *3:14 *969:RESET_B 0
11 *3:14 *73:35 2.24049e-05
*RES
1 clk *3:14 43.4588 
2 *3:14 *987:A 2.83 
*END

*D_NET *4 0.00118517
*CONN
*P led[0] O
*I *995:LO O *D sky130_fd_sc_hd__conb_1
*CAP
1 led[0] 0.000592585
2 *995:LO 0.000592585
*RES
1 *995:LO led[0] 14.096 
*END

*D_NET *5 0.00116754
*CONN
*P led[1] O
*I *999:LO O *D sky130_fd_sc_hd__conb_1
*CAP
1 led[1] 0.00058377
2 *999:LO 0.00058377
*RES
1 *999:LO led[1] 14.0706 
*END

*D_NET *6 0.00107279
*CONN
*P led[2] O
*I *1000:LO O *D sky130_fd_sc_hd__conb_1
*CAP
1 led[2] 0.000536393
2 *1000:LO 0.000536393
*RES
1 *1000:LO led[2] 13.076 
*END

*D_NET *7 0.00105516
*CONN
*P led[3] O
*I *1001:LO O *D sky130_fd_sc_hd__conb_1
*CAP
1 led[3] 0.000527578
2 *1001:LO 0.000527578
3 led[3] *994:A 0
*RES
1 *1001:LO led[3] 13.0506 
*END

*D_NET *8 0.000832783
*CONN
*P led[4] O
*I *1002:LO O *D sky130_fd_sc_hd__conb_1
*CAP
1 led[4] 0.000416391
2 *1002:LO 0.000416391
*RES
1 *1002:LO led[4] 10.6575 
*END

*D_NET *9 0.000735852
*CONN
*P led[5] O
*I *1003:LO O *D sky130_fd_sc_hd__conb_1
*CAP
1 led[5] 0.000367926
2 *1003:LO 0.000367926
*RES
1 *1003:LO led[5] 9.7725 
*END

*D_NET *10 0.00079878
*CONN
*P led[6] O
*I *1004:LO O *D sky130_fd_sc_hd__conb_1
*CAP
1 led[6] 0.00039939
2 *1004:LO 0.00039939
*RES
1 *1004:LO led[6] 10.755 
*END

*D_NET *11 0.000764036
*CONN
*P led[7] O
*I *996:LO O *D sky130_fd_sc_hd__conb_1
*CAP
1 led[7] 0.000382018
2 *996:LO 0.000382018
*RES
1 *996:LO led[7] 9.9825 
*END

*D_NET *12 0.000779892
*CONN
*P mbox_c0_to_c1_flag O
*I *998:LO O *D sky130_fd_sc_hd__conb_1
*CAP
1 mbox_c0_to_c1_flag 0.000389946
2 *998:LO 0.000389946
*RES
1 *998:LO mbox_c0_to_c1_flag 10.08 
*END

*D_NET *13 0.000941658
*CONN
*P mbox_c1_to_c0_flag O
*I *997:LO O *D sky130_fd_sc_hd__conb_1
*CAP
1 mbox_c1_to_c0_flag 0.000470829
2 *997:LO 0.000470829
*RES
1 *997:LO mbox_c1_to_c0_flag 10.9875 
*END

*D_NET *14 0.00114317
*CONN
*P rst_n I
*I *992:A I *D sky130_fd_sc_hd__buf_1
*CAP
1 rst_n 0.000571584
2 *992:A 0.000571584
*RES
1 rst_n *992:A 13.5209 
*END

*D_NET *15 0.000881921
*CONN
*P uart_tx O
*I *994:X O *D sky130_fd_sc_hd__clkdlybuf4s25_1
*CAP
1 uart_tx 0.00044096
2 *994:X 0.00044096
*RES
1 *994:X uart_tx 10.5375 
*END

*D_NET *16 0.000302358
*CONN
*I *984:D I *D sky130_fd_sc_hd__dfrtp_2
*I *906:X O *D sky130_fd_sc_hd__and2_2
*CAP
1 *984:D 0.000103997
2 *906:X 0.000103997
3 *984:D *906:A 2.35156e-05
4 *984:D *984:CLK 7.08493e-05
*RES
1 *906:X *984:D 5.03 
*END

*D_NET *17 0.000485719
*CONN
*I *982:D I *D sky130_fd_sc_hd__dfstp_2
*I *913:Y O *D sky130_fd_sc_hd__a21boi_2
*CAP
1 *982:D 0.000144651
2 *913:Y 0.000144651
3 *982:D *982:CLK 0.000112907
4 *982:D *982:SET_B 8.35106e-05
*RES
1 *913:Y *982:D 9.63 
*END

*D_NET *18 0.000474873
*CONN
*I *983:D I *D sky130_fd_sc_hd__dfrtp_2
*I *911:Y O *D sky130_fd_sc_hd__o21ai_2
*CAP
1 *983:D 0.000145438
2 *911:Y 0.000145438
3 *983:D *911:A1 5.78873e-05
4 *983:D *911:A2 0
5 *983:D *911:B1 0.000112783
6 *983:D *110:12 1.33269e-05
*RES
1 *911:Y *983:D 9.99 
*END

*D_NET *19 0.000614571
*CONN
*I *985:D I *D sky130_fd_sc_hd__dfrtp_2
*I *909:X O *D sky130_fd_sc_hd__a21bo_2
*CAP
1 *985:D 0.000165389
2 *909:X 0.000165389
3 *985:D *920:A 8.52883e-05
4 *985:D *51:6 4.75991e-05
5 *985:D *84:10 6.06382e-05
6 *985:D *84:69 1.52418e-05
7 *985:D *109:27 7.50252e-05
*RES
1 *909:X *985:D 10.515 
*END

*D_NET *20 0.000354965
*CONN
*I *963:D I *D sky130_fd_sc_hd__dfrtp_2
*I *917:Y O *D sky130_fd_sc_hd__nor2_2
*CAP
1 *963:D 8.72958e-05
2 *917:Y 8.72958e-05
3 *963:D *917:B 0.000180373
*RES
1 *917:Y *963:D 9.345 
*END

*D_NET *21 0.000470234
*CONN
*I *964:D I *D sky130_fd_sc_hd__dfrtp_2
*I *923:X O *D sky130_fd_sc_hd__and3_2
*CAP
1 *964:D 0.000195335
2 *923:X 0.000195335
3 *964:D *923:B 8.7152e-06
4 *964:D *964:CLK 7.08493e-05
*RES
1 *923:X *964:D 10.23 
*END

*D_NET *22 0.000827404
*CONN
*I *965:D I *D sky130_fd_sc_hd__dfrtp_2
*I *925:Y O *D sky130_fd_sc_hd__xnor2_2
*CAP
1 *965:D 0.000205814
2 *925:Y 0.000205814
3 *965:D *925:B 0.00016031
4 *965:D *86:88 0.000164686
5 *965:D *101:25 9.07793e-05
*RES
1 *925:Y *965:D 11.955 
*END

*D_NET *23 0.00033227
*CONN
*I *966:D I *D sky130_fd_sc_hd__dfrtp_2
*I *927:X O *D sky130_fd_sc_hd__o22a_2
*CAP
1 *966:D 0.000166135
2 *927:X 0.000166135
*RES
1 *927:X *966:D 9.375 
*END

*D_NET *24 0.000792371
*CONN
*I *967:D I *D sky130_fd_sc_hd__dfrtp_2
*I *930:X O *D sky130_fd_sc_hd__and3_2
*CAP
1 *967:D 0.000247068
2 *930:X 0.000247068
3 *967:D *967:CLK 5.79602e-05
4 *967:D *100:10 0.000240274
*RES
1 *930:X *967:D 12.405 
*END

*D_NET *25 0.000468751
*CONN
*I *968:D I *D sky130_fd_sc_hd__dfrtp_2
*I *933:Y O *D sky130_fd_sc_hd__a211oi_2
*CAP
1 *968:D 0.000196484
2 *933:Y 0.000196484
3 *968:D *933:A1 4.89295e-05
4 *968:D *84:112 2.68526e-05
*RES
1 *933:Y *968:D 10.17 
*END

*D_NET *26 0.000610126
*CONN
*I *969:D I *D sky130_fd_sc_hd__dfrtp_2
*I *934:X O *D sky130_fd_sc_hd__xor2_2
*CAP
1 *969:D 0.000305063
2 *934:X 0.000305063
3 *969:D *77:24 0
4 *3:14 *969:D 0
*RES
1 *934:X *969:D 11.88 
*END

*D_NET *27 0.000424817
*CONN
*I *970:D I *D sky130_fd_sc_hd__dfrtp_2
*I *937:X O *D sky130_fd_sc_hd__and3_2
*CAP
1 *970:D 0.000178115
2 *937:X 0.000178115
3 *970:D *937:C 2.99731e-05
4 *970:D *85:30 3.86126e-05
*RES
1 *937:X *970:D 9.915 
*END

*D_NET *28 0.000601457
*CONN
*I *971:D I *D sky130_fd_sc_hd__dfrtp_2
*I *941:X O *D sky130_fd_sc_hd__and3_2
*CAP
1 *971:D 0.000202331
2 *941:X 0.000202331
3 *971:D *901:D_N 7.03276e-05
4 *971:D *73:29 4.8694e-05
5 *971:D *73:60 3.07583e-05
6 *971:D *85:22 2.69443e-06
7 *971:D *107:23 4.43211e-05
*RES
1 *941:X *971:D 10.41 
*END

*D_NET *29 0.000821235
*CONN
*I *972:D I *D sky130_fd_sc_hd__dfrtp_2
*I *942:X O *D sky130_fd_sc_hd__xor2_2
*CAP
1 *972:D 0.000374267
2 *942:X 0.000374267
3 *972:D *972:CLK 7.27003e-05
*RES
1 *942:X *972:D 13.155 
*END

*D_NET *30 0.000456177
*CONN
*I *973:D I *D sky130_fd_sc_hd__dfrtp_2
*I *946:Y O *D sky130_fd_sc_hd__nor2_2
*CAP
1 *973:D 0.000155528
2 *946:Y 0.000155528
3 *973:D *943:B1 1.79098e-05
4 *973:D *946:A 9.83137e-05
5 *973:D *81:21 1.14192e-05
6 *973:D *108:25 1.74776e-05
*RES
1 *946:Y *973:D 10.08 
*END

*D_NET *31 0.000140811
*CONN
*I *974:D I *D sky130_fd_sc_hd__dfrtp_2
*I *949:X O *D sky130_fd_sc_hd__and2b_2
*CAP
1 *974:D 7.04057e-05
2 *949:X 7.04057e-05
*RES
1 *949:X *974:D 8.325 
*END

*D_NET *32 0.000634399
*CONN
*I *975:D I *D sky130_fd_sc_hd__dfrtp_2
*I *950:Y O *D sky130_fd_sc_hd__xnor2_2
*CAP
1 *975:D 0.000193544
2 *950:Y 0.000193544
3 *975:D *976:CLK 2.99731e-05
4 *975:D *976:RESET_B 0.000196063
5 *975:D *96:10 2.12738e-05
*RES
1 *950:Y *975:D 10.155 
*END

*D_NET *33 0.000254788
*CONN
*I *976:D I *D sky130_fd_sc_hd__dfrtp_2
*I *954:Y O *D sky130_fd_sc_hd__nor2_2
*CAP
1 *976:D 0.000127394
2 *954:Y 0.000127394
*RES
1 *954:Y *976:D 9.09 
*END

*D_NET *34 0.00117332
*CONN
*I *977:D I *D sky130_fd_sc_hd__dfrtp_2
*I *956:X O *D sky130_fd_sc_hd__o21ba_2
*CAP
1 *977:D 0.000430486
2 *956:X 0.000430486
3 *977:D *956:A2 7.03219e-05
4 *977:D *978:CLK 0.000199955
5 *977:D *89:133 4.20673e-05
*RES
1 *956:X *977:D 13.365 
*END

*D_NET *35 0.000624317
*CONN
*I *978:D I *D sky130_fd_sc_hd__dfrtp_2
*I *957:X O *D sky130_fd_sc_hd__xor2_2
*CAP
1 *978:D 0.000206139
2 *957:X 0.000206139
3 *978:D *978:RESET_B 9.05592e-05
4 *978:D *89:135 2.98587e-05
5 *978:D *99:10 9.16199e-05
*RES
1 *957:X *978:D 11.265 
*END

*D_NET *36 0.000551967
*CONN
*I *979:D I *D sky130_fd_sc_hd__dfrtp_2
*I *960:Y O *D sky130_fd_sc_hd__nor2_2
*CAP
1 *979:D 0.000230183
2 *960:Y 0.000230183
3 *979:D *905:D_N 9.16019e-05
*RES
1 *960:Y *979:D 10.155 
*END

*D_NET *37 0.000622231
*CONN
*I *980:D I *D sky130_fd_sc_hd__dfrtp_2
*I *961:X O *D sky130_fd_sc_hd__xor2_2
*CAP
1 *980:D 0.000297692
2 *961:X 0.000297692
3 *980:D *980:CLK 0
4 *980:D *981:CLK 0
5 *980:D *981:RESET_B 0
6 *980:D *91:8 2.68464e-05
*RES
1 *961:X *980:D 11.835 
*END

*D_NET *38 0.000746745
*CONN
*I *981:D I *D sky130_fd_sc_hd__dfrtp_2
*I *962:X O *D sky130_fd_sc_hd__a21o_2
*CAP
1 *981:D 0.000193324
2 *962:X 0.000193324
3 *981:D *907:C 9.20455e-05
4 *981:D *962:A2 9.16019e-05
5 *981:D *980:CLK 8.89318e-05
6 *981:D *981:CLK 2.89143e-05
7 *981:D *84:153 4.66108e-05
8 *981:D *91:8 1.19928e-05
*RES
1 *962:X *981:D 10.965 
*END

*D_NET *39 0.00252846
*CONN
*I *986:D I *D sky130_fd_sc_hd__dfstp_2
*I *913:B1_N I *D sky130_fd_sc_hd__a21boi_2
*I *912:X O *D sky130_fd_sc_hd__or2_2
*CAP
1 *986:D 0.000773728
2 *913:B1_N 0.000115871
3 *912:X 0
4 *39:4 0.000889598
5 *913:B1_N *913:A2 0.000212189
6 *986:D *913:A2 1.32102e-05
7 *986:D *914:C 3.63576e-05
8 *986:D *985:RESET_B 4.23341e-05
9 *986:D *986:CLK 0.000235358
10 *986:D *109:10 0.000160878
11 *986:D *112:14 4.89395e-05
*RES
1 *912:X *39:4 1.6 
2 *39:4 *913:B1_N 3.775 
3 *39:4 *986:D 18.35 
*END

*D_NET *40 0.00063184
*CONN
*I *950:B I *D sky130_fd_sc_hd__xnor2_2
*I *949:B I *D sky130_fd_sc_hd__and2b_2
*I *948:Y O *D sky130_fd_sc_hd__nand2_2
*CAP
1 *950:B 8.03552e-05
2 *949:B 6.09308e-05
3 *948:Y 9.24805e-05
4 *40:10 0.000233766
5 *949:B *89:98 4.89558e-05
6 *950:B *89:98 0.000115351
*RES
1 *948:Y *40:10 6.98 
2 *40:10 *949:B 2.755 
3 *40:10 *950:B 3.43 
*END

*D_NET *41 0.000175169
*CONN
*I *954:A I *D sky130_fd_sc_hd__nor2_2
*I *951:Y O *D sky130_fd_sc_hd__a31oi_2
*CAP
1 *954:A 6.05924e-05
2 *951:Y 6.05924e-05
3 *954:A *954:B 5.39837e-05
*RES
1 *951:Y *954:A 4.355 
*END

*D_NET *42 0.000490196
*CONN
*I *955:D I *D sky130_fd_sc_hd__and4_2
*I *952:X O *D sky130_fd_sc_hd__and2_2
*CAP
1 *955:D 0.000156526
2 *952:X 0.000156526
3 *955:D *952:A 4.77757e-05
4 *955:D *952:B 8.35106e-05
5 *955:D *44:12 4.58565e-05
*RES
1 *952:X *955:D 6.065 
*END

*D_NET *43 0.00299647
*CONN
*I *954:B I *D sky130_fd_sc_hd__nor2_2
*I *956:A2 I *D sky130_fd_sc_hd__o21ba_2
*I *953:X O *D sky130_fd_sc_hd__and4_2
*CAP
1 *954:B 0.000431285
2 *956:A2 0.000316588
3 *953:X 4.25238e-05
4 *43:8 0.000790396
5 *954:B *951:A1 0.00013828
6 *954:B *951:A2 6.41532e-05
7 *954:B *81:34 4.66108e-05
8 *954:B *81:38 0.000266666
9 *956:A2 *905:B 1.54665e-05
10 *956:A2 *955:A 8.403e-05
11 *956:A2 *955:B 0.000133763
12 *956:A2 *955:C 0.00011301
13 *956:A2 *956:A1 0.000179305
14 *956:A2 *956:B1_N 8.35157e-05
15 *956:A2 *81:38 6.75724e-05
16 *956:A2 *96:16 0
17 *956:A2 *98:8 8.66133e-05
18 *43:8 *953:A 8.73389e-06
19 *43:8 *953:D 3.64998e-06
20 *954:A *954:B 5.39837e-05
21 *977:D *956:A2 7.03219e-05
*RES
1 *953:X *43:8 4.05 
2 *43:8 *956:A2 11.685 
3 *43:8 *954:B 11.715 
*END

*D_NET *44 0.00190968
*CONN
*I *957:B I *D sky130_fd_sc_hd__xor2_2
*I *956:B1_N I *D sky130_fd_sc_hd__o21ba_2
*I *955:X O *D sky130_fd_sc_hd__and4_2
*CAP
1 *957:B 5.80666e-05
2 *956:B1_N 0.000171065
3 *955:X 0.000231439
4 *44:12 0.000460571
5 *956:B1_N *905:B 3.32388e-05
6 *956:B1_N *956:A1 4.40417e-05
7 *956:B1_N *89:133 0.000233571
8 *957:B *957:A 8.52977e-05
9 *957:B *89:133 0.000158545
10 *44:12 *902:A 7.93089e-05
11 *44:12 *902:B 7.01303e-05
12 *44:12 *905:B 2.5661e-05
13 *44:12 *955:B 0
14 *44:12 *957:A 0.000129376
15 *44:12 *98:8 0
16 *955:D *44:12 4.58565e-05
17 *956:A2 *956:B1_N 8.35157e-05
*RES
1 *955:X *44:12 9.905 
2 *44:12 *956:B1_N 5.515 
3 *44:12 *957:B 1.7925 
*END

*D_NET *45 0.00110652
*CONN
*I *960:A I *D sky130_fd_sc_hd__nor2_2
*I *958:Y O *D sky130_fd_sc_hd__a21oi_2
*CAP
1 *960:A 0.00037678
2 *958:Y 0.00037678
3 *960:A *958:B1 3.72103e-05
4 *960:A *959:A 9.05535e-05
5 *960:A *979:RESET_B 0.000160753
6 *960:A *90:8 6.44481e-05
*RES
1 *958:Y *960:A 14.49 
*END

*D_NET *46 0.00330587
*CONN
*I *960:B I *D sky130_fd_sc_hd__nor2_2
*I *962:A2 I *D sky130_fd_sc_hd__a21o_2
*I *961:B I *D sky130_fd_sc_hd__xor2_2
*I *959:X O *D sky130_fd_sc_hd__and4_2
*CAP
1 *960:B 0.00019462
2 *962:A2 0.000304656
3 *961:B 0.000794427
4 *959:X 0.000684391
5 *960:B *56:14 0.000285209
6 *961:B *959:B 0.00019608
7 *961:B *959:C 0.000406147
8 *961:B *961:A 4.77719e-05
9 *962:A2 *961:A 4.729e-05
10 *962:A2 *980:CLK 1.08056e-05
11 *962:A2 *981:CLK 1.08129e-05
12 *962:A2 *57:10 7.41023e-05
13 *962:A2 *91:8 2.49909e-05
14 *962:A2 *91:12 0.000132961
15 *981:D *962:A2 9.16019e-05
*RES
1 *959:X *961:B 11.7025 
2 *961:B *962:A2 11.57 
3 *959:X *960:B 11.07 
*END

*D_NET *47 0.00126897
*CONN
*I *933:A1 I *D sky130_fd_sc_hd__a211oi_2
*I *896:Y O *D sky130_fd_sc_hd__inv_2
*CAP
1 *933:A1 0.000286889
2 *896:Y 0.000286889
3 *933:A1 *921:A 4.41506e-05
4 *933:A1 *921:B 0.00026231
5 *933:A1 *933:B1 7.74925e-05
6 *933:A1 *933:C1 0.00026231
7 *968:D *933:A1 4.89295e-05
*RES
1 *896:Y *933:A1 13.8 
*END

*D_NET *48 0.000777019
*CONN
*I *928:B1 I *D sky130_fd_sc_hd__o21ai_2
*I *929:A I *D sky130_fd_sc_hd__or3_2
*I *897:Y O *D sky130_fd_sc_hd__inv_2
*CAP
1 *928:B1 8.17706e-05
2 *929:A 0
3 *897:Y 6.78517e-05
4 *48:6 0.000149622
5 *928:B1 *928:A2 4.82863e-05
6 *928:B1 *100:16 3.90495e-05
7 *48:6 *933:A2 6.77501e-05
8 *48:6 *71:6 4.80285e-05
9 *48:6 *100:16 0.000274659
*RES
1 *897:Y *48:6 4.12 
2 *48:6 *929:A 1.6 
3 *48:6 *928:B1 3.1 
*END

*D_NET *49 0.00101521
*CONN
*I *911:A1 I *D sky130_fd_sc_hd__o21ai_2
*I *898:Y O *D sky130_fd_sc_hd__inv_2
*CAP
1 *911:A1 0.00027387
2 *898:Y 0.00027387
3 *911:A1 *911:B1 0.00032749
4 *911:A1 *983:RESET_B 7.41176e-05
5 *911:A1 *110:12 7.98007e-06
6 *983:D *911:A1 5.78873e-05
*RES
1 *898:Y *911:A1 13.17 
*END

*D_NET *50 0.000234542
*CONN
*I *908:A I *D sky130_fd_sc_hd__or3_2
*I *899:Y O *D sky130_fd_sc_hd__inv_2
*CAP
1 *908:A 5.77754e-05
2 *899:Y 5.77754e-05
3 *908:A *56:31 0.000118991
*RES
1 *899:Y *908:A 8.58 
*END

*D_NET *51 0.00598034
*CONN
*I *913:A1 I *D sky130_fd_sc_hd__a21boi_2
*I *932:C I *D sky130_fd_sc_hd__and4b_2
*I *915:B I *D sky130_fd_sc_hd__and3_2
*I *916:A1 I *D sky130_fd_sc_hd__a21oi_2
*I *900:Y O *D sky130_fd_sc_hd__inv_2
*CAP
1 *913:A1 0.000347096
2 *932:C 0.000213477
3 *915:B 7.42892e-05
4 *916:A1 0.000144953
5 *900:Y 0.000629363
6 *51:12 0.000272173
7 *51:10 0.000477748
8 *51:6 0.0011878
9 *913:A1 *913:A2 4.89295e-05
10 *913:A1 *982:SET_B 0.000574182
11 *913:A1 *84:31 0.000320283
12 *915:B *915:A 1.1392e-05
13 *915:B *915:C 3.91176e-06
14 *916:A1 *916:A2 0.000273221
15 *916:A1 *916:B1 0.000140254
16 *916:A1 *93:21 0.00017765
17 *932:C *932:D 4.77769e-05
18 *932:C *60:40 0.000349615
19 *932:C *93:36 0.000195337
20 *51:10 *67:18 9.02962e-05
21 *51:12 *916:A2 7.41855e-05
22 *51:12 *60:29 4.09654e-05
23 *51:12 *60:40 6.06948e-05
24 *51:12 *93:21 8.65886e-05
25 *51:12 *93:36 9.05592e-05
26 *985:D *51:6 4.75991e-05
*RES
1 *900:Y *51:6 8.605 
2 *51:6 *51:10 4.52 
3 *51:10 *51:12 2.145 
4 *51:12 *916:A1 7.92 
5 *51:12 *915:B 4.395 
6 *51:10 *932:C 8.58 
7 *51:6 *913:A1 14.555 
*END

*D_NET *52 0.00103398
*CONN
*I *905:A I *D sky130_fd_sc_hd__or4b_2
*I *901:X O *D sky130_fd_sc_hd__or4b_2
*CAP
1 *905:A 0.0003943
2 *901:X 0.0003943
3 *905:A *901:A 3.51072e-05
4 *905:A *901:B 0.000149873
5 *905:A *905:D_N 6.03995e-05
6 *905:A *56:14 0
*RES
1 *901:X *905:A 12.975 
*END

*D_NET *53 0.00217229
*CONN
*I *905:B I *D sky130_fd_sc_hd__or4b_2
*I *902:X O *D sky130_fd_sc_hd__or4_2
*CAP
1 *905:B 0.000807426
2 *902:X 0.000807426
3 *905:B *902:A 5.18317e-06
4 *905:B *956:A1 7.1913e-05
5 *905:B *89:63 0.000383646
6 *905:B *89:133 2.23253e-05
7 *956:A2 *905:B 1.54665e-05
8 *956:B1_N *905:B 3.32388e-05
9 *44:12 *905:B 2.5661e-05
*RES
1 *902:X *905:B 18.075 
*END

*D_NET *54 0.00356871
*CONN
*I *905:C I *D sky130_fd_sc_hd__or4b_2
*I *903:X O *D sky130_fd_sc_hd__or4b_2
*CAP
1 *905:C 0.000900344
2 *903:X 0.000900344
3 *905:C *903:D_N 4.65591e-05
4 *905:C *905:D_N 8.35068e-05
5 *905:C *971:RESET_B 0.000198396
6 *905:C *56:14 8.13422e-05
7 *905:C *83:17 0.000193676
8 *905:C *89:40 2.53494e-05
9 *905:C *89:63 0.000329901
10 *905:C *107:8 0.000242636
11 *987:A *905:C 7.10902e-05
12 *3:14 *905:C 0.000495568
*RES
1 *903:X *905:C 28.7625 
*END

*D_NET *55 0.00375468
*CONN
*I *905:D_N I *D sky130_fd_sc_hd__or4b_2
*I *904:X O *D sky130_fd_sc_hd__and4b_2
*CAP
1 *905:D_N 0.00115895
2 *904:X 0.00115895
3 *905:D_N *901:B 0.000131168
4 *905:D_N *901:C 0.000196824
5 *905:D_N *920:A 0.000134255
6 *905:D_N *56:14 1.08758e-05
7 *905:D_N *84:10 0.000261572
8 *905:D_N *84:108 0.000243311
9 *905:D_N *84:140 0.000223257
10 *905:A *905:D_N 6.03995e-05
11 *905:C *905:D_N 8.35068e-05
12 *979:D *905:D_N 9.16019e-05
*RES
1 *904:X *905:D_N 29.445 
*END

*D_NET *56 0.00890618
*CONN
*I *908:B I *D sky130_fd_sc_hd__or3_2
*I *911:A2 I *D sky130_fd_sc_hd__o21ai_2
*I *910:A1 I *D sky130_fd_sc_hd__o21ai_2
*I *909:A2 I *D sky130_fd_sc_hd__a21bo_2
*I *906:B I *D sky130_fd_sc_hd__and2_2
*I *913:A2 I *D sky130_fd_sc_hd__a21boi_2
*I *920:B I *D sky130_fd_sc_hd__nor2_2
*I *905:X O *D sky130_fd_sc_hd__or4b_2
*CAP
1 *908:B 0
2 *911:A2 0.000217467
3 *910:A1 0
4 *909:A2 0
5 *906:B 0.000190405
6 *913:A2 0.000211014
7 *920:B 0.000230768
8 *905:X 0.00104578
9 *56:74 0.000558463
10 *56:67 0.000340996
11 *56:37 0.000520345
12 *56:33 0.000194838
13 *56:31 0.000301062
14 *56:14 0.00150169
15 *906:B *906:A 8.27569e-05
16 *906:B *914:A 0.00012398
17 *906:B *914:C 0.000122979
18 *906:B *60:16 0.000121036
19 *911:A2 *910:A2 0.000204572
20 *911:A2 *911:B1 0
21 *911:A2 *983:CLK 9.73166e-05
22 *911:A2 *57:14 0.000161653
23 *911:A2 *110:18 3.75203e-05
24 *913:A2 *914:C 2.88357e-05
25 *913:A2 *982:SET_B 0.000136332
26 *913:A2 *985:RESET_B 5.05981e-05
27 *913:A2 *60:16 0.000285844
28 *913:A2 *84:31 0.000106592
29 *913:A2 *112:14 2.69217e-05
30 *920:B *920:A 4.77757e-05
31 *56:14 *959:D 7.58382e-05
32 *56:14 *979:RESET_B 0
33 *56:14 *89:63 5.88283e-05
34 *56:31 *899:A 1.14192e-05
35 *56:31 *110:33 0
36 *56:33 *909:B1_N 5.19423e-05
37 *56:33 *110:33 0
38 *56:37 *909:A1 9.73303e-05
39 *56:37 *109:27 0.000280612
40 *56:37 *112:14 6.90972e-05
41 *56:74 *109:27 4.66108e-05
42 *56:74 *110:18 0.00049621
43 *905:A *56:14 0
44 *905:C *56:14 8.13422e-05
45 *905:D_N *56:14 1.08758e-05
46 *908:A *56:31 0.000118991
47 *913:A1 *913:A2 4.89295e-05
48 *913:B1_N *913:A2 0.000212189
49 *960:B *56:14 0.000285209
50 *983:D *911:A2 0
51 *986:D *913:A2 1.32102e-05
*RES
1 *905:X *56:14 23.975 
2 *56:14 *920:B 4.825 
3 *56:14 *56:31 5.99 
4 *56:31 *56:33 1.635 
5 *56:33 *56:37 5.675 
6 *56:37 *913:A2 12.41 
7 *56:37 *906:B 6.115 
8 *56:33 *56:67 2 
9 *56:67 *909:A2 1.6 
10 *56:67 *56:74 7.005 
11 *56:74 *910:A1 1.6 
12 *56:74 *911:A2 11.03 
13 *56:31 *908:B 3.6 
*END

*D_NET *57 0.00445311
*CONN
*I *959:C I *D sky130_fd_sc_hd__and4_2
*I *910:A2 I *D sky130_fd_sc_hd__o21ai_2
*I *908:C I *D sky130_fd_sc_hd__or3_2
*I *907:Y O *D sky130_fd_sc_hd__nand3_2
*CAP
1 *959:C 0.000542521
2 *910:A2 0.000146688
3 *908:C 0.000444938
4 *907:Y 0.000160781
5 *57:14 0.000884571
6 *57:10 0.000996248
7 *908:C *983:CLK 4.82919e-05
8 *910:A2 *983:CLK 7.23635e-05
9 *959:C *959:A 4.66108e-05
10 *959:C *959:B 8.4469e-05
11 *57:10 *907:C 4.41506e-05
12 *57:10 *961:A 0.000135002
13 *911:A2 *910:A2 0.000204572
14 *911:A2 *57:14 0.000161653
15 *961:B *959:C 0.000406147
16 *962:A2 *57:10 7.41023e-05
*RES
1 *907:Y *57:10 6.54 
2 *57:10 *57:14 7.46 
3 *57:14 *908:C 8.26 
4 *57:14 *910:A2 8.795 
5 *57:10 *959:C 10.95 
*END

*D_NET *58 0.00032892
*CONN
*I *909:B1_N I *D sky130_fd_sc_hd__a21bo_2
*I *908:X O *D sky130_fd_sc_hd__or3_2
*CAP
1 *909:B1_N 0.00010292
2 *908:X 0.00010292
3 *909:B1_N *909:A1 8.33066e-06
4 *909:B1_N *109:27 6.28073e-05
5 *56:33 *909:B1_N 5.19423e-05
*RES
1 *908:X *909:B1_N 9.4125 
*END

*D_NET *59 0.000954935
*CONN
*I *911:B1 I *D sky130_fd_sc_hd__o21ai_2
*I *910:Y O *D sky130_fd_sc_hd__o21ai_2
*CAP
1 *911:B1 0.000232454
2 *910:Y 0.000232454
3 *911:B1 *110:12 3.45117e-05
4 *911:B1 *110:18 1.52418e-05
5 *911:A1 *911:B1 0.00032749
6 *911:A2 *911:B1 0
7 *983:D *911:B1 0.000112783
*RES
1 *910:Y *911:B1 11.955 
*END

*D_NET *60 0.00682993
*CONN
*I *921:A I *D sky130_fd_sc_hd__and2_2
*I *922:A I *D sky130_fd_sc_hd__nand2_2
*I *932:D I *D sky130_fd_sc_hd__and4b_2
*I *915:C I *D sky130_fd_sc_hd__and3_2
*I *916:A2 I *D sky130_fd_sc_hd__a21oi_2
*I *914:X O *D sky130_fd_sc_hd__or3_2
*CAP
1 *921:A 0.000202486
2 *922:A 0
3 *932:D 4.59509e-05
4 *915:C 0.0001022
5 *916:A2 0.000231331
6 *914:X 0.00108973
7 *60:57 0.000380921
8 *60:40 0.000414736
9 *60:29 0.000319877
10 *60:16 0.00134839
11 *915:C *915:A 4.66108e-05
12 *916:A2 *916:B1 2.14995e-05
13 *921:A *896:A 0.000204828
14 *921:A *921:B 0.000131905
15 *921:A *933:C1 5.83121e-06
16 *921:A *67:8 5.83121e-06
17 *921:A *73:25 0.000304075
18 *921:A *104:12 0.000112595
19 *932:D *73:10 2.65814e-06
20 *60:16 *84:31 0.000235335
21 *60:40 *67:18 0.00012412
22 *60:57 *921:B 9.56017e-06
23 *60:57 *933:B1 4.66108e-05
24 *60:57 *65:16 1.70587e-05
25 *60:57 *67:18 3.38832e-05
26 *60:57 *73:10 9.0501e-05
27 *906:B *60:16 0.000121036
28 *913:A2 *60:16 0.000285844
29 *915:B *915:C 3.91176e-06
30 *916:A1 *916:A2 0.000273221
31 *932:C *932:D 4.77769e-05
32 *932:C *60:40 0.000349615
33 *933:A1 *921:A 4.41506e-05
34 *51:12 *916:A2 7.41855e-05
35 *51:12 *60:29 4.09654e-05
36 *51:12 *60:40 6.06948e-05
*RES
1 *914:X *60:16 22.9 
2 *60:16 *916:A2 8.49 
3 *60:16 *60:29 0.615 
4 *60:29 *915:C 4.74 
5 *60:29 *60:40 5.205 
6 *60:40 *932:D 4.395 
7 *60:40 *60:57 5.555 
8 *60:57 *922:A 1.6 
9 *60:57 *921:A 11.57 
*END

*D_NET *61 0.00313814
*CONN
*I *917:A I *D sky130_fd_sc_hd__nor2_2
*I *924:C I *D sky130_fd_sc_hd__and3_2
*I *919:B I *D sky130_fd_sc_hd__or2_2
*I *918:B I *D sky130_fd_sc_hd__nand2_2
*I *915:X O *D sky130_fd_sc_hd__and3_2
*CAP
1 *917:A 0
2 *924:C 0.000278545
3 *919:B 0.000146473
4 *918:B 5.02507e-05
5 *915:X 2.72645e-05
6 *61:23 0.00050067
7 *61:10 0.000775534
8 *61:6 0.000676896
9 *918:B *918:A 0
10 *918:B *923:C 4.7072e-06
11 *919:B *67:18 4.66108e-05
12 *924:C *924:B 5.48052e-05
13 *924:C *930:B 7.4027e-05
14 *924:C *63:20 9.49335e-05
15 *924:C *63:29 7.15106e-05
16 *924:C *69:23 0
17 *924:C *100:10 6.39331e-05
18 *924:C *100:36 3.57846e-05
19 *61:23 *923:C 9.10613e-05
20 *61:23 *63:20 4.78045e-05
21 *61:23 *100:10 9.73303e-05
*RES
1 *915:X *61:6 2.05 
2 *61:6 *61:10 9.435 
3 *61:10 *918:B 2.41 
4 *61:10 *61:23 4.145 
5 *61:23 *919:B 5.775 
6 *61:23 *924:C 9.105 
7 *61:6 *917:A 1.6 
*END

*D_NET *62 0.0008348
*CONN
*I *917:B I *D sky130_fd_sc_hd__nor2_2
*I *916:Y O *D sky130_fd_sc_hd__a21oi_2
*CAP
1 *917:B 0.000317277
2 *916:Y 0.000317277
3 *917:B *916:B1 1.9872e-05
4 *963:D *917:B 0.000180373
*RES
1 *916:Y *917:B 12.015 
*END

*D_NET *63 0.00329827
*CONN
*I *929:B I *D sky130_fd_sc_hd__or3_2
*I *925:B I *D sky130_fd_sc_hd__xnor2_2
*I *927:B2 I *D sky130_fd_sc_hd__o22a_2
*I *928:A1 I *D sky130_fd_sc_hd__o21ai_2
*I *923:A I *D sky130_fd_sc_hd__and3_2
*I *918:Y O *D sky130_fd_sc_hd__nand2_2
*CAP
1 *929:B 8.55391e-05
2 *925:B 0.000348307
3 *927:B2 2.5033e-05
4 *928:A1 8.55391e-05
5 *923:A 6.93648e-06
6 *918:Y 0.000211385
7 *63:29 0.000684198
8 *63:20 0.000515306
9 *923:A *918:A 4.89295e-05
10 *923:A *923:C 4.89295e-05
11 *925:B *927:A2 2.97802e-05
12 *925:B *101:25 0.000274155
13 *927:B2 *927:B1 2.68464e-05
14 *929:B *928:A2 2.16833e-05
15 *929:B *930:B 4.66108e-05
16 *929:B *100:16 8.65961e-05
17 *63:20 *923:C 9.22308e-05
18 *63:20 *100:38 0
19 *63:29 *924:A 0
20 *63:29 *927:A2 0.000285708
21 *63:29 *100:38 0
22 *924:C *63:20 9.49335e-05
23 *924:C *63:29 7.15106e-05
24 *965:D *925:B 0.00016031
25 *61:23 *63:20 4.78045e-05
*RES
1 *918:Y *923:A 3.65 
2 *918:Y *63:20 8.04 
3 *63:20 *928:A1 3.6 
4 *63:20 *63:29 6.225 
5 *63:29 *927:B2 4.05 
6 *63:29 *925:B 10.305 
7 *928:A1 *929:B 5.06 
*END

*D_NET *64 0.000522099
*CONN
*I *923:B I *D sky130_fd_sc_hd__and3_2
*I *919:X O *D sky130_fd_sc_hd__or2_2
*CAP
1 *923:B 0.000193222
2 *919:X 0.000193222
3 *923:B *918:A 0.000125599
4 *923:B *923:C 1.34124e-06
5 *964:D *923:B 8.7152e-06
*RES
1 *919:X *923:B 10.5 
*END

*D_NET *65 0.00419192
*CONN
*I *959:D I *D sky130_fd_sc_hd__and4_2
*I *958:A2 I *D sky130_fd_sc_hd__a21oi_2
*I *921:B I *D sky130_fd_sc_hd__and2_2
*I *922:B I *D sky130_fd_sc_hd__nand2_2
*I *920:Y O *D sky130_fd_sc_hd__nor2_2
*CAP
1 *959:D 8.11408e-05
2 *958:A2 0
3 *921:B 0.000269103
4 *922:B 0
5 *920:Y 0.000495384
6 *65:40 0.000690346
7 *65:16 0.000338639
8 *65:12 0.00117413
9 *921:B *933:B1 5.83121e-06
10 *921:B *933:C1 8.34281e-06
11 *921:B *968:RESET_B 6.33979e-05
12 *921:B *67:8 8.34281e-06
13 *921:B *73:25 0.000324809
14 *959:D *959:A 4.04268e-05
15 *959:D *110:44 1.10435e-05
16 *65:12 *104:12 8.34262e-05
17 *65:16 *67:8 1.08758e-05
18 *65:40 *84:8 9.00151e-05
19 *921:A *921:B 0.000131905
20 *933:A1 *921:B 0.00026231
21 *56:14 *959:D 7.58382e-05
22 *60:57 *921:B 9.56017e-06
23 *60:57 *65:16 1.70587e-05
*RES
1 *920:Y *65:12 13.46 
2 *65:12 *65:16 1.155 
3 *65:16 *922:B 1.6 
4 *65:16 *921:B 12.515 
5 *65:12 *65:40 9.42 
6 *65:40 *958:A2 1.6 
7 *65:40 *959:D 7.685 
*END

*D_NET *66 0.000994454
*CONN
*I *933:C1 I *D sky130_fd_sc_hd__a211oi_2
*I *921:X O *D sky130_fd_sc_hd__and2_2
*CAP
1 *933:C1 0.000240935
2 *921:X 0.000240935
3 *933:C1 *968:RESET_B 0.00022776
4 *933:C1 *73:25 8.34144e-06
5 *921:A *933:C1 5.83121e-06
6 *921:B *933:C1 8.34281e-06
7 *933:A1 *933:C1 0.00026231
*RES
1 *921:X *933:C1 12.105 
*END

*D_NET *67 0.00974698
*CONN
*I *941:A I *D sky130_fd_sc_hd__and3_2
*I *937:A I *D sky130_fd_sc_hd__and3_2
*I *930:A I *D sky130_fd_sc_hd__and3_2
*I *923:C I *D sky130_fd_sc_hd__and3_2
*I *922:Y O *D sky130_fd_sc_hd__nand2_2
*CAP
1 *941:A 1.39018e-05
2 *937:A 0.000990061
3 *930:A 0
4 *923:C 0.000240221
5 *922:Y 3.21435e-05
6 *67:50 0.0027189
7 *67:18 0.00128219
8 *67:8 0.00278905
9 *923:C *918:A 4.40028e-05
10 *937:A *937:C 4.65246e-05
11 *937:A *970:RESET_B 0.00023397
12 *937:A *105:14 0
13 *941:A *941:C 6.15576e-06
14 *67:18 *930:C 0.000342384
15 *67:18 *73:10 4.7167e-05
16 *67:18 *104:12 0.00026464
17 *67:50 *73:10 7.70424e-07
18 *67:50 *73:25 0.000118725
19 *67:50 *104:12 1.79536e-05
20 *918:B *923:C 4.7072e-06
21 *919:B *67:18 4.66108e-05
22 *921:A *67:8 5.83121e-06
23 *921:B *67:8 8.34281e-06
24 *923:A *923:C 4.89295e-05
25 *923:B *923:C 1.34124e-06
26 *51:10 *67:18 9.02962e-05
27 *60:40 *67:18 0.00012412
28 *60:57 *67:18 3.38832e-05
29 *61:23 *923:C 9.10613e-05
30 *63:20 *923:C 9.22308e-05
31 *65:16 *67:8 1.08758e-05
*RES
1 *922:Y *67:8 4.05 
2 *67:8 *67:18 21.305 
3 *67:18 *923:C 9.245 
4 *67:18 *930:A 1.6 
5 *67:8 *67:50 4.0353 
6 *67:50 *937:A 9.65217 
7 *67:50 *941:A 4.3325 
*END

*D_NET *68 0.000833573
*CONN
*I *927:A2 I *D sky130_fd_sc_hd__o22a_2
*I *924:X O *D sky130_fd_sc_hd__and3_2
*CAP
1 *927:A2 0.000216704
2 *924:X 0.000216704
3 *927:A2 *924:B 8.46768e-05
4 *925:B *927:A2 2.97802e-05
5 *63:29 *927:A2 0.000285708
*RES
1 *924:X *927:A2 11.67 
*END

*D_NET *69 0.00320742
*CONN
*I *932:A_N I *D sky130_fd_sc_hd__and4b_2
*I *929:C I *D sky130_fd_sc_hd__or3_2
*I *928:A2 I *D sky130_fd_sc_hd__o21ai_2
*I *927:B1 I *D sky130_fd_sc_hd__o22a_2
*I *926:Y O *D sky130_fd_sc_hd__nand2_2
*CAP
1 *932:A_N 0.000501118
2 *929:C 0
3 *928:A2 6.94424e-05
4 *927:B1 0.000211933
5 *926:Y 6.27505e-05
6 *69:23 0.000198292
7 *69:19 0.000834333
8 *69:6 0.000479049
9 *927:B1 *927:A1 0.000160338
10 *928:A2 *100:16 8.65961e-05
11 *928:A2 *100:36 6.97118e-05
12 *932:A_N *924:B 8.53011e-05
13 *932:A_N *932:B 1.7457e-05
14 *69:6 *927:A1 0.000110167
15 *69:19 *924:B 0.000173961
16 *69:19 *101:27 2.14921e-05
17 *69:23 *86:46 0
18 *69:23 *100:36 2.86623e-05
19 *924:C *69:23 0
20 *927:B2 *927:B1 2.68464e-05
21 *928:B1 *928:A2 4.82863e-05
22 *929:B *928:A2 2.16833e-05
*RES
1 *926:Y *69:6 2.74 
2 *69:6 *927:B1 5.08 
3 *69:6 *69:19 6.44 
4 *69:19 *69:23 4.145 
5 *69:23 *928:A2 3.43 
6 *69:23 *929:C 1.6 
7 *69:19 *932:A_N 11.295 
*END

*D_NET *70 0.000310981
*CONN
*I *930:B I *D sky130_fd_sc_hd__and3_2
*I *928:Y O *D sky130_fd_sc_hd__o21ai_2
*CAP
1 *930:B 5.89948e-05
2 *928:Y 5.89948e-05
3 *930:B *100:10 7.23533e-05
4 *924:C *930:B 7.4027e-05
5 *929:B *930:B 4.66108e-05
*RES
1 *928:Y *930:B 8.52 
*END

*D_NET *71 0.00276141
*CONN
*I *933:A2 I *D sky130_fd_sc_hd__a211oi_2
*I *930:C I *D sky130_fd_sc_hd__and3_2
*I *929:X O *D sky130_fd_sc_hd__or3_2
*CAP
1 *933:A2 0.000536367
2 *930:C 0.000350313
3 *929:X 6.43169e-05
4 *71:6 0.000950997
5 *930:C *86:46 0.000147994
6 *930:C *103:12 0
7 *933:A2 *932:B 3.78687e-05
8 *933:A2 *100:16 9.80032e-06
9 *933:A2 *103:19 0.000205592
10 *48:6 *933:A2 6.77501e-05
11 *48:6 *71:6 4.80285e-05
12 *67:18 *930:C 0.000342384
*RES
1 *929:X *71:6 2.395 
2 *71:6 *930:C 12.44 
3 *71:6 *933:A2 13.61 
*END

*D_NET *72 0.000519256
*CONN
*I *932:B I *D sky130_fd_sc_hd__and4b_2
*I *931:X O *D sky130_fd_sc_hd__and4_2
*CAP
1 *932:B 0.000217617
2 *931:X 0.000217617
3 *932:B *103:19 2.86975e-05
4 *932:A_N *932:B 1.7457e-05
5 *933:A2 *932:B 3.78687e-05
*RES
1 *931:X *932:B 10.005 
*END

*D_NET *73 0.00697526
*CONN
*I *945:C I *D sky130_fd_sc_hd__and4_2
*I *939:D I *D sky130_fd_sc_hd__and4_2
*I *938:A3 I *D sky130_fd_sc_hd__a31o_2
*I *936:C I *D sky130_fd_sc_hd__nand3_2
*I *934:B I *D sky130_fd_sc_hd__xor2_2
*I *935:A2 I *D sky130_fd_sc_hd__a21o_2
*I *933:B1 I *D sky130_fd_sc_hd__a211oi_2
*I *932:X O *D sky130_fd_sc_hd__and4b_2
*CAP
1 *945:C 0.000222067
2 *939:D 0
3 *938:A3 3.71857e-05
4 *936:C 0
5 *934:B 0.000169605
6 *935:A2 0
7 *933:B1 7.83708e-05
8 *932:X 9.06428e-05
9 *73:71 0.000269643
10 *73:60 0.000256984
11 *73:35 0.000414194
12 *73:29 0.000738925
13 *73:25 0.00114347
14 *73:10 0.000645925
15 *934:B *969:RESET_B 0.000215271
16 *938:A3 *938:B1 4.77769e-05
17 *938:A3 *85:30 0.00019606
18 *938:A3 *106:43 5.3007e-05
19 *938:A3 *106:58 8.41523e-05
20 *945:C *901:A 8.49205e-05
21 *945:C *941:C 3.3625e-05
22 *945:C *945:A 4.66108e-05
23 *945:C *945:B 8.40269e-05
24 *945:C *77:24 6.74079e-05
25 *945:C *85:22 5.34461e-05
26 *945:C *85:59 0.000174096
27 *73:25 *896:A 2.3228e-05
28 *73:25 *901:D_N 2.69443e-06
29 *73:25 *971:RESET_B 0.000113941
30 *73:25 *104:12 1.18566e-05
31 *73:29 *941:C 4.77719e-05
32 *73:35 *903:D_N 2.99518e-06
33 *73:35 *969:RESET_B 7.15312e-05
34 *73:35 *106:12 7.22684e-05
35 *73:60 *901:D_N 2.47547e-05
36 *73:60 *941:C 4.56072e-05
37 *73:60 *85:22 2.85623e-05
38 *73:71 *941:C 5.1985e-05
39 *73:71 *85:22 0.000110791
40 *921:A *73:25 0.000304075
41 *921:B *933:B1 5.83121e-06
42 *921:B *73:25 0.000324809
43 *932:D *73:10 2.65814e-06
44 *933:A1 *933:B1 7.74925e-05
45 *933:C1 *73:25 8.34144e-06
46 *971:D *73:29 4.8694e-05
47 *971:D *73:60 3.07583e-05
48 *3:14 *934:B 3.10226e-05
49 *3:14 *73:35 2.24049e-05
50 *60:57 *933:B1 4.66108e-05
51 *60:57 *73:10 9.0501e-05
52 *67:18 *73:10 4.7167e-05
53 *67:50 *73:10 7.70424e-07
54 *67:50 *73:25 0.000118725
*RES
1 *932:X *73:10 5.3025 
2 *73:10 *933:B1 5.3175 
3 *73:10 *73:25 10.8825 
4 *73:25 *73:29 9.695 
5 *73:29 *73:35 6.38 
6 *73:35 *935:A2 3.6 
7 *73:35 *934:B 6.44 
8 *73:29 *936:C 1.6 
9 *73:25 *73:60 3.3 
10 *73:60 *938:A3 5.43 
11 *73:60 *73:71 1.38 
12 *73:71 *939:D 3.6 
13 *73:71 *945:C 8.79 
*END

*D_NET *74 0.000411729
*CONN
*I *937:B I *D sky130_fd_sc_hd__and3_2
*I *935:X O *D sky130_fd_sc_hd__a21o_2
*CAP
1 *937:B 0.000204535
2 *935:X 0.000204535
3 *937:B *105:36 2.65814e-06
*RES
1 *935:X *937:B 5.375 
*END

*D_NET *75 0.000902691
*CONN
*I *937:C I *D sky130_fd_sc_hd__and3_2
*I *936:Y O *D sky130_fd_sc_hd__nand3_2
*CAP
1 *937:C 0.000325621
2 *936:Y 0.000325621
3 *937:C *936:A 1.79098e-05
4 *937:C *970:RESET_B 0.000157041
5 *937:A *937:C 4.65246e-05
6 *970:D *937:C 2.99731e-05
*RES
1 *936:Y *937:C 12.285 
*END

*D_NET *76 0.000515548
*CONN
*I *941:B I *D sky130_fd_sc_hd__and3_2
*I *938:X O *D sky130_fd_sc_hd__a31o_2
*CAP
1 *941:B 0.000131569
2 *938:X 0.000131569
3 *941:B *941:C 9.21008e-05
4 *941:B *85:30 0.00016031
*RES
1 *938:X *941:B 9.81 
*END

*D_NET *77 0.00173862
*CONN
*I *943:A2 I *D sky130_fd_sc_hd__a21oi_2
*I *942:B I *D sky130_fd_sc_hd__xor2_2
*I *940:A I *D sky130_fd_sc_hd__inv_2
*I *939:X O *D sky130_fd_sc_hd__and4_2
*CAP
1 *943:A2 0.000216123
2 *942:B 0
3 *940:A 3.51902e-05
4 *939:X 0.000396838
5 *77:24 0.000577771
6 *940:A *939:A 9.68799e-05
7 *940:A *941:C 4.88478e-05
8 *943:A2 *943:A1 8.52845e-05
9 *77:24 *85:59 0.000147241
10 *77:24 *85:70 6.7033e-05
11 *945:C *77:24 6.74079e-05
12 *969:D *77:24 0
*RES
1 *939:X *940:A 4.355 
2 *939:X *77:24 11.55 
3 *77:24 *942:B 2 
4 *77:24 *943:A2 7.23 
*END

*D_NET *78 0.00103286
*CONN
*I *941:C I *D sky130_fd_sc_hd__and3_2
*I *940:Y O *D sky130_fd_sc_hd__inv_2
*CAP
1 *941:C 0.000346213
2 *940:Y 0.000346213
3 *941:C *939:A 1.43396e-05
4 *940:A *941:C 4.88478e-05
5 *941:A *941:C 6.15576e-06
6 *941:B *941:C 9.21008e-05
7 *945:C *941:C 3.3625e-05
8 *73:29 *941:C 4.77719e-05
9 *73:60 *941:C 4.56072e-05
10 *73:71 *941:C 5.1985e-05
*RES
1 *940:Y *941:C 13.485 
*END

*D_NET *79 0.00089878
*CONN
*I *946:A I *D sky130_fd_sc_hd__nor2_2
*I *943:Y O *D sky130_fd_sc_hd__a21oi_2
*CAP
1 *946:A 0.00032159
2 *943:Y 0.00032159
3 *946:A *943:A1 4.7072e-06
4 *946:A *943:B1 1.8581e-05
5 *946:A *973:CLK 4.90291e-05
6 *946:A *81:10 3.75882e-06
7 *946:A *108:25 7.58994e-05
8 *946:A *108:29 5.31158e-06
9 *973:D *946:A 9.83137e-05
*RES
1 *943:Y *946:A 12.06 
*END

*D_NET *80 0.000357114
*CONN
*I *945:D I *D sky130_fd_sc_hd__and4_2
*I *944:X O *D sky130_fd_sc_hd__and3_2
*CAP
1 *945:D 0.000121681
2 *944:X 0.000121681
3 *945:D *901:A 3.47837e-05
4 *945:D *83:17 7.89689e-05
*RES
1 *944:X *945:D 9.63 
*END

*D_NET *81 0.00436331
*CONN
*I *947:B I *D sky130_fd_sc_hd__nor2_2
*I *951:A3 I *D sky130_fd_sc_hd__a31oi_2
*I *953:D I *D sky130_fd_sc_hd__and4_2
*I *955:C I *D sky130_fd_sc_hd__and4_2
*I *948:B I *D sky130_fd_sc_hd__nand2_2
*I *946:B I *D sky130_fd_sc_hd__nor2_2
*I *945:X O *D sky130_fd_sc_hd__and4_2
*CAP
1 *947:B 0
2 *951:A3 0
3 *953:D 3.35809e-05
4 *955:C 6.26059e-05
5 *948:B 0
6 *946:B 0
7 *945:X 0.000329306
8 *81:38 0.000281537
9 *81:34 0.000407454
10 *81:27 0.000418691
11 *81:21 0.000623647
12 *81:10 0.000756366
13 *953:D *953:A 8.52883e-05
14 *955:C *96:14 0
15 *955:C *96:16 0
16 *81:10 *973:RESET_B 0
17 *81:10 *108:29 0
18 *81:21 *95:14 0
19 *81:27 *95:14 4.25815e-05
20 *81:27 *95:20 0.00019898
21 *81:34 *951:A1 3.63576e-05
22 *81:34 *95:14 0.000574224
23 *81:38 *96:14 0
24 *946:A *81:10 3.75882e-06
25 *954:B *81:34 4.66108e-05
26 *954:B *81:38 0.000266666
27 *956:A2 *955:C 0.00011301
28 *956:A2 *81:38 6.75724e-05
29 *973:D *81:21 1.14192e-05
30 *43:8 *953:D 3.64998e-06
*RES
1 *945:X *81:10 11.06 
2 *81:10 *946:B 1.6 
3 *81:10 *81:21 6.345 
4 *81:21 *81:27 3.585 
5 *81:27 *948:B 1.6 
6 *81:27 *81:34 5.625 
7 *81:34 *81:38 6.185 
8 *81:38 *955:C 4.98 
9 *81:38 *953:D 4.395 
10 *81:34 *951:A3 1.6 
11 *81:21 *947:B 1.6 
*END

*D_NET *82 0.000240645
*CONN
*I *949:A_N I *D sky130_fd_sc_hd__and2b_2
*I *947:Y O *D sky130_fd_sc_hd__nor2_2
*CAP
1 *949:A_N 0.000120323
2 *947:Y 0.000120323
*RES
1 *947:Y *949:A_N 9.09 
*END

*D_NET *83 0.00258492
*CONN
*I *988:A I *D sky130_fd_sc_hd__clkbuf_16
*I *989:A I *D sky130_fd_sc_hd__clkbuf_16
*I *987:X O *D sky130_fd_sc_hd__clkbuf_16
*CAP
1 *988:A 0
2 *989:A 0
3 *987:X 9.14692e-05
4 *83:31 0.000458975
5 *83:17 0.000512419
6 *83:11 0.00106467
7 *83:6 0.000184741
8 *83:17 *901:A 0
9 *83:17 *971:RESET_B 0
10 *83:17 *973:RESET_B 0
11 *83:31 *971:RESET_B 0
12 *83:31 *84:140 0
13 *905:C *83:17 0.000193676
14 *945:D *83:17 7.89689e-05
*RES
1 *987:X *83:6 2.9125 
2 *83:6 *83:11 1.3125 
3 *83:11 *83:17 11.57 
4 *83:17 *989:A 3.6 
5 *83:11 *83:31 9.5 
6 *83:31 *988:A 3.6 
*END

*D_NET *84 0.0195068
*CONN
*I *980:CLK I *D sky130_fd_sc_hd__dfrtp_2
*I *981:CLK I *D sky130_fd_sc_hd__dfrtp_2
*I *979:CLK I *D sky130_fd_sc_hd__dfrtp_2
*I *968:CLK I *D sky130_fd_sc_hd__dfrtp_2
*I *966:CLK I *D sky130_fd_sc_hd__dfrtp_2
*I *983:CLK I *D sky130_fd_sc_hd__dfrtp_2
*I *984:CLK I *D sky130_fd_sc_hd__dfrtp_2
*I *986:CLK I *D sky130_fd_sc_hd__dfstp_2
*I *985:CLK I *D sky130_fd_sc_hd__dfrtp_2
*I *963:CLK I *D sky130_fd_sc_hd__dfrtp_2
*I *967:CLK I *D sky130_fd_sc_hd__dfrtp_2
*I *964:CLK I *D sky130_fd_sc_hd__dfrtp_2
*I *982:CLK I *D sky130_fd_sc_hd__dfstp_2
*I *988:X O *D sky130_fd_sc_hd__clkbuf_16
*CAP
1 *980:CLK 0.000124037
2 *981:CLK 3.13172e-05
3 *979:CLK 8.04299e-05
4 *968:CLK 0
5 *966:CLK 0.00104415
6 *983:CLK 0.000357937
7 *984:CLK 2.93302e-05
8 *986:CLK 0.000234839
9 *985:CLK 3.58421e-05
10 *963:CLK 0
11 *967:CLK 8.39933e-05
12 *964:CLK 0.000363535
13 *982:CLK 0.000246338
14 *988:X 0.000117036
15 *84:153 0.00117344
16 *84:140 0.00122473
17 *84:112 0.00182036
18 *84:108 0.00102724
19 *84:75 0.000396763
20 *84:69 0.00140609
21 *84:58 0.000951397
22 *84:33 0.000780731
23 *84:31 0.000948706
24 *84:12 0.000949245
25 *84:10 0.000518251
26 *84:8 0.000672692
27 *964:CLK *86:21 2.91561e-06
28 *966:CLK *966:RESET_B 6.74982e-05
29 *966:CLK *968:RESET_B 0.000385415
30 *966:CLK *993:A 4.12775e-05
31 *967:CLK *964:RESET_B 7.56981e-05
32 *980:CLK *962:B1 9.50342e-06
33 *980:CLK *91:8 0.000122801
34 *980:CLK *91:12 4.38721e-06
35 *982:CLK *982:SET_B 5.89229e-05
36 *984:CLK *906:A 7.08493e-05
37 *84:10 *920:A 0.000107514
38 *84:31 *963:RESET_B 0.00014492
39 *84:31 *982:SET_B 6.2958e-05
40 *84:31 *93:8 7.04824e-05
41 *84:33 *963:RESET_B 0.000180093
42 *84:33 *86:21 0.000170985
43 *84:33 *100:10 2.69153e-05
44 *84:69 *86:138 0.000189748
45 *84:69 *112:8 0.000175788
46 *84:112 *104:8 7.97834e-05
47 *84:153 *907:A 2.49909e-05
48 *84:153 *907:B 0.000136863
49 *84:153 *907:C 0.000142988
50 *905:D_N *84:10 0.000261572
51 *905:D_N *84:108 0.000243311
52 *905:D_N *84:140 0.000223257
53 *908:C *983:CLK 4.82919e-05
54 *910:A2 *983:CLK 7.23635e-05
55 *911:A2 *983:CLK 9.73166e-05
56 *913:A1 *84:31 0.000320283
57 *913:A2 *84:31 0.000106592
58 *962:A2 *980:CLK 1.08056e-05
59 *962:A2 *981:CLK 1.08129e-05
60 *964:D *964:CLK 7.08493e-05
61 *967:D *967:CLK 5.79602e-05
62 *968:D *84:112 2.68526e-05
63 *980:D *980:CLK 0
64 *980:D *981:CLK 0
65 *981:D *980:CLK 8.89318e-05
66 *981:D *981:CLK 2.89143e-05
67 *981:D *84:153 4.66108e-05
68 *982:D *982:CLK 0.000112907
69 *984:D *984:CLK 7.08493e-05
70 *985:D *84:10 6.06382e-05
71 *985:D *84:69 1.52418e-05
72 *986:D *986:CLK 0.000235358
73 *60:16 *84:31 0.000235335
74 *65:40 *84:8 9.00151e-05
75 *83:31 *84:140 0
*RES
1 *988:X *84:8 5.085 
2 *84:8 *84:10 8.265 
3 *84:10 *84:12 1.125 
4 *84:12 *982:CLK 7.83 
5 *84:12 *84:31 14.99 
6 *84:31 *84:33 7.005 
7 *84:33 *964:CLK 7.225 
8 *84:33 *967:CLK 7.745 
9 *84:31 *963:CLK 1.6 
10 *84:10 *84:58 2 
11 *84:58 *985:CLK 2.215 
12 *84:58 *84:69 13.145 
13 *84:69 *84:75 1.935 
14 *84:75 *986:CLK 7.92 
15 *84:75 *984:CLK 4.74 
16 *84:69 *983:CLK 9.78 
17 *84:8 *84:108 2.91 
18 *84:108 *84:112 13.49 
19 *84:112 *966:CLK 20.15 
20 *84:112 *968:CLK 1.6 
21 *84:108 *84:140 4.655 
22 *84:140 *979:CLK 2.665 
23 *84:140 *84:153 13.835 
24 *84:153 *981:CLK 4.215 
25 *84:153 *980:CLK 6.12 
*END

*D_NET *85 0.014535
*CONN
*I *978:CLK I *D sky130_fd_sc_hd__dfrtp_2
*I *977:CLK I *D sky130_fd_sc_hd__dfrtp_2
*I *990:A I *D sky130_fd_sc_hd__clkbuf_8
*I *975:CLK I *D sky130_fd_sc_hd__dfrtp_2
*I *976:CLK I *D sky130_fd_sc_hd__dfrtp_2
*I *974:CLK I *D sky130_fd_sc_hd__dfrtp_2
*I *972:CLK I *D sky130_fd_sc_hd__dfrtp_2
*I *973:CLK I *D sky130_fd_sc_hd__dfrtp_2
*I *969:CLK I *D sky130_fd_sc_hd__dfrtp_2
*I *971:CLK I *D sky130_fd_sc_hd__dfrtp_2
*I *970:CLK I *D sky130_fd_sc_hd__dfrtp_2
*I *965:CLK I *D sky130_fd_sc_hd__dfrtp_2
*I *989:X O *D sky130_fd_sc_hd__clkbuf_16
*CAP
1 *978:CLK 0.000544794
2 *977:CLK 0
3 *990:A 0
4 *975:CLK 0
5 *976:CLK 0.000195755
6 *974:CLK 0
7 *972:CLK 0.000130118
8 *973:CLK 2.27766e-05
9 *969:CLK 0.000223741
10 *971:CLK 0
11 *970:CLK 3.66766e-05
12 *965:CLK 0.000608294
13 *989:X 7.19778e-05
14 *85:124 0.000597762
15 *85:99 0.000646871
16 *85:92 0.00103032
17 *85:83 0.00082365
18 *85:70 0.000306122
19 *85:59 0.000564503
20 *85:30 0.00160384
21 *85:22 0.00103663
22 *85:18 0.000391046
23 *85:14 0.000451946
24 *85:10 0.000435348
25 *965:CLK *965:RESET_B 0.000194488
26 *965:CLK *970:RESET_B 0
27 *972:CLK *943:A1 4.65865e-05
28 *973:CLK *943:B1 3.33839e-05
29 *976:CLK *950:A 0.000235335
30 *976:CLK *976:RESET_B 0.000383628
31 *976:CLK *95:10 5.97306e-05
32 *976:CLK *97:10 3.30017e-05
33 *978:CLK *902:C 4.66108e-05
34 *978:CLK *902:D 0.000148445
35 *978:CLK *89:133 5.40013e-05
36 *978:CLK *99:10 0.000158536
37 *85:10 *901:B 6.31104e-05
38 *85:14 *944:C 0.000258781
39 *85:18 *939:A 0.000119251
40 *85:18 *939:C 8.23457e-05
41 *85:18 *944:A 4.89395e-05
42 *85:18 *944:B 4.29365e-05
43 *85:18 *944:C 9.32375e-05
44 *85:22 *944:B 4.09654e-05
45 *85:22 *106:58 7.03276e-05
46 *85:22 *107:34 1.0397e-05
47 *85:30 *938:B1 1.91597e-05
48 *85:30 *969:RESET_B 5.02744e-05
49 *85:30 *106:10 2.21074e-05
50 *85:30 *106:43 0.000362236
51 *85:59 *944:B 7.29081e-05
52 *85:59 *945:B 7.26629e-05
53 *85:59 *108:29 0.000137075
54 *85:70 *108:25 6.33761e-05
55 *85:70 *108:29 6.97275e-05
56 *85:83 *943:A1 4.05363e-05
57 *85:83 *108:25 4.70799e-05
58 *85:92 *943:A1 4.29365e-05
59 *85:92 *972:RESET_B 2.35512e-05
60 *85:92 *108:6 0.00012263
61 *85:99 *975:RESET_B 0.000111981
62 *938:A3 *85:30 0.00019606
63 *941:B *85:30 0.00016031
64 *945:C *85:22 5.34461e-05
65 *945:C *85:59 0.000174096
66 *946:A *973:CLK 4.90291e-05
67 *970:D *85:30 3.86126e-05
68 *971:D *85:22 2.69443e-06
69 *972:D *972:CLK 7.27003e-05
70 *975:D *976:CLK 2.99731e-05
71 *977:D *978:CLK 0.000199955
72 *73:60 *85:22 2.85623e-05
73 *73:71 *85:22 0.000110791
74 *77:24 *85:59 0.000147241
75 *77:24 *85:70 6.7033e-05
*RES
1 *989:X *85:10 6.98 
2 *85:10 *85:14 5.985 
3 *85:14 *85:18 5.555 
4 *85:18 *85:22 4.145 
5 *85:22 *85:30 17.315 
6 *85:30 *965:CLK 11.715 
7 *85:30 *970:CLK 4.215 
8 *85:22 *971:CLK 1.6 
9 *85:18 *85:59 6.225 
10 *85:59 *969:CLK 6.81 
11 *85:59 *85:70 4.185 
12 *85:70 *973:CLK 4.395 
13 *85:70 *85:83 4.4 
14 *85:83 *972:CLK 4.12 
15 *85:83 *85:92 9.765 
16 *85:92 *974:CLK 1.6 
17 *85:92 *85:99 7.35 
18 *85:99 *976:CLK 11.3 
19 *85:99 *975:CLK 1.6 
20 *85:14 *990:A 1.6 
21 *85:10 *85:124 0.795 
22 *85:124 *977:CLK 1.6 
23 *85:124 *978:CLK 12.4 
*END

*D_NET *86 0.0136006
*CONN
*I *983:RESET_B I *D sky130_fd_sc_hd__dfrtp_2
*I *984:RESET_B I *D sky130_fd_sc_hd__dfrtp_2
*I *986:SET_B I *D sky130_fd_sc_hd__dfstp_2
*I *969:RESET_B I *D sky130_fd_sc_hd__dfrtp_2
*I *985:RESET_B I *D sky130_fd_sc_hd__dfrtp_2
*I *970:RESET_B I *D sky130_fd_sc_hd__dfrtp_2
*I *965:RESET_B I *D sky130_fd_sc_hd__dfrtp_2
*I *982:SET_B I *D sky130_fd_sc_hd__dfstp_2
*I *993:A I *D sky130_fd_sc_hd__buf_4
*I *966:RESET_B I *D sky130_fd_sc_hd__dfrtp_2
*I *967:RESET_B I *D sky130_fd_sc_hd__dfrtp_2
*I *963:RESET_B I *D sky130_fd_sc_hd__dfrtp_2
*I *964:RESET_B I *D sky130_fd_sc_hd__dfrtp_2
*I *992:X O *D sky130_fd_sc_hd__buf_1
*CAP
1 *983:RESET_B 0.000210946
2 *984:RESET_B 2.69569e-05
3 *986:SET_B 8.75246e-05
4 *969:RESET_B 0.000334193
5 *985:RESET_B 0.000765238
6 *970:RESET_B 0.000503123
7 *965:RESET_B 6.89605e-05
8 *982:SET_B 0.000576499
9 *993:A 2.37098e-05
10 *966:RESET_B 0.000278503
11 *967:RESET_B 0.000104984
12 *963:RESET_B 0.00094995
13 *964:RESET_B 0.000469936
14 *992:X 0.000315666
15 *86:140 0.000258067
16 *86:138 0.000949412
17 *86:88 0.000441342
18 *86:46 0.000879598
19 *86:35 0.00088582
20 *86:21 0.000698078
21 *966:RESET_B *102:8 5.83121e-06
22 *969:RESET_B *935:B1 0.000134631
23 *969:RESET_B *105:10 5.71917e-05
24 *969:RESET_B *105:12 0.000145532
25 *969:RESET_B *106:10 4.66108e-05
26 *969:RESET_B *106:12 2.85623e-05
27 *970:RESET_B *903:C 0
28 *982:SET_B *93:8 0.000118271
29 *983:RESET_B *898:A 5.79045e-05
30 *984:RESET_B *111:6 1.16505e-05
31 *985:RESET_B *909:A1 4.43211e-05
32 *985:RESET_B *112:14 0.00017664
33 *993:A *102:8 4.71087e-05
34 *86:46 *924:B 0.000173961
35 *86:46 *100:10 0
36 *86:46 *101:27 0.000106953
37 *86:46 *102:14 0.000109387
38 *86:88 *903:A 0
39 *86:88 *903:B 6.44051e-05
40 *86:88 *903:C 0
41 *86:88 *101:27 4.6305e-05
42 *86:138 *112:8 0.000155791
43 *86:140 *898:A 4.96649e-05
44 *911:A1 *983:RESET_B 7.41176e-05
45 *913:A1 *982:SET_B 0.000574182
46 *913:A2 *982:SET_B 0.000136332
47 *913:A2 *985:RESET_B 5.05981e-05
48 *930:C *86:46 0.000147994
49 *934:B *969:RESET_B 0.000215271
50 *937:A *970:RESET_B 0.00023397
51 *937:C *970:RESET_B 0.000157041
52 *964:CLK *86:21 2.91561e-06
53 *965:CLK *965:RESET_B 0.000194488
54 *965:CLK *970:RESET_B 0
55 *965:D *86:88 0.000164686
56 *966:CLK *966:RESET_B 6.74982e-05
57 *966:CLK *993:A 4.12775e-05
58 *967:CLK *964:RESET_B 7.56981e-05
59 *982:CLK *982:SET_B 5.89229e-05
60 *982:D *982:SET_B 8.35106e-05
61 *986:D *985:RESET_B 4.23341e-05
62 *3:14 *969:RESET_B 0
63 *69:23 *86:46 0
64 *73:35 *969:RESET_B 7.15312e-05
65 *84:31 *963:RESET_B 0.00014492
66 *84:31 *982:SET_B 6.2958e-05
67 *84:33 *963:RESET_B 0.000180093
68 *84:33 *86:21 0.000170985
69 *84:69 *86:138 0.000189748
70 *85:30 *969:RESET_B 5.02744e-05
*RES
1 *992:X *964:RESET_B 10.25 
2 *964:RESET_B *86:21 2.8125 
3 *86:21 *963:RESET_B 7.7775 
4 *86:21 *86:35 2 
5 *86:35 *967:RESET_B 3.38 
6 *86:35 *86:46 16.895 
7 *86:46 *966:RESET_B 1.4325 
8 *86:46 *993:A 2.395 
9 *963:RESET_B *982:SET_B 13.42 
10 *966:RESET_B *86:88 6.74 
11 *86:88 *965:RESET_B 3.7775 
12 *86:88 *970:RESET_B 6.185 
13 *982:SET_B *985:RESET_B 8.185 
14 *970:RESET_B *969:RESET_B 13.3525 
15 *985:RESET_B *86:138 12.4025 
16 *86:138 *86:140 2.655 
17 *86:140 *986:SET_B 3.38 
18 *86:140 *984:RESET_B 2.3975 
19 *86:138 *983:RESET_B 6.44 
*END

*D_NET *87 0.000888821
*CONN
*I *962:B1 I *D sky130_fd_sc_hd__a21o_2
*I *991:X O *D sky130_fd_sc_hd__dlygate4sd3_1
*CAP
1 *962:B1 0.000437067
2 *991:X 0.000437067
3 *962:B1 *91:12 5.18317e-06
4 *980:CLK *962:B1 9.50342e-06
*RES
1 *991:X *962:B1 12.39 
*END

*D_NET *88 0.000603057
*CONN
*I *994:A I *D sky130_fd_sc_hd__clkdlybuf4s25_1
*I *986:Q O *D sky130_fd_sc_hd__dfstp_2
*CAP
1 *994:A 0.000301528
2 *986:Q 0.000301528
3 led[3] *994:A 0
*RES
1 *986:Q *994:A 11.01 
*END

*D_NET *89 0.0153507
*CONN
*I *975:RESET_B I *D sky130_fd_sc_hd__dfrtp_2
*I *978:RESET_B I *D sky130_fd_sc_hd__dfrtp_2
*I *980:RESET_B I *D sky130_fd_sc_hd__dfrtp_2
*I *981:RESET_B I *D sky130_fd_sc_hd__dfrtp_2
*I *976:RESET_B I *D sky130_fd_sc_hd__dfrtp_2
*I *974:RESET_B I *D sky130_fd_sc_hd__dfrtp_2
*I *972:RESET_B I *D sky130_fd_sc_hd__dfrtp_2
*I *977:RESET_B I *D sky130_fd_sc_hd__dfrtp_2
*I *979:RESET_B I *D sky130_fd_sc_hd__dfrtp_2
*I *973:RESET_B I *D sky130_fd_sc_hd__dfrtp_2
*I *971:RESET_B I *D sky130_fd_sc_hd__dfrtp_2
*I *968:RESET_B I *D sky130_fd_sc_hd__dfrtp_2
*I *993:X O *D sky130_fd_sc_hd__buf_4
*CAP
1 *975:RESET_B 0.000318854
2 *978:RESET_B 5.53239e-05
3 *980:RESET_B 0
4 *981:RESET_B 8.66303e-05
5 *976:RESET_B 0.000412106
6 *974:RESET_B 0.000406365
7 *972:RESET_B 0.000104945
8 *977:RESET_B 0.000827083
9 *979:RESET_B 0.000437514
10 *973:RESET_B 0.00141359
11 *971:RESET_B 0.000584714
12 *968:RESET_B 0.000960762
13 *993:X 0.000398402
14 *89:135 0.000508529
15 *89:133 0.00117272
16 *89:98 0.00100385
17 *89:63 0.000908584
18 *89:40 0.00116626
19 *971:RESET_B *896:A 0.000201107
20 *971:RESET_B *901:A 0.000201237
21 *971:RESET_B *901:D_N 1.11025e-05
22 *971:RESET_B *107:8 2.06497e-05
23 *972:RESET_B *108:6 4.20673e-05
24 *975:RESET_B *96:10 7.95893e-05
25 *976:RESET_B *950:A 0.000145051
26 *976:RESET_B *97:10 8.97451e-05
27 *981:RESET_B *991:A 0
28 *89:63 *901:C 3.69171e-05
29 *89:98 *943:B1 0.000118246
30 *89:98 *950:A 5.09431e-05
31 *89:98 *94:10 1.30349e-05
32 *89:133 *902:D 4.66108e-05
33 *89:133 *956:A1 7.03219e-05
34 *89:135 *991:A 0
35 *905:B *89:63 0.000383646
36 *905:B *89:133 2.23253e-05
37 *905:C *971:RESET_B 0.000198396
38 *905:C *89:40 2.53494e-05
39 *905:C *89:63 0.000329901
40 *921:B *968:RESET_B 6.33979e-05
41 *933:C1 *968:RESET_B 0.00022776
42 *949:B *89:98 4.89558e-05
43 *950:B *89:98 0.000115351
44 *956:B1_N *89:133 0.000233571
45 *957:B *89:133 0.000158545
46 *960:A *979:RESET_B 0.000160753
47 *966:CLK *968:RESET_B 0.000385415
48 *975:D *976:RESET_B 0.000196063
49 *976:CLK *976:RESET_B 0.000383628
50 *977:D *89:133 4.20673e-05
51 *978:CLK *89:133 5.40013e-05
52 *978:D *978:RESET_B 9.05592e-05
53 *978:D *89:135 2.98587e-05
54 *980:D *981:RESET_B 0
55 *56:14 *979:RESET_B 0
56 *56:14 *89:63 5.88283e-05
57 *73:25 *971:RESET_B 0.000113941
58 *81:10 *973:RESET_B 0
59 *83:17 *971:RESET_B 0
60 *83:17 *973:RESET_B 0
61 *83:31 *971:RESET_B 0
62 *85:92 *972:RESET_B 2.35512e-05
63 *85:99 *975:RESET_B 0.000111981
*RES
1 *993:X *968:RESET_B 14.315 
2 *968:RESET_B *971:RESET_B 16.4575 
3 *971:RESET_B *89:40 0.3975 
4 *89:40 *973:RESET_B 16.795 
5 *89:40 *89:63 13.635 
6 *89:63 *979:RESET_B 9.755 
7 *89:63 *977:RESET_B 4.145 
8 *973:RESET_B *972:RESET_B 5.7775 
9 *973:RESET_B *89:98 8.3325 
10 *89:98 *974:RESET_B 5.38 
11 *89:98 *976:RESET_B 8.6775 
12 *977:RESET_B *89:133 15.4275 
13 *89:133 *89:135 7.245 
14 *89:135 *981:RESET_B 3.38 
15 *89:135 *980:RESET_B 2 
16 *89:133 *978:RESET_B 3.125 
17 *974:RESET_B *975:RESET_B 5.415 
*END

*D_NET *90 0.00161396
*CONN
*I *907:B I *D sky130_fd_sc_hd__nand3_2
*I *959:B I *D sky130_fd_sc_hd__and4_2
*I *958:B1 I *D sky130_fd_sc_hd__a21oi_2
*I *979:Q O *D sky130_fd_sc_hd__dfrtp_2
*CAP
1 *907:B 0.000182354
2 *959:B 4.28558e-05
3 *958:B1 0.000166971
4 *979:Q 0
5 *90:8 0.000314071
6 *90:4 0.000286598
7 *907:B *907:C 5.54245e-05
8 *959:B *959:A 4.66108e-05
9 *959:C *959:B 8.4469e-05
10 *960:A *958:B1 3.72103e-05
11 *960:A *90:8 6.44481e-05
12 *961:B *959:B 0.00019608
13 *84:153 *907:B 0.000136863
*RES
1 *979:Q *90:4 1.6 
2 *90:4 *90:8 4.145 
3 *90:8 *958:B1 6.285 
4 *90:8 *959:B 5.43 
5 *90:4 *907:B 5.515 
*END

*D_NET *91 0.00240738
*CONN
*I *962:A1 I *D sky130_fd_sc_hd__a21o_2
*I *907:A I *D sky130_fd_sc_hd__nand3_2
*I *961:A I *D sky130_fd_sc_hd__xor2_2
*I *980:Q O *D sky130_fd_sc_hd__dfrtp_2
*CAP
1 *962:A1 0
2 *907:A 1.65033e-05
3 *961:A 0.000189198
4 *980:Q 0.000581366
5 *91:12 0.000306911
6 *91:8 0.000682576
7 *907:A *907:C 4.66108e-05
8 *961:B *961:A 4.77719e-05
9 *962:A2 *961:A 4.729e-05
10 *962:A2 *91:8 2.49909e-05
11 *962:A2 *91:12 0.000132961
12 *962:B1 *91:12 5.18317e-06
13 *980:CLK *91:8 0.000122801
14 *980:CLK *91:12 4.38721e-06
15 *980:D *91:8 2.68464e-05
16 *981:D *91:8 1.19928e-05
17 *57:10 *961:A 0.000135002
18 *84:153 *907:A 2.49909e-05
*RES
1 *980:Q *91:8 10.69 
2 *91:8 *91:12 3.89 
3 *91:12 *961:A 7.005 
4 *91:12 *907:A 4.05 
5 *91:8 *962:A1 1.6 
*END

*D_NET *92 0.00202495
*CONN
*I *991:A I *D sky130_fd_sc_hd__dlygate4sd3_1
*I *907:C I *D sky130_fd_sc_hd__nand3_2
*I *981:Q O *D sky130_fd_sc_hd__dfrtp_2
*CAP
1 *991:A 0.00025898
2 *907:C 0.000490017
3 *981:Q 7.28679e-05
4 *92:6 0.000821865
5 *907:A *907:C 4.66108e-05
6 *907:B *907:C 5.54245e-05
7 *981:D *907:C 9.20455e-05
8 *981:RESET_B *991:A 0
9 *57:10 *907:C 4.41506e-05
10 *84:153 *907:C 0.000142988
11 *89:135 *991:A 0
*RES
1 *981:Q *92:6 2.74 
2 *92:6 *907:C 10.72 
3 *92:6 *991:A 9.785 
*END

*D_NET *93 0.00293957
*CONN
*I *904:D I *D sky130_fd_sc_hd__and4b_2
*I *931:A I *D sky130_fd_sc_hd__and4_2
*I *915:A I *D sky130_fd_sc_hd__and3_2
*I *916:B1 I *D sky130_fd_sc_hd__a21oi_2
*I *963:Q O *D sky130_fd_sc_hd__dfrtp_2
*CAP
1 *904:D 0.000173612
2 *931:A 0
3 *915:A 1.94971e-05
4 *916:B1 0.000185485
5 *963:Q 0.000221563
6 *93:36 0.000356202
7 *93:21 0.000333756
8 *93:8 0.000538717
9 *904:D *904:A_N 4.66826e-05
10 *904:D *904:C 6.05513e-05
11 *93:36 *904:A_N 2.49909e-05
12 *915:B *915:A 1.1392e-05
13 *915:C *915:A 4.66108e-05
14 *916:A1 *916:B1 0.000140254
15 *916:A1 *93:21 0.00017765
16 *916:A2 *916:B1 2.14995e-05
17 *917:B *916:B1 1.9872e-05
18 *932:C *93:36 0.000195337
19 *982:SET_B *93:8 0.000118271
20 *51:12 *93:21 8.65886e-05
21 *51:12 *93:36 9.05592e-05
22 *84:31 *93:8 7.04824e-05
*RES
1 *963:Q *93:8 6.465 
2 *93:8 *916:B1 7.065 
3 *93:8 *93:21 3.165 
4 *93:21 *915:A 4.05 
5 *93:21 *93:36 5.87 
6 *93:36 *931:A 1.6 
7 *93:36 *904:D 4.48 
*END

*D_NET *94 0.00496464
*CONN
*I *943:B1 I *D sky130_fd_sc_hd__a21oi_2
*I *944:C I *D sky130_fd_sc_hd__and3_2
*I *901:C I *D sky130_fd_sc_hd__or4b_2
*I *973:Q O *D sky130_fd_sc_hd__dfrtp_2
*CAP
1 *943:B1 0.000728475
2 *944:C 0.000418604
3 *901:C 0.000168024
4 *973:Q 0.0012701
5 *94:10 0.00112826
6 *901:C *901:B 5.54551e-05
7 *94:10 *901:B 0.000204838
8 *94:10 *95:31 0.000203968
9 *905:D_N *901:C 0.000196824
10 *946:A *943:B1 1.8581e-05
11 *973:CLK *943:B1 3.33839e-05
12 *973:D *943:B1 1.79098e-05
13 *85:14 *944:C 0.000258781
14 *85:18 *944:C 9.32375e-05
15 *89:63 *901:C 3.69171e-05
16 *89:98 *943:B1 0.000118246
17 *89:98 *94:10 1.30349e-05
*RES
1 *973:Q *94:10 14.355 
2 *94:10 *901:C 7.275 
3 *94:10 *944:C 9.225 
4 *973:Q *943:B1 11.855 
*END

*D_NET *95 0.00652754
*CONN
*I *951:A1 I *D sky130_fd_sc_hd__a31oi_2
*I *948:A I *D sky130_fd_sc_hd__nand2_2
*I *953:A I *D sky130_fd_sc_hd__and4_2
*I *955:A I *D sky130_fd_sc_hd__and4_2
*I *901:B I *D sky130_fd_sc_hd__or4b_2
*I *947:A I *D sky130_fd_sc_hd__nor2_2
*I *974:Q O *D sky130_fd_sc_hd__dfrtp_2
*CAP
1 *951:A1 9.02023e-05
2 *948:A 0
3 *953:A 0.000165098
4 *955:A 6.34169e-05
5 *901:B 0.000435517
6 *947:A 3.72949e-05
7 *974:Q 0.000197965
8 *95:46 0.000767529
9 *95:31 0.00118556
10 *95:20 0.00035078
11 *95:14 0.000376263
12 *95:10 0.000561973
13 *951:A1 *951:A2 4.89295e-05
14 *953:A *953:B 8.64421e-05
15 *953:A *953:C 0.000123955
16 *901:C *901:B 5.54551e-05
17 *905:A *901:B 0.000149873
18 *905:D_N *901:B 0.000131168
19 *953:D *953:A 8.52883e-05
20 *954:B *951:A1 0.00013828
21 *956:A2 *955:A 8.403e-05
22 *976:CLK *95:10 5.97306e-05
23 *43:8 *953:A 8.73389e-06
24 *81:21 *95:14 0
25 *81:27 *95:14 4.25815e-05
26 *81:27 *95:20 0.00019898
27 *81:34 *951:A1 3.63576e-05
28 *81:34 *95:14 0.000574224
29 *85:10 *901:B 6.31104e-05
30 *94:10 *901:B 0.000204838
31 *94:10 *95:31 0.000203968
*RES
1 *974:Q *95:10 9.02 
2 *95:10 *95:14 6.33 
3 *95:14 *95:20 4.28 
4 *95:20 *947:A 4.05 
5 *95:20 *95:31 4.44 
6 *95:31 *901:B 12.33 
7 *95:31 *95:46 9.35 
8 *95:46 *955:A 6.98 
9 *95:46 *953:A 4.81 
10 *95:14 *948:A 1.6 
11 *95:10 *951:A1 3.895 
*END

*D_NET *96 0.00463885
*CONN
*I *950:A I *D sky130_fd_sc_hd__xnor2_2
*I *951:A2 I *D sky130_fd_sc_hd__a31oi_2
*I *953:C I *D sky130_fd_sc_hd__and4_2
*I *952:B I *D sky130_fd_sc_hd__and2_2
*I *902:B I *D sky130_fd_sc_hd__or4_2
*I *975:Q O *D sky130_fd_sc_hd__dfrtp_2
*CAP
1 *950:A 0.000262038
2 *951:A2 7.09966e-05
3 *953:C 0.000108191
4 *952:B 9.32796e-05
5 *902:B 4.24146e-05
6 *975:Q 0.00050861
7 *96:16 0.000203081
8 *96:14 0.000385612
9 *96:12 0.000373734
10 *96:10 0.00086335
11 *902:B *902:A 0.00011852
12 *902:B *955:B 0
13 *952:B *952:A 5.31423e-05
14 *953:C *953:B 2.01504e-05
15 *96:12 *97:10 6.29387e-05
16 *96:14 *97:10 1.10951e-05
17 *96:14 *97:14 0.000348915
18 *96:14 *97:16 5.23362e-05
19 *96:16 *902:A 5.16418e-05
20 *96:16 *955:B 0
21 *96:16 *97:16 8.59296e-05
22 *951:A1 *951:A2 4.89295e-05
23 *953:A *953:C 0.000123955
24 *954:B *951:A2 6.41532e-05
25 *955:C *96:14 0
26 *955:C *96:16 0
27 *955:D *952:B 8.35106e-05
28 *956:A2 *96:16 0
29 *975:D *96:10 2.12738e-05
30 *975:RESET_B *96:10 7.95893e-05
31 *976:CLK *950:A 0.000235335
32 *976:RESET_B *950:A 0.000145051
33 *44:12 *902:B 7.01303e-05
34 *81:38 *96:14 0
35 *89:98 *950:A 5.09431e-05
*RES
1 *975:Q *96:10 9.825 
2 *96:10 *96:12 1.89 
3 *96:12 *96:14 4.95 
4 *96:14 *96:16 1.635 
5 *96:16 *902:B 4.98 
6 *96:16 *952:B 5.445 
7 *96:14 *953:C 5.085 
8 *96:12 *951:A2 5.085 
9 *96:10 *950:A 9.24 
*END

*D_NET *97 0.00440227
*CONN
*I *951:B1 I *D sky130_fd_sc_hd__a31oi_2
*I *953:B I *D sky130_fd_sc_hd__and4_2
*I *952:A I *D sky130_fd_sc_hd__and2_2
*I *902:A I *D sky130_fd_sc_hd__or4_2
*I *976:Q O *D sky130_fd_sc_hd__dfrtp_2
*CAP
1 *951:B1 0
2 *953:B 7.95474e-05
3 *952:A 0.000106459
4 *902:A 0.000361053
5 *976:Q 0.000712773
6 *97:16 0.000540357
7 *97:14 0.000353876
8 *97:10 0.000914256
9 *902:A *902:D 0.000118081
10 *902:A *957:A 4.87939e-05
11 *902:A *99:10 2.09453e-05
12 *902:B *902:A 0.00011852
13 *905:B *902:A 5.18317e-06
14 *952:B *952:A 5.31423e-05
15 *953:A *953:B 8.64421e-05
16 *953:C *953:B 2.01504e-05
17 *955:D *952:A 4.77757e-05
18 *976:CLK *97:10 3.30017e-05
19 *976:RESET_B *97:10 8.97451e-05
20 *44:12 *902:A 7.93089e-05
21 *96:12 *97:10 6.29387e-05
22 *96:14 *97:10 1.10951e-05
23 *96:14 *97:14 0.000348915
24 *96:14 *97:16 5.23362e-05
25 *96:16 *902:A 5.16418e-05
26 *96:16 *97:16 8.59296e-05
*RES
1 *976:Q *97:10 12.585 
2 *97:10 *97:14 4.635 
3 *97:14 *97:16 1.635 
4 *97:16 *902:A 13.315 
5 *97:16 *952:A 5.445 
6 *97:14 *953:B 5.085 
7 *97:10 *951:B1 3.6 
*END

*D_NET *98 0.00169371
*CONN
*I *955:B I *D sky130_fd_sc_hd__and4_2
*I *902:D I *D sky130_fd_sc_hd__or4_2
*I *956:A1 I *D sky130_fd_sc_hd__o21ba_2
*I *977:Q O *D sky130_fd_sc_hd__dfrtp_2
*CAP
1 *955:B 6.421e-05
2 *902:D 0.000141283
3 *956:A1 0.000106009
4 *977:Q 0
5 *98:8 0.000291926
6 *98:6 0.000108844
7 *902:D *902:C 4.66108e-05
8 *902:D *99:10 3.57349e-05
9 *902:A *902:D 0.000118081
10 *902:B *955:B 0
11 *905:B *956:A1 7.1913e-05
12 *956:A2 *955:B 0.000133763
13 *956:A2 *956:A1 0.000179305
14 *956:A2 *98:8 8.66133e-05
15 *956:B1_N *956:A1 4.40417e-05
16 *978:CLK *902:D 0.000148445
17 *44:12 *955:B 0
18 *44:12 *98:8 0
19 *89:133 *902:D 4.66108e-05
20 *89:133 *956:A1 7.03219e-05
21 *96:16 *955:B 0
*RES
1 *977:Q *98:6 3.6 
2 *98:6 *98:8 1.125 
3 *98:8 *956:A1 6.63 
4 *98:8 *902:D 6.81 
5 *98:6 *955:B 5.235 
*END

*D_NET *99 0.00225455
*CONN
*I *957:A I *D sky130_fd_sc_hd__xor2_2
*I *902:C I *D sky130_fd_sc_hd__or4_2
*I *978:Q O *D sky130_fd_sc_hd__dfrtp_2
*CAP
1 *957:A 0.00012379
2 *902:C 1.36534e-05
3 *978:Q 0.000658071
4 *99:10 0.000795514
5 *902:A *957:A 4.87939e-05
6 *902:A *99:10 2.09453e-05
7 *902:D *902:C 4.66108e-05
8 *902:D *99:10 3.57349e-05
9 *957:B *957:A 8.52977e-05
10 *978:CLK *902:C 4.66108e-05
11 *978:CLK *99:10 0.000158536
12 *978:D *99:10 9.16199e-05
13 *44:12 *957:A 0.000129376
*RES
1 *978:Q *99:10 10.36 
2 *99:10 *902:C 2.05 
3 *99:10 *957:A 8.285 
*END

*D_NET *100 0.00539318
*CONN
*I *924:A I *D sky130_fd_sc_hd__and3_2
*I *919:A I *D sky130_fd_sc_hd__or2_2
*I *918:A I *D sky130_fd_sc_hd__nand2_2
*I *904:A_N I *D sky130_fd_sc_hd__and4b_2
*I *931:B I *D sky130_fd_sc_hd__and4_2
*I *964:Q O *D sky130_fd_sc_hd__dfrtp_2
*CAP
1 *924:A 0.000113393
2 *919:A 0
3 *918:A 0.000190556
4 *904:A_N 4.8984e-05
5 *931:B 0
6 *964:Q 0.000306147
7 *100:38 0.000362709
8 *100:36 0.000637125
9 *100:16 0.000481689
10 *100:10 0.00109043
11 *904:A_N *904:C 0.000159227
12 *100:16 *904:C 4.24364e-05
13 *100:16 *103:19 0.000538607
14 *904:D *904:A_N 4.66826e-05
15 *918:B *918:A 0
16 *923:A *918:A 4.89295e-05
17 *923:B *918:A 0.000125599
18 *923:C *918:A 4.40028e-05
19 *924:C *100:10 6.39331e-05
20 *924:C *100:36 3.57846e-05
21 *928:A2 *100:16 8.65961e-05
22 *928:A2 *100:36 6.97118e-05
23 *928:B1 *100:16 3.90495e-05
24 *929:B *100:16 8.65961e-05
25 *930:B *100:10 7.23533e-05
26 *933:A2 *100:16 9.80032e-06
27 *967:D *100:10 0.000240274
28 *48:6 *100:16 0.000274659
29 *61:23 *100:10 9.73303e-05
30 *63:20 *100:38 0
31 *63:29 *924:A 0
32 *63:29 *100:38 0
33 *69:23 *100:36 2.86623e-05
34 *84:33 *100:10 2.69153e-05
35 *86:46 *100:10 0
36 *93:36 *904:A_N 2.49909e-05
*RES
1 *964:Q *100:10 9.51 
2 *100:10 *100:16 12.125 
3 *100:16 *931:B 1.6 
4 *100:16 *904:A_N 3.085 
5 *100:10 *100:36 8.425 
6 *100:36 *100:38 2.91 
7 *100:38 *918:A 7.545 
8 *100:38 *919:A 3.6 
9 *100:36 *924:A 5.175 
*END

*D_NET *101 0.00403745
*CONN
*I *903:B I *D sky130_fd_sc_hd__or4b_2
*I *926:B I *D sky130_fd_sc_hd__nand2_2
*I *924:B I *D sky130_fd_sc_hd__and3_2
*I *925:A I *D sky130_fd_sc_hd__xnor2_2
*I *965:Q O *D sky130_fd_sc_hd__dfrtp_2
*CAP
1 *903:B 0.000191889
2 *926:B 0
3 *924:B 0.0003495
4 *925:A 8.07266e-05
5 *965:Q 0.000283819
6 *101:27 0.000536243
7 *101:25 0.000714252
8 *101:12 0.000700165
9 *903:B *903:A 0
10 *903:B *903:D_N 4.05674e-06
11 *101:27 *903:A 0
12 *101:27 *102:14 0
13 *924:C *924:B 5.48052e-05
14 *925:B *101:25 0.000274155
15 *927:A2 *924:B 8.46768e-05
16 *932:A_N *924:B 8.53011e-05
17 *965:D *101:25 9.07793e-05
18 *69:19 *924:B 0.000173961
19 *69:19 *101:27 2.14921e-05
20 *86:46 *924:B 0.000173961
21 *86:46 *101:27 0.000106953
22 *86:88 *903:B 6.44051e-05
23 *86:88 *101:27 4.6305e-05
*RES
1 *965:Q *101:12 8.975 
2 *101:12 *925:A 2.755 
3 *101:12 *101:25 7.625 
4 *101:25 *101:27 3.93 
5 *101:27 *924:B 11.535 
6 *101:27 *926:B 3.6 
7 *101:25 *903:B 6.63 
*END

*D_NET *102 0.00174213
*CONN
*I *903:A I *D sky130_fd_sc_hd__or4b_2
*I *927:A1 I *D sky130_fd_sc_hd__o22a_2
*I *926:A I *D sky130_fd_sc_hd__nand2_2
*I *966:Q O *D sky130_fd_sc_hd__dfrtp_2
*CAP
1 *903:A 0.000225362
2 *927:A1 0.000176181
3 *926:A 0
4 *966:Q 6.56302e-05
5 *102:14 0.000361563
6 *102:8 0.000476374
7 *903:A *903:C 4.18603e-06
8 *903:B *903:A 0
9 *927:B1 *927:A1 0.000160338
10 *966:RESET_B *102:8 5.83121e-06
11 *993:A *102:8 4.71087e-05
12 *69:6 *927:A1 0.000110167
13 *86:46 *102:14 0.000109387
14 *86:88 *903:A 0
15 *101:27 *903:A 0
16 *101:27 *102:14 0
*RES
1 *966:Q *102:8 4.395 
2 *102:8 *102:14 5.36 
3 *102:14 *926:A 1.6 
4 *102:14 *927:A1 5.17 
5 *102:8 *903:A 7.275 
*END

*D_NET *103 0.00315078
*CONN
*I *904:C I *D sky130_fd_sc_hd__and4b_2
*I *931:D I *D sky130_fd_sc_hd__and4_2
*I *897:A I *D sky130_fd_sc_hd__inv_2
*I *967:Q O *D sky130_fd_sc_hd__dfrtp_2
*CAP
1 *904:C 0.000119598
2 *931:D 0
3 *897:A 0
4 *967:Q 0.000664224
5 *103:19 0.000239067
6 *103:12 0.000783693
7 *904:C *931:C 0.000309088
8 *904:A_N *904:C 0.000159227
9 *904:D *904:C 6.05513e-05
10 *930:C *103:12 0
11 *932:B *103:19 2.86975e-05
12 *933:A2 *103:19 0.000205592
13 *100:16 *904:C 4.24364e-05
14 *100:16 *103:19 0.000538607
*RES
1 *967:Q *103:12 15.185 
2 *103:12 *897:A 1.6 
3 *103:12 *103:19 4.935 
4 *103:19 *931:D 1.6 
5 *103:19 *904:C 5.515 
*END

*D_NET *104 0.00265751
*CONN
*I *896:A I *D sky130_fd_sc_hd__inv_2
*I *904:B I *D sky130_fd_sc_hd__and4b_2
*I *931:C I *D sky130_fd_sc_hd__and4_2
*I *968:Q O *D sky130_fd_sc_hd__dfrtp_2
*CAP
1 *896:A 0.000113275
2 *904:B 0
3 *931:C 0.000212388
4 *968:Q 0.000138003
5 *104:12 0.000423226
6 *104:8 0.000462117
7 *904:C *931:C 0.000309088
8 *921:A *896:A 0.000204828
9 *921:A *104:12 0.000112595
10 *971:RESET_B *896:A 0.000201107
11 *65:12 *104:12 8.34262e-05
12 *67:18 *104:12 0.00026464
13 *67:50 *104:12 1.79536e-05
14 *73:25 *896:A 2.3228e-05
15 *73:25 *104:12 1.18566e-05
16 *84:112 *104:8 7.97834e-05
*RES
1 *968:Q *104:8 5.43 
2 *104:8 *104:12 6.95 
3 *104:12 *931:C 4.465 
4 *104:12 *904:B 1.6 
5 *104:8 *896:A 6.96 
*END

*D_NET *105 0.00460588
*CONN
*I *944:A I *D sky130_fd_sc_hd__and3_2
*I *934:A I *D sky130_fd_sc_hd__xor2_2
*I *935:A1 I *D sky130_fd_sc_hd__a21o_2
*I *939:A I *D sky130_fd_sc_hd__and4_2
*I *938:A1 I *D sky130_fd_sc_hd__a31o_2
*I *936:A I *D sky130_fd_sc_hd__nand3_2
*I *903:C I *D sky130_fd_sc_hd__or4b_2
*I *969:Q O *D sky130_fd_sc_hd__dfrtp_2
*CAP
1 *944:A 2.18167e-05
2 *934:A 0
3 *935:A1 0
4 *939:A 0.000364029
5 *938:A1 0.000193109
6 *936:A 2.5811e-05
7 *903:C 9.78526e-05
8 *969:Q 0.000122143
9 *105:40 0.00101275
10 *105:36 0.000593525
11 *105:14 0.000307537
12 *105:12 0.000498047
13 *105:10 0.000320218
14 *903:C *903:D_N 7.51254e-05
15 *938:A1 *106:43 0.000165545
16 *938:A1 *106:58 4.4852e-05
17 *939:A *939:C 1.77945e-05
18 *939:A *944:B 4.60814e-05
19 *105:12 *935:B1 1.64141e-05
20 *105:14 *903:D_N 3.59531e-06
21 *105:14 *935:B1 5.76197e-05
22 *105:14 *106:12 0.000115134
23 *903:A *903:C 4.18603e-06
24 *937:A *105:14 0
25 *937:B *105:36 2.65814e-06
26 *937:C *936:A 1.79098e-05
27 *940:A *939:A 9.68799e-05
28 *941:C *939:A 1.43396e-05
29 *969:RESET_B *105:10 5.71917e-05
30 *969:RESET_B *105:12 0.000145532
31 *970:RESET_B *903:C 0
32 *3:14 *903:C 0
33 *85:18 *939:A 0.000119251
34 *85:18 *944:A 4.89395e-05
35 *86:88 *903:C 0
*RES
1 *969:Q *105:10 5.685 
2 *105:10 *105:12 4.44 
3 *105:12 *105:14 3.93 
4 *105:14 *903:C 5.49 
5 *105:14 *936:A 4.05 
6 *105:12 *105:36 3.485 
7 *105:36 *105:40 5.295 
8 *105:40 *938:A1 8.3 
9 *105:40 *939:A 6.82 
10 *105:36 *935:A1 1.6 
11 *105:10 *934:A 3.6 
12 *939:A *944:A 3.65 
*END

*D_NET *106 0.00412186
*CONN
*I *944:B I *D sky130_fd_sc_hd__and3_2
*I *939:B I *D sky130_fd_sc_hd__and4_2
*I *938:A2 I *D sky130_fd_sc_hd__a31o_2
*I *935:B1 I *D sky130_fd_sc_hd__a21o_2
*I *936:B I *D sky130_fd_sc_hd__nand3_2
*I *903:D_N I *D sky130_fd_sc_hd__or4b_2
*I *970:Q O *D sky130_fd_sc_hd__dfrtp_2
*CAP
1 *944:B 0.000184483
2 *939:B 0
3 *938:A2 0
4 *935:B1 4.62313e-05
5 *936:B 0
6 *903:D_N 0.000223938
7 *970:Q 2.0132e-05
8 *106:58 0.00036607
9 *106:43 0.00047284
10 *106:12 0.000333432
11 *106:10 0.00020332
12 *106:6 0.00035898
13 *944:B *945:B 8.31422e-05
14 *944:B *107:34 2.98587e-05
15 *106:58 *938:B1 0.000120417
16 *106:58 *107:34 7.03276e-05
17 *903:B *903:D_N 4.05674e-06
18 *903:C *903:D_N 7.51254e-05
19 *905:C *903:D_N 4.65591e-05
20 *938:A1 *106:43 0.000165545
21 *938:A1 *106:58 4.4852e-05
22 *938:A3 *106:43 5.3007e-05
23 *938:A3 *106:58 8.41523e-05
24 *939:A *944:B 4.60814e-05
25 *969:RESET_B *935:B1 0.000134631
26 *969:RESET_B *106:10 4.66108e-05
27 *969:RESET_B *106:12 2.85623e-05
28 *3:14 *903:D_N 0
29 *73:35 *903:D_N 2.99518e-06
30 *73:35 *106:12 7.22684e-05
31 *85:18 *944:B 4.29365e-05
32 *85:22 *944:B 4.09654e-05
33 *85:22 *106:58 7.03276e-05
34 *85:30 *106:10 2.21074e-05
35 *85:30 *106:43 0.000362236
36 *85:59 *944:B 7.29081e-05
37 *105:12 *935:B1 1.64141e-05
38 *105:14 *903:D_N 3.59531e-06
39 *105:14 *935:B1 5.76197e-05
40 *105:14 *106:12 0.000115134
*RES
1 *970:Q *106:6 1.96 
2 *106:6 *106:10 2.795 
3 *106:10 *106:12 2.655 
4 *106:12 *903:D_N 7.425 
5 *106:12 *936:B 3.6 
6 *106:10 *935:B1 5.235 
7 *106:6 *106:43 6.3525 
8 *106:43 *938:A2 1.6 
9 *106:43 *106:58 5.4725 
10 *106:58 *939:B 3.6 
11 *106:58 *944:B 6.81 
*END

*D_NET *107 0.0038861
*CONN
*I *945:B I *D sky130_fd_sc_hd__and4_2
*I *939:C I *D sky130_fd_sc_hd__and4_2
*I *938:B1 I *D sky130_fd_sc_hd__a31o_2
*I *901:D_N I *D sky130_fd_sc_hd__or4b_2
*I *971:Q O *D sky130_fd_sc_hd__dfrtp_2
*CAP
1 *945:B 0.00013163
2 *939:C 6.53357e-05
3 *938:B1 6.54979e-05
4 *901:D_N 0.00023721
5 *971:Q 0.000423882
6 *107:34 0.00024526
7 *107:23 0.0001874
8 *107:8 0.000734701
9 *901:D_N *901:A 0.000495928
10 *945:B *901:A 6.07537e-05
11 *945:B *108:29 4.9968e-05
12 *107:23 *901:A 9.63461e-05
13 *107:34 *901:A 3.77958e-05
14 *905:C *107:8 0.000242636
15 *938:A3 *938:B1 4.77769e-05
16 *939:A *939:C 1.77945e-05
17 *944:B *945:B 8.31422e-05
18 *944:B *107:34 2.98587e-05
19 *945:C *945:B 8.40269e-05
20 *971:D *901:D_N 7.03276e-05
21 *971:D *107:23 4.43211e-05
22 *971:RESET_B *901:D_N 1.11025e-05
23 *971:RESET_B *107:8 2.06497e-05
24 *73:25 *901:D_N 2.69443e-06
25 *73:60 *901:D_N 2.47547e-05
26 *85:18 *939:C 8.23457e-05
27 *85:22 *107:34 1.0397e-05
28 *85:30 *938:B1 1.91597e-05
29 *85:59 *945:B 7.26629e-05
30 *106:58 *938:B1 0.000120417
31 *106:58 *107:34 7.03276e-05
*RES
1 *971:Q *107:8 8.88 
2 *107:8 *901:D_N 9.135 
3 *107:8 *107:23 1.92 
4 *107:23 *938:B1 5.085 
5 *107:23 *107:34 1.38 
6 *107:34 *939:C 4.755 
7 *107:34 *945:B 7.05 
*END

*D_NET *108 0.00500955
*CONN
*I *942:A I *D sky130_fd_sc_hd__xor2_2
*I *901:A I *D sky130_fd_sc_hd__or4b_2
*I *945:A I *D sky130_fd_sc_hd__and4_2
*I *943:A1 I *D sky130_fd_sc_hd__a21oi_2
*I *972:Q O *D sky130_fd_sc_hd__dfrtp_2
*CAP
1 *942:A 0
2 *901:A 0.000516112
3 *945:A 2.74662e-05
4 *943:A1 0.000305807
5 *972:Q 0.000235257
6 *108:29 0.000838255
7 *108:25 0.000448059
8 *108:6 0.000694445
9 *901:D_N *901:A 0.000495928
10 *905:A *901:A 3.51072e-05
11 *943:A2 *943:A1 8.52845e-05
12 *945:B *901:A 6.07537e-05
13 *945:B *108:29 4.9968e-05
14 *945:C *901:A 8.49205e-05
15 *945:C *945:A 4.66108e-05
16 *945:D *901:A 3.47837e-05
17 *946:A *943:A1 4.7072e-06
18 *946:A *108:25 7.58994e-05
19 *946:A *108:29 5.31158e-06
20 *971:RESET_B *901:A 0.000201237
21 *972:CLK *943:A1 4.65865e-05
22 *972:RESET_B *108:6 4.20673e-05
23 *973:D *108:25 1.74776e-05
24 *81:10 *108:29 0
25 *83:17 *901:A 0
26 *85:59 *108:29 0.000137075
27 *85:70 *108:25 6.33761e-05
28 *85:70 *108:29 6.97275e-05
29 *85:83 *943:A1 4.05363e-05
30 *85:83 *108:25 4.70799e-05
31 *85:92 *943:A1 4.29365e-05
32 *85:92 *108:6 0.00012263
33 *107:23 *901:A 9.63461e-05
34 *107:34 *901:A 3.77958e-05
*RES
1 *972:Q *108:6 4.81 
2 *108:6 *943:A1 10.295 
3 *108:6 *108:25 5.675 
4 *108:25 *108:29 8.48 
5 *108:29 *945:A 2.05 
6 *108:29 *901:A 17.405 
7 *108:25 *942:A 3.6 
*END

*D_NET *109 0.00262491
*CONN
*I *900:A I *D sky130_fd_sc_hd__inv_2
*I *920:A I *D sky130_fd_sc_hd__nor2_2
*I *912:B I *D sky130_fd_sc_hd__or2_2
*I *982:Q O *D sky130_fd_sc_hd__dfstp_2
*CAP
1 *900:A 0
2 *920:A 0.000259215
3 *912:B 0
4 *982:Q 9.88974e-05
5 *109:27 0.00068147
6 *109:10 0.000521152
7 *109:27 *909:A1 4.77807e-05
8 *109:27 *112:14 1.56261e-05
9 *905:D_N *920:A 0.000134255
10 *909:B1_N *109:27 6.28073e-05
11 *920:B *920:A 4.77757e-05
12 *985:D *920:A 8.52883e-05
13 *985:D *109:27 7.50252e-05
14 *986:D *109:10 0.000160878
15 *56:37 *109:27 0.000280612
16 *56:74 *109:27 4.66108e-05
17 *84:10 *920:A 0.000107514
*RES
1 *982:Q *109:10 5.685 
2 *109:10 *912:B 3.6 
3 *109:10 *109:27 10.205 
4 *109:27 *920:A 11.135 
5 *109:27 *900:A 1.6 
*END

*D_NET *110 0.00473708
*CONN
*I *910:B1 I *D sky130_fd_sc_hd__o21ai_2
*I *959:A I *D sky130_fd_sc_hd__and4_2
*I *958:A1 I *D sky130_fd_sc_hd__a21oi_2
*I *899:A I *D sky130_fd_sc_hd__inv_2
*I *914:B I *D sky130_fd_sc_hd__or3_2
*I *983:Q O *D sky130_fd_sc_hd__dfrtp_2
*CAP
1 *910:B1 0
2 *959:A 7.43313e-05
3 *958:A1 5.59499e-05
4 *899:A 2.9752e-05
5 *914:B 0.000204725
6 *983:Q 0.000625025
7 *110:44 0.00026893
8 *110:33 0.000589286
9 *110:18 0.00101731
10 *110:12 0.00101672
11 *110:12 *898:A 3.60024e-06
12 *911:A1 *110:12 7.98007e-06
13 *911:A2 *110:18 3.75203e-05
14 *911:B1 *110:12 3.45117e-05
15 *911:B1 *110:18 1.52418e-05
16 *959:B *959:A 4.66108e-05
17 *959:C *959:A 4.66108e-05
18 *959:D *959:A 4.04268e-05
19 *959:D *110:44 1.10435e-05
20 *960:A *959:A 9.05535e-05
21 *983:D *110:12 1.33269e-05
22 *56:31 *899:A 1.14192e-05
23 *56:31 *110:33 0
24 *56:33 *110:33 0
25 *56:74 *110:18 0.00049621
*RES
1 *983:Q *110:12 12.86 
2 *110:12 *110:18 9.02 
3 *110:18 *914:B 6.765 
4 *110:18 *110:33 8.615 
5 *110:33 *899:A 2.05 
6 *110:33 *110:44 4.4 
7 *110:44 *958:A1 4.395 
8 *110:44 *959:A 5.685 
9 *110:12 *910:B1 1.6 
*END

*D_NET *111 0.00247658
*CONN
*I *914:A I *D sky130_fd_sc_hd__or3_2
*I *898:A I *D sky130_fd_sc_hd__inv_2
*I *906:A I *D sky130_fd_sc_hd__and2_2
*I *984:Q O *D sky130_fd_sc_hd__dfrtp_2
*CAP
1 *914:A 3.10286e-05
2 *898:A 0.000184097
3 *906:A 0.000650555
4 *984:Q 0.000162432
5 *111:6 0.000966055
6 *906:A *914:C 3.5678e-06
7 *914:A *914:C 5.49265e-05
8 *906:B *906:A 8.27569e-05
9 *906:B *914:A 0.00012398
10 *983:RESET_B *898:A 5.79045e-05
11 *984:CLK *906:A 7.08493e-05
12 *984:D *906:A 2.35156e-05
13 *984:RESET_B *111:6 1.16505e-05
14 *86:140 *898:A 4.96649e-05
15 *110:12 *898:A 3.60024e-06
*RES
1 *984:Q *111:6 3.43 
2 *111:6 *906:A 9.85 
3 *111:6 *898:A 9.02 
4 *906:A *914:A 4.34 
*END

*D_NET *112 0.00195413
*CONN
*I *909:A1 I *D sky130_fd_sc_hd__a21bo_2
*I *914:C I *D sky130_fd_sc_hd__or3_2
*I *912:A I *D sky130_fd_sc_hd__or2_2
*I *985:Q O *D sky130_fd_sc_hd__dfrtp_2
*CAP
1 *909:A1 0.000111987
2 *914:C 0.000128782
3 *912:A 0
4 *985:Q 0.000101496
5 *112:14 0.000206965
6 *112:8 0.000291666
7 *906:A *914:C 3.5678e-06
8 *906:B *914:C 0.000122979
9 *909:B1_N *909:A1 8.33066e-06
10 *913:A2 *914:C 2.88357e-05
11 *913:A2 *112:14 2.69217e-05
12 *914:A *914:C 5.49265e-05
13 *985:RESET_B *909:A1 4.43211e-05
14 *985:RESET_B *112:14 0.00017664
15 *986:D *914:C 3.63576e-05
16 *986:D *112:14 4.89395e-05
17 *56:37 *909:A1 9.73303e-05
18 *56:37 *112:14 6.90972e-05
19 *84:69 *112:8 0.000175788
20 *86:138 *112:8 0.000155791
21 *109:27 *909:A1 4.77807e-05
22 *109:27 *112:14 1.56261e-05
*RES
1 *985:Q *112:8 6.465 
2 *112:8 *112:14 4.595 
3 *112:14 *912:A 1.6 
4 *112:14 *914:C 4.945 
5 *112:8 *909:A1 6.195 
*END
