*SPEF "ieee 1481-1999"
*DESIGN "soc_top"
*DATE "08:25:18 Monday September 07, 2026"
*VENDOR "The OpenROAD Project"
*PROGRAM "OpenROAD"
*VERSION "dcf36133a369abc8f3c5e5738cd4d82e4903c0e0"
*DESIGN_FLOW "NAME_SCOPE LOCAL" "PIN_CAP NONE"
*DIVIDER /
*DELIMITER :
*BUS_DELIMITER []
*T_UNIT 1 NS
*C_UNIT 1 PF
*R_UNIT 1 OHM
*L_UNIT 1 HENRY

*NAME_MAP
*3 clk
*4 net
*5 net4
*6 net5
*7 net6
*8 net7
*9 net8
*10 net9
*11 net10
*12 net12
*13 net11
*14 rst_n
*15 uart_tx
*16 _000_
*17 _001_
*18 _002_
*19 _003_
*20 _004_
*21 _005_
*22 _006_
*23 _007_
*24 _008_
*25 _009_
*26 _010_
*27 _011_
*28 _012_
*29 _013_
*30 _014_
*31 _015_
*32 _016_
*33 _017_
*34 _018_
*35 _019_
*36 _020_
*37 _021_
*38 _022_
*39 _023_
*40 _024_
*41 _025_
*42 _026_
*43 _027_
*44 _028_
*45 _029_
*46 _030_
*47 _031_
*48 _032_
*49 _033_
*50 _034_
*51 _035_
*52 _036_
*53 _037_
*54 _038_
*55 _039_
*56 _040_
*57 _041_
*58 _042_
*59 _043_
*60 _044_
*61 _045_
*62 _046_
*63 _047_
*64 _048_
*65 _049_
*66 _050_
*67 _051_
*68 _052_
*69 _053_
*70 _054_
*71 _055_
*72 _056_
*73 _057_
*74 _058_
*75 _059_
*76 _060_
*77 _061_
*78 _062_
*79 _063_
*80 _064_
*81 _065_
*82 _066_
*83 clknet_0_clk
*84 clknet_1_0__leaf_clk
*85 clknet_1_1__leaf_clk
*86 net1
*87 net13
*88 net2
*89 net3
*90 u_uart\.bit_idx\[0\]
*91 u_uart\.bit_idx\[1\]
*92 u_uart\.bit_idx\[2\]
*93 u_uart\.clk_cnt\[0\]
*94 u_uart\.clk_cnt\[10\]
*95 u_uart\.clk_cnt\[11\]
*96 u_uart\.clk_cnt\[12\]
*97 u_uart\.clk_cnt\[13\]
*98 u_uart\.clk_cnt\[14\]
*99 u_uart\.clk_cnt\[15\]
*100 u_uart\.clk_cnt\[1\]
*101 u_uart\.clk_cnt\[2\]
*102 u_uart\.clk_cnt\[3\]
*103 u_uart\.clk_cnt\[4\]
*104 u_uart\.clk_cnt\[5\]
*105 u_uart\.clk_cnt\[6\]
*106 u_uart\.clk_cnt\[7\]
*107 u_uart\.clk_cnt\[8\]
*108 u_uart\.clk_cnt\[9\]
*109 u_uart\.state\[0\]
*110 u_uart\.state\[1\]
*111 u_uart\.state\[2\]
*112 u_uart\.state\[3\]
*113 FILLER_0_100
*114 FILLER_0_103
*115 FILLER_0_106
*116 FILLER_0_109
*117 FILLER_0_113
*118 FILLER_0_116
*119 FILLER_0_119
*120 FILLER_0_12
*121 FILLER_0_125
*122 FILLER_0_128
*123 FILLER_0_18
*124 FILLER_0_21
*125 FILLER_0_24
*126 FILLER_0_27
*127 FILLER_0_29
*128 FILLER_0_32
*129 FILLER_0_35
*130 FILLER_0_38
*131 FILLER_0_41
*132 FILLER_0_44
*133 FILLER_0_47
*134 FILLER_0_50
*135 FILLER_0_53
*136 FILLER_0_57
*137 FILLER_0_6
*138 FILLER_0_60
*139 FILLER_0_63
*140 FILLER_0_66
*141 FILLER_0_72
*142 FILLER_0_75
*143 FILLER_0_78
*144 FILLER_0_81
*145 FILLER_0_85
*146 FILLER_0_88
*147 FILLER_0_9
*148 FILLER_0_91
*149 FILLER_0_94
*150 FILLER_0_97
*151 FILLER_10_102
*152 FILLER_10_105
*153 FILLER_10_108
*154 FILLER_10_19
*155 FILLER_10_22
*156 FILLER_10_25
*157 FILLER_10_29
*158 FILLER_10_3
*159 FILLER_10_32
*160 FILLER_10_35
*161 FILLER_10_38
*162 FILLER_10_41
*163 FILLER_10_44
*164 FILLER_10_47
*165 FILLER_10_50
*166 FILLER_10_53
*167 FILLER_10_56
*168 FILLER_10_59
*169 FILLER_10_62
*170 FILLER_10_65
*171 FILLER_10_68
*172 FILLER_10_71
*173 FILLER_10_74
*174 FILLER_10_77
*175 FILLER_10_80
*176 FILLER_10_83
*177 FILLER_10_90
*178 FILLER_10_93
*179 FILLER_10_96
*180 FILLER_10_99
*181 FILLER_11_100
*182 FILLER_11_103
*183 FILLER_11_106
*184 FILLER_11_109
*185 FILLER_11_113
*186 FILLER_11_116
*187 FILLER_11_119
*188 FILLER_11_130
*189 FILLER_11_133
*190 FILLER_11_136
*191 FILLER_11_29
*192 FILLER_11_3
*193 FILLER_11_38
*194 FILLER_11_41
*195 FILLER_11_44
*196 FILLER_11_47
*197 FILLER_11_50
*198 FILLER_11_53
*199 FILLER_11_57
*200 FILLER_11_6
*201 FILLER_11_60
*202 FILLER_11_82
*203 FILLER_11_85
*204 FILLER_11_88
*205 FILLER_11_91
*206 FILLER_11_94
*207 FILLER_11_97
*208 FILLER_12_100
*209 FILLER_12_103
*210 FILLER_12_106
*211 FILLER_12_109
*212 FILLER_12_112
*213 FILLER_12_115
*214 FILLER_12_118
*215 FILLER_12_12
*216 FILLER_12_121
*217 FILLER_12_124
*218 FILLER_12_127
*219 FILLER_12_130
*220 FILLER_12_133
*221 FILLER_12_15
*222 FILLER_12_18
*223 FILLER_12_21
*224 FILLER_12_24
*225 FILLER_12_27
*226 FILLER_12_3
*227 FILLER_12_37
*228 FILLER_12_40
*229 FILLER_12_43
*230 FILLER_12_46
*231 FILLER_12_49
*232 FILLER_12_57
*233 FILLER_12_6
*234 FILLER_12_60
*235 FILLER_12_63
*236 FILLER_12_66
*237 FILLER_12_69
*238 FILLER_12_80
*239 FILLER_12_83
*240 FILLER_12_85
*241 FILLER_12_88
*242 FILLER_12_9
*243 FILLER_12_91
*244 FILLER_12_94
*245 FILLER_12_97
*246 FILLER_13_108
*247 FILLER_13_111
*248 FILLER_13_12
*249 FILLER_13_126
*250 FILLER_13_129
*251 FILLER_13_132
*252 FILLER_13_135
*253 FILLER_13_3
*254 FILLER_13_36
*255 FILLER_13_39
*256 FILLER_13_42
*257 FILLER_13_45
*258 FILLER_13_48
*259 FILLER_13_6
*260 FILLER_13_86
*261 FILLER_13_89
*262 FILLER_13_9
*263 FILLER_13_92
*264 FILLER_13_95
*265 FILLER_13_98
*266 FILLER_14_106
*267 FILLER_14_114
*268 FILLER_14_12
*269 FILLER_14_15
*270 FILLER_14_18
*271 FILLER_14_27
*272 FILLER_14_3
*273 FILLER_14_36
*274 FILLER_14_39
*275 FILLER_14_42
*276 FILLER_14_45
*277 FILLER_14_48
*278 FILLER_14_6
*279 FILLER_14_78
*280 FILLER_14_81
*281 FILLER_14_9
*282 FILLER_15_110
*283 FILLER_15_119
*284 FILLER_15_12
*285 FILLER_15_122
*286 FILLER_15_125
*287 FILLER_15_128
*288 FILLER_15_131
*289 FILLER_15_134
*290 FILLER_15_15
*291 FILLER_15_18
*292 FILLER_15_21
*293 FILLER_15_24
*294 FILLER_15_27
*295 FILLER_15_3
*296 FILLER_15_30
*297 FILLER_15_33
*298 FILLER_15_36
*299 FILLER_15_39
*300 FILLER_15_42
*301 FILLER_15_45
*302 FILLER_15_48
*303 FILLER_15_51
*304 FILLER_15_54
*305 FILLER_15_57
*306 FILLER_15_6
*307 FILLER_15_87
*308 FILLER_15_9
*309 FILLER_15_90
*310 FILLER_15_93
*311 FILLER_15_96
*312 FILLER_15_99
*313 FILLER_16_100
*314 FILLER_16_103
*315 FILLER_16_112
*316 FILLER_16_115
*317 FILLER_16_118
*318 FILLER_16_12
*319 FILLER_16_121
*320 FILLER_16_124
*321 FILLER_16_127
*322 FILLER_16_130
*323 FILLER_16_133
*324 FILLER_16_136
*325 FILLER_16_15
*326 FILLER_16_18
*327 FILLER_16_21
*328 FILLER_16_24
*329 FILLER_16_27
*330 FILLER_16_42
*331 FILLER_16_45
*332 FILLER_16_48
*333 FILLER_16_51
*334 FILLER_16_54
*335 FILLER_16_57
*336 FILLER_16_6
*337 FILLER_16_60
*338 FILLER_16_63
*339 FILLER_16_66
*340 FILLER_16_69
*341 FILLER_16_72
*342 FILLER_16_75
*343 FILLER_16_78
*344 FILLER_16_81
*345 FILLER_16_85
*346 FILLER_16_88
*347 FILLER_16_9
*348 FILLER_16_91
*349 FILLER_16_94
*350 FILLER_16_97
*351 FILLER_17_102
*352 FILLER_17_105
*353 FILLER_17_108
*354 FILLER_17_111
*355 FILLER_17_113
*356 FILLER_17_116
*357 FILLER_17_119
*358 FILLER_17_12
*359 FILLER_17_122
*360 FILLER_17_125
*361 FILLER_17_128
*362 FILLER_17_131
*363 FILLER_17_134
*364 FILLER_17_15
*365 FILLER_17_18
*366 FILLER_17_21
*367 FILLER_17_24
*368 FILLER_17_27
*369 FILLER_17_3
*370 FILLER_17_49
*371 FILLER_17_52
*372 FILLER_17_55
*373 FILLER_17_57
*374 FILLER_17_6
*375 FILLER_17_60
*376 FILLER_17_63
*377 FILLER_17_66
*378 FILLER_17_69
*379 FILLER_17_72
*380 FILLER_17_75
*381 FILLER_17_78
*382 FILLER_17_81
*383 FILLER_17_84
*384 FILLER_17_87
*385 FILLER_17_9
*386 FILLER_17_90
*387 FILLER_17_93
*388 FILLER_17_96
*389 FILLER_17_99
*390 FILLER_18_100
*391 FILLER_18_103
*392 FILLER_18_12
*393 FILLER_18_120
*394 FILLER_18_123
*395 FILLER_18_126
*396 FILLER_18_129
*397 FILLER_18_132
*398 FILLER_18_135
*399 FILLER_18_15
*400 FILLER_18_18
*401 FILLER_18_21
*402 FILLER_18_24
*403 FILLER_18_27
*404 FILLER_18_29
*405 FILLER_18_3
*406 FILLER_18_32
*407 FILLER_18_35
*408 FILLER_18_38
*409 FILLER_18_41
*410 FILLER_18_44
*411 FILLER_18_47
*412 FILLER_18_6
*413 FILLER_18_67
*414 FILLER_18_70
*415 FILLER_18_73
*416 FILLER_18_76
*417 FILLER_18_85
*418 FILLER_18_9
*419 FILLER_18_91
*420 FILLER_18_94
*421 FILLER_18_97
*422 FILLER_19_105
*423 FILLER_19_108
*424 FILLER_19_111
*425 FILLER_19_113
*426 FILLER_19_12
*427 FILLER_19_15
*428 FILLER_19_18
*429 FILLER_19_21
*430 FILLER_19_24
*431 FILLER_19_27
*432 FILLER_19_3
*433 FILLER_19_30
*434 FILLER_19_33
*435 FILLER_19_36
*436 FILLER_19_39
*437 FILLER_19_42
*438 FILLER_19_45
*439 FILLER_19_48
*440 FILLER_19_57
*441 FILLER_19_6
*442 FILLER_19_80
*443 FILLER_19_9
*444 FILLER_19_90
*445 FILLER_1_101
*446 FILLER_1_104
*447 FILLER_1_107
*448 FILLER_1_110
*449 FILLER_1_113
*450 FILLER_1_12
*451 FILLER_1_15
*452 FILLER_1_18
*453 FILLER_1_21
*454 FILLER_1_3
*455 FILLER_1_44
*456 FILLER_1_47
*457 FILLER_1_57
*458 FILLER_1_6
*459 FILLER_1_60
*460 FILLER_1_63
*461 FILLER_1_66
*462 FILLER_1_69
*463 FILLER_1_72
*464 FILLER_1_9
*465 FILLER_1_95
*466 FILLER_1_98
*467 FILLER_20_12
*468 FILLER_20_127
*469 FILLER_20_130
*470 FILLER_20_133
*471 FILLER_20_136
*472 FILLER_20_15
*473 FILLER_20_18
*474 FILLER_20_21
*475 FILLER_20_24
*476 FILLER_20_27
*477 FILLER_20_29
*478 FILLER_20_3
*479 FILLER_20_32
*480 FILLER_20_35
*481 FILLER_20_38
*482 FILLER_20_41
*483 FILLER_20_44
*484 FILLER_20_47
*485 FILLER_20_6
*486 FILLER_20_71
*487 FILLER_20_74
*488 FILLER_20_77
*489 FILLER_20_80
*490 FILLER_20_83
*491 FILLER_20_9
*492 FILLER_21_102
*493 FILLER_21_105
*494 FILLER_21_108
*495 FILLER_21_111
*496 FILLER_21_113
*497 FILLER_21_116
*498 FILLER_21_119
*499 FILLER_21_12
*500 FILLER_21_122
*501 FILLER_21_125
*502 FILLER_21_128
*503 FILLER_21_131
*504 FILLER_21_134
*505 FILLER_21_15
*506 FILLER_21_18
*507 FILLER_21_21
*508 FILLER_21_24
*509 FILLER_21_27
*510 FILLER_21_3
*511 FILLER_21_30
*512 FILLER_21_33
*513 FILLER_21_36
*514 FILLER_21_39
*515 FILLER_21_42
*516 FILLER_21_45
*517 FILLER_21_48
*518 FILLER_21_51
*519 FILLER_21_54
*520 FILLER_21_57
*521 FILLER_21_6
*522 FILLER_21_60
*523 FILLER_21_63
*524 FILLER_21_66
*525 FILLER_21_69
*526 FILLER_21_72
*527 FILLER_21_75
*528 FILLER_21_78
*529 FILLER_21_81
*530 FILLER_21_84
*531 FILLER_21_87
*532 FILLER_21_9
*533 FILLER_21_90
*534 FILLER_21_93
*535 FILLER_21_96
*536 FILLER_21_99
*537 FILLER_22_100
*538 FILLER_22_103
*539 FILLER_22_106
*540 FILLER_22_109
*541 FILLER_22_113
*542 FILLER_22_116
*543 FILLER_22_119
*544 FILLER_22_12
*545 FILLER_22_125
*546 FILLER_22_128
*547 FILLER_22_131
*548 FILLER_22_15
*549 FILLER_22_18
*550 FILLER_22_21
*551 FILLER_22_24
*552 FILLER_22_27
*553 FILLER_22_29
*554 FILLER_22_32
*555 FILLER_22_35
*556 FILLER_22_38
*557 FILLER_22_41
*558 FILLER_22_44
*559 FILLER_22_47
*560 FILLER_22_50
*561 FILLER_22_53
*562 FILLER_22_57
*563 FILLER_22_6
*564 FILLER_22_60
*565 FILLER_22_63
*566 FILLER_22_66
*567 FILLER_22_72
*568 FILLER_22_75
*569 FILLER_22_78
*570 FILLER_22_81
*571 FILLER_22_85
*572 FILLER_22_88
*573 FILLER_22_9
*574 FILLER_22_91
*575 FILLER_22_94
*576 FILLER_22_97
*577 FILLER_2_100
*578 FILLER_2_128
*579 FILLER_2_131
*580 FILLER_2_134
*581 FILLER_2_29
*582 FILLER_2_3
*583 FILLER_2_32
*584 FILLER_2_35
*585 FILLER_2_38
*586 FILLER_2_41
*587 FILLER_2_6
*588 FILLER_2_64
*589 FILLER_2_67
*590 FILLER_2_70
*591 FILLER_2_73
*592 FILLER_2_85
*593 FILLER_2_88
*594 FILLER_3_100
*595 FILLER_3_103
*596 FILLER_3_106
*597 FILLER_3_109
*598 FILLER_3_113
*599 FILLER_3_116
*600 FILLER_3_119
*601 FILLER_3_122
*602 FILLER_3_125
*603 FILLER_3_128
*604 FILLER_3_131
*605 FILLER_3_134
*606 FILLER_3_23
*607 FILLER_3_26
*608 FILLER_3_29
*609 FILLER_3_3
*610 FILLER_3_32
*611 FILLER_3_35
*612 FILLER_3_38
*613 FILLER_3_41
*614 FILLER_3_44
*615 FILLER_3_57
*616 FILLER_3_6
*617 FILLER_3_60
*618 FILLER_3_63
*619 FILLER_3_66
*620 FILLER_3_69
*621 FILLER_3_72
*622 FILLER_3_75
*623 FILLER_3_78
*624 FILLER_3_9
*625 FILLER_4_102
*626 FILLER_4_105
*627 FILLER_4_108
*628 FILLER_4_111
*629 FILLER_4_12
*630 FILLER_4_122
*631 FILLER_4_125
*632 FILLER_4_128
*633 FILLER_4_131
*634 FILLER_4_134
*635 FILLER_4_18
*636 FILLER_4_21
*637 FILLER_4_29
*638 FILLER_4_3
*639 FILLER_4_32
*640 FILLER_4_35
*641 FILLER_4_38
*642 FILLER_4_41
*643 FILLER_4_44
*644 FILLER_4_47
*645 FILLER_4_50
*646 FILLER_4_53
*647 FILLER_4_56
*648 FILLER_4_59
*649 FILLER_4_6
*650 FILLER_4_62
*651 FILLER_4_65
*652 FILLER_4_68
*653 FILLER_4_71
*654 FILLER_4_74
*655 FILLER_4_77
*656 FILLER_4_80
*657 FILLER_4_9
*658 FILLER_4_93
*659 FILLER_4_96
*660 FILLER_4_99
*661 FILLER_5_100
*662 FILLER_5_103
*663 FILLER_5_106
*664 FILLER_5_109
*665 FILLER_5_113
*666 FILLER_5_12
*667 FILLER_5_136
*668 FILLER_5_15
*669 FILLER_5_18
*670 FILLER_5_3
*671 FILLER_5_33
*672 FILLER_5_38
*673 FILLER_5_41
*674 FILLER_5_44
*675 FILLER_5_47
*676 FILLER_5_6
*677 FILLER_5_66
*678 FILLER_5_69
*679 FILLER_5_72
*680 FILLER_5_75
*681 FILLER_5_78
*682 FILLER_5_81
*683 FILLER_5_84
*684 FILLER_5_87
*685 FILLER_5_9
*686 FILLER_5_94
*687 FILLER_5_97
*688 FILLER_6_102
*689 FILLER_6_105
*690 FILLER_6_108
*691 FILLER_6_111
*692 FILLER_6_12
*693 FILLER_6_120
*694 FILLER_6_123
*695 FILLER_6_126
*696 FILLER_6_129
*697 FILLER_6_132
*698 FILLER_6_135
*699 FILLER_6_15
*700 FILLER_6_22
*701 FILLER_6_25
*702 FILLER_6_29
*703 FILLER_6_3
*704 FILLER_6_32
*705 FILLER_6_35
*706 FILLER_6_38
*707 FILLER_6_41
*708 FILLER_6_44
*709 FILLER_6_47
*710 FILLER_6_58
*711 FILLER_6_6
*712 FILLER_6_61
*713 FILLER_6_64
*714 FILLER_6_67
*715 FILLER_6_70
*716 FILLER_6_73
*717 FILLER_6_76
*718 FILLER_6_85
*719 FILLER_6_88
*720 FILLER_6_9
*721 FILLER_6_93
*722 FILLER_6_96
*723 FILLER_6_99
*724 FILLER_7_102
*725 FILLER_7_105
*726 FILLER_7_108
*727 FILLER_7_111
*728 FILLER_7_113
*729 FILLER_7_116
*730 FILLER_7_119
*731 FILLER_7_12
*732 FILLER_7_122
*733 FILLER_7_125
*734 FILLER_7_128
*735 FILLER_7_131
*736 FILLER_7_134
*737 FILLER_7_15
*738 FILLER_7_18
*739 FILLER_7_21
*740 FILLER_7_24
*741 FILLER_7_27
*742 FILLER_7_3
*743 FILLER_7_30
*744 FILLER_7_33
*745 FILLER_7_36
*746 FILLER_7_39
*747 FILLER_7_42
*748 FILLER_7_45
*749 FILLER_7_6
*750 FILLER_7_62
*751 FILLER_7_65
*752 FILLER_7_68
*753 FILLER_7_9
*754 FILLER_7_96
*755 FILLER_7_99
*756 FILLER_8_101
*757 FILLER_8_104
*758 FILLER_8_107
*759 FILLER_8_110
*760 FILLER_8_12
*761 FILLER_8_124
*762 FILLER_8_127
*763 FILLER_8_130
*764 FILLER_8_133
*765 FILLER_8_136
*766 FILLER_8_15
*767 FILLER_8_24
*768 FILLER_8_27
*769 FILLER_8_34
*770 FILLER_8_37
*771 FILLER_8_40
*772 FILLER_8_43
*773 FILLER_8_6
*774 FILLER_8_67
*775 FILLER_8_70
*776 FILLER_8_73
*777 FILLER_8_76
*778 FILLER_8_79
*779 FILLER_8_82
*780 FILLER_8_85
*781 FILLER_8_9
*782 FILLER_8_95
*783 FILLER_8_98
*784 FILLER_9_102
*785 FILLER_9_134
*786 FILLER_9_3
*787 FILLER_9_39
*788 FILLER_9_42
*789 FILLER_9_45
*790 FILLER_9_48
*791 FILLER_9_6
*792 FILLER_9_60
*793 FILLER_9_63
*794 FILLER_9_66
*795 FILLER_9_69
*796 FILLER_9_72
*797 FILLER_9_75
*798 FILLER_9_9
*799 FILLER_9_99
*800 PHY_EDGE_ROW_0_Left_23
*801 PHY_EDGE_ROW_0_Right_0
*802 PHY_EDGE_ROW_10_Left_33
*803 PHY_EDGE_ROW_10_Right_10
*804 PHY_EDGE_ROW_11_Left_34
*805 PHY_EDGE_ROW_11_Right_11
*806 PHY_EDGE_ROW_12_Left_35
*807 PHY_EDGE_ROW_12_Right_12
*808 PHY_EDGE_ROW_13_Left_36
*809 PHY_EDGE_ROW_13_Right_13
*810 PHY_EDGE_ROW_14_Left_37
*811 PHY_EDGE_ROW_14_Right_14
*812 PHY_EDGE_ROW_15_Left_38
*813 PHY_EDGE_ROW_15_Right_15
*814 PHY_EDGE_ROW_16_Left_39
*815 PHY_EDGE_ROW_16_Right_16
*816 PHY_EDGE_ROW_17_Left_40
*817 PHY_EDGE_ROW_17_Right_17
*818 PHY_EDGE_ROW_18_Left_41
*819 PHY_EDGE_ROW_18_Right_18
*820 PHY_EDGE_ROW_19_Left_42
*821 PHY_EDGE_ROW_19_Right_19
*822 PHY_EDGE_ROW_1_Left_24
*823 PHY_EDGE_ROW_1_Right_1
*824 PHY_EDGE_ROW_20_Left_43
*825 PHY_EDGE_ROW_20_Right_20
*826 PHY_EDGE_ROW_21_Left_44
*827 PHY_EDGE_ROW_21_Right_21
*828 PHY_EDGE_ROW_22_Left_45
*829 PHY_EDGE_ROW_22_Right_22
*830 PHY_EDGE_ROW_2_Left_25
*831 PHY_EDGE_ROW_2_Right_2
*832 PHY_EDGE_ROW_3_Left_26
*833 PHY_EDGE_ROW_3_Right_3
*834 PHY_EDGE_ROW_4_Left_27
*835 PHY_EDGE_ROW_4_Right_4
*836 PHY_EDGE_ROW_5_Left_28
*837 PHY_EDGE_ROW_5_Right_5
*838 PHY_EDGE_ROW_6_Left_29
*839 PHY_EDGE_ROW_6_Right_6
*840 PHY_EDGE_ROW_7_Left_30
*841 PHY_EDGE_ROW_7_Right_7
*842 PHY_EDGE_ROW_8_Left_31
*843 PHY_EDGE_ROW_8_Right_8
*844 PHY_EDGE_ROW_9_Left_32
*845 PHY_EDGE_ROW_9_Right_9
*846 TAP_TAPCELL_ROW_0_46
*847 TAP_TAPCELL_ROW_0_47
*848 TAP_TAPCELL_ROW_0_48
*849 TAP_TAPCELL_ROW_0_49
*850 TAP_TAPCELL_ROW_10_68
*851 TAP_TAPCELL_ROW_10_69
*852 TAP_TAPCELL_ROW_11_70
*853 TAP_TAPCELL_ROW_11_71
*854 TAP_TAPCELL_ROW_12_72
*855 TAP_TAPCELL_ROW_12_73
*856 TAP_TAPCELL_ROW_13_74
*857 TAP_TAPCELL_ROW_13_75
*858 TAP_TAPCELL_ROW_14_76
*859 TAP_TAPCELL_ROW_14_77
*860 TAP_TAPCELL_ROW_15_78
*861 TAP_TAPCELL_ROW_15_79
*862 TAP_TAPCELL_ROW_16_80
*863 TAP_TAPCELL_ROW_16_81
*864 TAP_TAPCELL_ROW_17_82
*865 TAP_TAPCELL_ROW_17_83
*866 TAP_TAPCELL_ROW_18_84
*867 TAP_TAPCELL_ROW_18_85
*868 TAP_TAPCELL_ROW_19_86
*869 TAP_TAPCELL_ROW_19_87
*870 TAP_TAPCELL_ROW_1_50
*871 TAP_TAPCELL_ROW_1_51
*872 TAP_TAPCELL_ROW_20_88
*873 TAP_TAPCELL_ROW_20_89
*874 TAP_TAPCELL_ROW_21_90
*875 TAP_TAPCELL_ROW_21_91
*876 TAP_TAPCELL_ROW_22_92
*877 TAP_TAPCELL_ROW_22_93
*878 TAP_TAPCELL_ROW_22_94
*879 TAP_TAPCELL_ROW_22_95
*880 TAP_TAPCELL_ROW_2_52
*881 TAP_TAPCELL_ROW_2_53
*882 TAP_TAPCELL_ROW_3_54
*883 TAP_TAPCELL_ROW_3_55
*884 TAP_TAPCELL_ROW_4_56
*885 TAP_TAPCELL_ROW_4_57
*886 TAP_TAPCELL_ROW_5_58
*887 TAP_TAPCELL_ROW_5_59
*888 TAP_TAPCELL_ROW_6_60
*889 TAP_TAPCELL_ROW_6_61
*890 TAP_TAPCELL_ROW_7_62
*891 TAP_TAPCELL_ROW_7_63
*892 TAP_TAPCELL_ROW_8_64
*893 TAP_TAPCELL_ROW_8_65
*894 TAP_TAPCELL_ROW_9_66
*895 TAP_TAPCELL_ROW_9_67
*896 _067_
*897 _068_
*898 _069_
*899 _070_
*900 _071_
*901 _072_
*902 _073_
*903 _074_
*904 _075_
*905 _076_
*906 _077_
*907 _078_
*908 _079_
*909 _080_
*910 _081_
*911 _082_
*912 _083_
*913 _084_
*914 _085_
*915 _086_
*916 _087_
*917 _088_
*918 _089_
*919 _090_
*920 _091_
*921 _092_
*922 _093_
*923 _094_
*924 _095_
*925 _096_
*926 _097_
*927 _098_
*928 _099_
*929 _100_
*930 _101_
*931 _102_
*932 _103_
*933 _104_
*934 _105_
*935 _106_
*936 _107_
*937 _108_
*938 _109_
*939 _110_
*940 _111_
*941 _112_
*942 _113_
*943 _114_
*944 _115_
*945 _116_
*946 _117_
*947 _118_
*948 _119_
*949 _120_
*950 _121_
*951 _122_
*952 _123_
*953 _124_
*954 _125_
*955 _126_
*956 _127_
*957 _128_
*958 _129_
*959 _130_
*960 _131_
*961 _132_
*962 _133_
*963 _134_
*964 _135_
*965 _136_
*966 _137_
*967 _138_
*968 _139_
*969 _140_
*970 _141_
*971 _142_
*972 _143_
*973 _144_
*974 _145_
*975 _146_
*976 _147_
*977 _148_
*978 _149_
*979 _150_
*980 _151_
*981 _152_
*982 _153_
*983 _154_
*984 _155_
*985 _156_
*986 _157_
*987 clkbuf_0_clk
*988 clkbuf_1_0__f_clk
*989 clkbuf_1_1__f_clk
*990 clkload0
*991 hold13
*992 input1
*993 max_cap3
*994 output2
*995 soc_top
*996 soc_top_10
*997 soc_top_11
*998 soc_top_12
*999 soc_top_4
*1000 soc_top_5
*1001 soc_top_6
*1002 soc_top_7
*1003 soc_top_8
*1004 soc_top_9

*PORTS
clk I
led[0] O
led[1] O
led[2] O
led[3] O
led[4] O
led[5] O
led[6] O
led[7] O
mbox_c0_to_c1_flag O
mbox_c1_to_c0_flag O
rst_n I
uart_tx O

*D_NET *3 0.00737062
*CONN
*P clk I
*I *987:A I *D sky130_fd_sc_hd__clkbuf_16
*CAP
1 clk 0.000559668
2 *987:A 6.19034e-05
3 *3:14 0.000537927
4 *3:10 0.00270841
5 *3:8 0.00279206
6 *987:A *54:6 7.64147e-05
7 *3:10 *903:C 0
8 *3:10 *903:D_N 0
9 *3:10 *934:B 3.04519e-05
10 *3:10 *969:RESET_B 0
11 *3:10 *26:10 0
12 *3:10 *73:35 1.97353e-05
13 *3:14 *54:6 0.000584057
*RES
1 clk *3:8 10.1019 
2 *3:8 *3:10 45.0432 
3 *3:10 *3:14 24.5493 
4 *3:14 *987:A 24.6986 
*END

*D_NET *4 0.00133489
*CONN
*P led[0] O
*I *995:LO O *D sky130_fd_sc_hd__conb_1
*CAP
1 led[0] 0.000667443
2 *995:LO 0
3 *4:6 0.000667443
*RES
1 *995:LO *4:6 38 
2 *4:6 led[0] 21.8108 
*END

*D_NET *5 0.00131543
*CONN
*P led[1] O
*I *999:LO O *D sky130_fd_sc_hd__conb_1
*CAP
1 led[1] 0.000657715
2 *999:LO 0
3 *5:6 0.000657715
*RES
1 *999:LO *5:6 38 
2 *5:6 led[1] 21.7734 
*END

*D_NET *6 0.00121145
*CONN
*P led[2] O
*I *1000:LO O *D sky130_fd_sc_hd__conb_1
*CAP
1 led[2] 0.000605726
2 *1000:LO 0
3 *6:6 0.000605726
*RES
1 *1000:LO *6:6 38 
2 *6:6 led[2] 20.4022 
*END

*D_NET *7 0.001192
*CONN
*P led[3] O
*I *1001:LO O *D sky130_fd_sc_hd__conb_1
*CAP
1 led[3] 0.000595998
2 *1001:LO 0
3 *7:6 0.000595998
4 led[3] *88:10 0
*RES
1 *1001:LO *7:6 38 
2 *7:6 led[3] 20.3649 
*END

*D_NET *8 0.000936779
*CONN
*P led[4] O
*I *1002:LO O *D sky130_fd_sc_hd__conb_1
*CAP
1 led[4] 0.00046839
2 *1002:LO 0.00046839
*RES
1 *1002:LO led[4] 47.7461 
*END

*D_NET *9 0.000842331
*CONN
*P led[5] O
*I *1003:LO O *D sky130_fd_sc_hd__conb_1
*CAP
1 led[5] 0.000421165
2 *1003:LO 0.000421165
*RES
1 *1003:LO led[5] 46.5239 
*END

*D_NET *10 0.00090811
*CONN
*P led[6] O
*I *1004:LO O *D sky130_fd_sc_hd__conb_1
*CAP
1 led[6] 0.000454055
2 *1004:LO 0.000454055
*RES
1 *1004:LO led[6] 47.8807 
*END

*D_NET *11 0.000866517
*CONN
*P led[7] O
*I *996:LO O *D sky130_fd_sc_hd__conb_1
*CAP
1 led[7] 0.000433258
2 *996:LO 0.000433258
*RES
1 *996:LO led[7] 46.8139 
*END

*D_NET *12 0.000890704
*CONN
*P mbox_c0_to_c1_flag O
*I *998:LO O *D sky130_fd_sc_hd__conb_1
*CAP
1 mbox_c0_to_c1_flag 0.000445352
2 *998:LO 0.000445352
*RES
1 *998:LO mbox_c0_to_c1_flag 46.9486 
*END

*D_NET *13 0.00107296
*CONN
*P mbox_c1_to_c0_flag O
*I *997:LO O *D sky130_fd_sc_hd__conb_1
*CAP
1 mbox_c1_to_c0_flag 0.000536478
2 *997:LO 0.000536478
*RES
1 *997:LO mbox_c1_to_c0_flag 48.2018 
*END

*D_NET *14 0.00130661
*CONN
*P rst_n I
*I *992:A I *D sky130_fd_sc_hd__buf_1
*CAP
1 rst_n 0.000653306
2 *992:A 0
3 *14:13 0.000653306
*RES
1 rst_n *14:13 36.0162 
2 *14:13 *992:A 23 
*END

*D_NET *15 0.00100734
*CONN
*P uart_tx O
*I *994:X O *D sky130_fd_sc_hd__clkdlybuf4s25_1
*CAP
1 uart_tx 0.000503672
2 *994:X 0.000503672
*RES
1 *994:X uart_tx 47.5804 
*END

*D_NET *16 0.000351735
*CONN
*I *984:D I *D sky130_fd_sc_hd__dfrtp_2
*I *906:X O *D sky130_fd_sc_hd__and2_2
*CAP
1 *984:D 0.000125628
2 *906:X 0.000125628
3 *984:D *906:A 2.17633e-05
4 *984:D *984:CLK 7.87147e-05
*RES
1 *906:X *984:D 48.5271 
*END

*D_NET *17 0.000612558
*CONN
*I *982:D I *D sky130_fd_sc_hd__dfstp_2
*I *913:Y O *D sky130_fd_sc_hd__a21boi_2
*CAP
1 *982:D 0
2 *913:Y 0.000189231
3 *17:10 0.000189231
4 *17:10 *982:CLK 0.000137594
5 *17:10 *982:SET_B 9.65021e-05
*RES
1 *913:Y *17:10 41.3557 
2 *17:10 *982:D 38 
*END

*D_NET *18 0.000596438
*CONN
*I *983:D I *D sky130_fd_sc_hd__dfrtp_2
*I *911:Y O *D sky130_fd_sc_hd__o21ai_2
*CAP
1 *983:D 3.97922e-05
2 *911:Y 0.000150526
3 *18:10 0.000190318
4 *983:D *110:10 1.23353e-05
5 *18:10 *911:A1 5.56279e-05
6 *18:10 *49:12 1.03972e-05
7 *18:10 *56:89 0
8 *18:10 *59:10 0.000137441
*RES
1 *911:Y *18:10 41.2314 
2 *18:10 *983:D 38.6214 
*END

*D_NET *19 0.000748466
*CONN
*I *985:D I *D sky130_fd_sc_hd__dfrtp_2
*I *909:X O *D sky130_fd_sc_hd__a21bo_2
*CAP
1 *985:D 3.41456e-05
2 *909:X 0.000178975
3 *19:10 0.00021312
4 *985:D *84:69 1.41244e-05
5 *19:10 *51:6 5.53064e-05
6 *19:10 *84:10 6.3861e-05
7 *19:10 *109:27 8.88657e-05
8 *19:10 *109:39 0.000100069
*RES
1 *909:X *19:10 41.9564 
2 *19:10 *985:D 38.6214 
*END

*D_NET *20 0.000439733
*CONN
*I *963:D I *D sky130_fd_sc_hd__dfrtp_2
*I *917:Y O *D sky130_fd_sc_hd__nor2_2
*CAP
1 *963:D 0
2 *917:Y 0.000108465
3 *20:8 0.000108465
4 *20:8 *62:10 0.000222802
*RES
1 *917:Y *20:8 40.9621 
2 *20:8 *963:D 38 
*END

*D_NET *21 0.00058069
*CONN
*I *964:D I *D sky130_fd_sc_hd__dfrtp_2
*I *923:X O *D sky130_fd_sc_hd__and3_2
*CAP
1 *964:D 7.57703e-05
2 *923:X 0.000169946
3 *21:8 0.000245716
4 *964:D *964:CLK 7.87147e-05
5 *21:8 *64:10 1.05441e-05
*RES
1 *923:X *21:8 40.61 
2 *21:8 *964:D 39.5743 
*END

*D_NET *22 0.000984158
*CONN
*I *965:D I *D sky130_fd_sc_hd__dfrtp_2
*I *925:Y O *D sky130_fd_sc_hd__xnor2_2
*CAP
1 *965:D 0
2 *925:Y 0.00025014
3 *22:10 0.00025014
4 *22:10 *925:B 0.000188927
5 *22:10 *86:88 0.000197479
6 *22:10 *101:25 9.74722e-05
*RES
1 *925:Y *22:10 44.5664 
2 *22:10 *965:D 38 
*END

*D_NET *23 0.000409127
*CONN
*I *966:D I *D sky130_fd_sc_hd__dfrtp_2
*I *927:X O *D sky130_fd_sc_hd__o22a_2
*CAP
1 *966:D 0
2 *927:X 0.000204563
3 *23:10 0.000204563
*RES
1 *927:X *23:10 41.0036 
2 *23:10 *966:D 38 
*END

*D_NET *24 0.000988546
*CONN
*I *967:D I *D sky130_fd_sc_hd__dfrtp_2
*I *930:X O *D sky130_fd_sc_hd__and3_2
*CAP
1 *967:D 0
2 *930:X 0.000320438
3 *24:8 0.000320438
4 *24:8 *84:46 5.26295e-05
5 *24:8 *100:10 0.000295041
*RES
1 *930:X *24:8 45.1879 
2 *24:8 *967:D 38 
*END

*D_NET *25 0.00057123
*CONN
*I *968:D I *D sky130_fd_sc_hd__dfrtp_2
*I *933:Y O *D sky130_fd_sc_hd__a211oi_2
*CAP
1 *968:D 3.6789e-05
2 *933:Y 0.000205177
3 *25:10 0.000241966
4 *968:D *84:112 2.93431e-05
5 *25:10 *933:A1 5.79559e-05
*RES
1 *933:Y *25:10 41.48 
2 *25:10 *968:D 38.6214 
*END

*D_NET *26 0.000710246
*CONN
*I *969:D I *D sky130_fd_sc_hd__dfrtp_2
*I *934:X O *D sky130_fd_sc_hd__xor2_2
*CAP
1 *969:D 4.59532e-05
2 *934:X 0.00030917
3 *26:10 0.000355123
4 *26:10 *77:24 0
5 *3:10 *26:10 0
*RES
1 *934:X *26:10 43.8414 
2 *26:10 *969:D 38.6214 
*END

*D_NET *27 0.000518294
*CONN
*I *970:D I *D sky130_fd_sc_hd__dfrtp_2
*I *937:X O *D sky130_fd_sc_hd__and3_2
*CAP
1 *970:D 8.09258e-05
2 *937:X 0.000146972
3 *27:10 0.000227897
4 *970:D *85:30 3.57819e-05
5 *27:10 *75:10 2.67179e-05
*RES
1 *937:X *27:10 40.175 
2 *27:10 *970:D 39.5743 
*END

*D_NET *28 0.00074144
*CONN
*I *971:D I *D sky130_fd_sc_hd__dfrtp_2
*I *941:X O *D sky130_fd_sc_hd__and3_2
*CAP
1 *971:D 0
2 *941:X 0.000257779
3 *28:10 0.000257779
4 *28:10 *901:D_N 8.57577e-05
5 *28:10 *73:29 5.0613e-05
6 *28:10 *73:60 3.18811e-05
7 *28:10 *85:22 2.35118e-06
8 *28:10 *107:23 5.52801e-05
*RES
1 *941:X *28:10 42.4329 
2 *28:10 *971:D 38 
*END

*D_NET *29 0.000964383
*CONN
*I *972:D I *D sky130_fd_sc_hd__dfrtp_2
*I *942:X O *D sky130_fd_sc_hd__xor2_2
*CAP
1 *972:D 0.000137616
2 *942:X 0.000303782
3 *29:10 0.000441398
4 *972:D *972:CLK 8.15864e-05
*RES
1 *942:X *29:10 43.6964 
2 *29:10 *972:D 40.5271 
*END

*D_NET *30 0.000566451
*CONN
*I *973:D I *D sky130_fd_sc_hd__dfrtp_2
*I *946:Y O *D sky130_fd_sc_hd__nor2_2
*CAP
1 *973:D 3.65107e-05
2 *946:Y 0.000162793
3 *30:10 0.000199303
4 *973:D *79:12 6.17437e-06
5 *973:D *94:37 1.84831e-05
6 *30:10 *79:12 0.000113389
7 *30:10 *81:21 1.35999e-05
8 *30:10 *108:25 1.61983e-05
*RES
1 *946:Y *30:10 41.3557 
2 *30:10 *973:D 38.6214 
*END

*D_NET *31 0.000170203
*CONN
*I *974:D I *D sky130_fd_sc_hd__dfrtp_2
*I *949:X O *D sky130_fd_sc_hd__and2b_2
*CAP
1 *974:D 0
2 *949:X 8.51015e-05
3 *31:8 8.51015e-05
*RES
1 *949:X *31:8 39.5536 
2 *31:8 *974:D 38 
*END

*D_NET *32 0.000784598
*CONN
*I *975:D I *D sky130_fd_sc_hd__dfrtp_2
*I *950:Y O *D sky130_fd_sc_hd__xnor2_2
*CAP
1 *975:D 0
2 *950:Y 0.000254617
3 *32:10 0.000254617
4 *32:10 *976:RESET_B 0.000230056
5 *32:10 *85:107 2.67179e-05
6 *32:10 *96:10 1.85903e-05
*RES
1 *950:Y *32:10 42.0807 
2 *32:10 *975:D 38 
*END

*D_NET *33 0.000312662
*CONN
*I *976:D I *D sky130_fd_sc_hd__dfrtp_2
*I *954:Y O *D sky130_fd_sc_hd__nor2_2
*CAP
1 *976:D 0
2 *954:Y 0.000156331
3 *33:8 0.000156331
*RES
1 *954:Y *33:8 40.61 
2 *33:8 *976:D 38 
*END

*D_NET *34 0.00140152
*CONN
*I *977:D I *D sky130_fd_sc_hd__dfrtp_2
*I *956:X O *D sky130_fd_sc_hd__o21ba_2
*CAP
1 *977:D 0.000470431
2 *956:X 5.87921e-05
3 *34:8 0.000529223
4 *977:D *978:CLK 0.00020833
5 *977:D *89:131 4.89921e-05
6 *34:8 *956:A2 8.57485e-05
*RES
1 *956:X *34:8 39.2014 
2 *34:8 *977:D 45.3121 
*END

*D_NET *35 0.000761332
*CONN
*I *978:D I *D sky130_fd_sc_hd__dfrtp_2
*I *957:X O *D sky130_fd_sc_hd__xor2_2
*CAP
1 *978:D 0.000135265
2 *957:X 0.000124358
3 *35:8 0.000259624
4 *978:D *99:10 9.50872e-05
5 *35:8 *978:RESET_B 0.000110267
6 *35:8 *89:135 3.673e-05
*RES
1 *957:X *35:8 40.61 
2 *35:8 *978:D 41.0036 
*END

*D_NET *36 0.000681384
*CONN
*I *979:D I *D sky130_fd_sc_hd__dfrtp_2
*I *960:Y O *D sky130_fd_sc_hd__nor2_2
*CAP
1 *979:D 0
2 *960:Y 0.000284961
3 *36:10 0.000284961
4 *36:10 *55:14 0.000111462
*RES
1 *960:Y *36:10 42.0807 
2 *36:10 *979:D 38 
*END

*D_NET *37 0.000762208
*CONN
*I *980:D I *D sky130_fd_sc_hd__dfrtp_2
*I *961:X O *D sky130_fd_sc_hd__xor2_2
*CAP
1 *980:D 3.66488e-05
2 *961:X 0.000329788
3 *37:8 0.000366437
4 *980:D *91:8 2.93335e-05
5 *37:8 *980:CLK 0
6 *37:8 *981:CLK 0
7 *37:8 *981:RESET_B 0
*RES
1 *961:X *37:8 43.7793 
2 *37:8 *980:D 38.6214 
*END

*D_NET *38 0.000934074
*CONN
*I *981:D I *D sky130_fd_sc_hd__dfrtp_2
*I *962:X O *D sky130_fd_sc_hd__a21o_2
*CAP
1 *981:D 9.06714e-05
2 *962:X 0.000167775
3 *38:12 0.000258446
4 *981:D *907:C 0.000102413
5 *981:D *84:153 5.3304e-05
6 *38:12 *980:CLK 0.000103106
7 *38:12 *981:CLK 3.46993e-05
8 *38:12 *46:26 0.000111462
9 *38:12 *91:8 1.21972e-05
*RES
1 *962:X *38:12 41.1486 
2 *38:12 *981:D 40.0507 
*END

*D_NET *39 0.00298221
*CONN
*I *986:D I *D sky130_fd_sc_hd__dfstp_2
*I *913:B1_N I *D sky130_fd_sc_hd__a21boi_2
*I *912:X O *D sky130_fd_sc_hd__or2_2
*CAP
1 *986:D 0
2 *913:B1_N 0.000138132
3 *912:X 0
4 *39:25 0.000915666
5 *39:4 0.0010538
6 *913:B1_N *56:51 0.000249421
7 *39:25 *914:C 4.21921e-05
8 *39:25 *985:RESET_B 3.84404e-05
9 *39:25 *986:CLK 0.0002783
10 *39:25 *56:51 1.358e-05
11 *39:25 *109:10 0.000194393
12 *39:25 *112:14 5.82853e-05
*RES
1 *912:X *39:4 23 
2 *39:4 *913:B1_N 26.0036 
3 *39:4 *39:25 47.6071 
4 *39:25 *986:D 23 
*END

*D_NET *40 0.00074176
*CONN
*I *950:B I *D sky130_fd_sc_hd__xnor2_2
*I *949:B I *D sky130_fd_sc_hd__and2b_2
*I *948:Y O *D sky130_fd_sc_hd__nand2_2
*CAP
1 *950:B 9.51955e-05
2 *949:B 7.33192e-05
3 *948:Y 0.000110393
4 *40:10 0.000168515
5 *40:8 0.000110393
6 *949:B *89:98 5.43448e-05
7 *950:B *89:98 0.0001296
*RES
1 *948:Y *40:8 39.9057 
2 *40:8 *40:10 15 
3 *40:10 *949:B 24.595 
4 *40:10 *950:B 25.5271 
*END

*D_NET *41 0.000208432
*CONN
*I *954:A I *D sky130_fd_sc_hd__nor2_2
*I *951:Y O *D sky130_fd_sc_hd__a31oi_2
*CAP
1 *954:A 7.44594e-05
2 *951:Y 7.44594e-05
3 *954:A *954:B 5.95135e-05
*RES
1 *951:Y *954:A 47.595 
*END

*D_NET *42 0.000589162
*CONN
*I *955:D I *D sky130_fd_sc_hd__and4_2
*I *952:X O *D sky130_fd_sc_hd__and2_2
*CAP
1 *955:D 0.000194986
2 *952:X 0.000194986
3 *955:D *952:A 5.56356e-05
4 *955:D *952:B 9.65021e-05
5 *955:D *44:10 4.70524e-05
*RES
1 *952:X *955:D 49.9564 
*END

*D_NET *43 0.00371077
*CONN
*I *954:B I *D sky130_fd_sc_hd__nor2_2
*I *956:A2 I *D sky130_fd_sc_hd__o21ba_2
*I *953:X O *D sky130_fd_sc_hd__and4_2
*CAP
1 *954:B 0.000535654
2 *956:A2 0.000423476
3 *953:X 5.77742e-05
4 *43:8 0.0010169
5 *954:B *951:A1 0.000162476
6 *954:B *951:A2 7.12002e-05
7 *954:B *81:34 5.3304e-05
8 *954:B *81:38 0.000326388
9 *956:A2 *955:B 0.00016046
10 *956:A2 *955:C 0.000134439
11 *956:A2 *956:A1 0.000215925
12 *956:A2 *956:B1_N 9.66668e-05
13 *956:A2 *53:12 1.61385e-05
14 *956:A2 *81:38 8.11552e-05
15 *956:A2 *95:52 9.53759e-05
16 *956:A2 *96:16 0
17 *956:A2 *98:8 0.000106393
18 *43:8 *953:A 8.06804e-06
19 *43:8 *953:D 3.7122e-06
20 *954:A *954:B 5.95135e-05
21 *34:8 *956:A2 8.57485e-05
*RES
1 *953:X *43:8 38.6214 
2 *43:8 *956:A2 49.165 
3 *43:8 *954:B 49.2064 
*END

*D_NET *44 0.00234485
*CONN
*I *957:B I *D sky130_fd_sc_hd__xor2_2
*I *956:B1_N I *D sky130_fd_sc_hd__o21ba_2
*I *955:X O *D sky130_fd_sc_hd__and4_2
*CAP
1 *957:B 7.14963e-05
2 *956:B1_N 0.000214927
3 *955:X 0.000316312
4 *44:12 0.000286423
5 *44:10 0.000316312
6 *956:B1_N *956:A1 4.94924e-05
7 *956:B1_N *53:12 3.06472e-05
8 *956:B1_N *89:131 0.000274391
9 *957:B *89:131 0.000185618
10 *957:B *99:25 0.000100318
11 *44:10 *902:B 8.50366e-05
12 *44:10 *955:B 0
13 *44:10 *53:8 2.25792e-05
14 *44:10 *97:28 9.17321e-05
15 *44:10 *98:8 0
16 *44:10 *99:25 0.000155844
17 *955:D *44:10 4.70524e-05
18 *956:A2 *956:B1_N 9.66668e-05
*RES
1 *955:X *44:10 43.945 
2 *44:10 *44:12 15 
3 *44:12 *956:B1_N 28.4064 
4 *44:12 *957:B 2.47536 
*END

*D_NET *45 0.00137369
*CONN
*I *960:A I *D sky130_fd_sc_hd__nor2_2
*I *958:Y O *D sky130_fd_sc_hd__a21oi_2
*CAP
1 *960:A 0.000158836
2 *958:Y 0.000330002
3 *45:8 0.000488838
4 *45:8 *958:B1 3.28604e-05
5 *45:8 *959:A 0.000110258
6 *45:8 *979:RESET_B 0.000194044
7 *45:8 *90:8 5.88494e-05
*RES
1 *958:Y *45:8 45.54 
2 *45:8 *960:A 40.5271 
*END

*D_NET *46 0.00401052
*CONN
*I *960:B I *D sky130_fd_sc_hd__nor2_2
*I *962:A2 I *D sky130_fd_sc_hd__a21o_2
*I *961:B I *D sky130_fd_sc_hd__xor2_2
*I *959:X O *D sky130_fd_sc_hd__and4_2
*CAP
1 *960:B 0
2 *962:A2 0
3 *961:B 0.000980077
4 *959:X 0.000824621
5 *46:42 0.000247462
6 *46:26 0.000402918
7 *961:B *959:B 0.000230718
8 *961:B *959:C 0.000461363
9 *961:B *961:A 5.56279e-05
10 *46:26 *961:A 5.73056e-05
11 *46:26 *980:CLK 1.12919e-05
12 *46:26 *981:CLK 1.13013e-05
13 *46:26 *57:10 7.84832e-05
14 *46:26 *91:8 2.64616e-05
15 *46:26 *91:12 0.000161748
16 *46:42 *56:14 0.000349679
17 *38:12 *46:26 0.000111462
*RES
1 *959:X *961:B 36.9511 
2 *961:B *46:26 38.2443 
3 *46:26 *962:A2 23 
4 *959:X *46:42 43.3443 
5 *46:42 *960:B 38 
*END

*D_NET *47 0.00158522
*CONN
*I *933:A1 I *D sky130_fd_sc_hd__a211oi_2
*I *896:Y O *D sky130_fd_sc_hd__inv_2
*CAP
1 *933:A1 0.000165961
2 *896:Y 0.000207869
3 *47:10 0.00037383
4 *933:A1 *933:B1 8.78045e-05
5 *47:10 *60:74 4.67488e-05
6 *47:10 *65:33 0.000322528
7 *47:10 *66:10 0.000322528
8 *25:10 *933:A1 5.79559e-05
*RES
1 *896:Y *47:10 43.4686 
2 *47:10 *933:A1 41.6457 
*END

*D_NET *48 0.000911857
*CONN
*I *928:B1 I *D sky130_fd_sc_hd__o21ai_2
*I *929:A I *D sky130_fd_sc_hd__or3_2
*I *897:Y O *D sky130_fd_sc_hd__inv_2
*CAP
1 *928:B1 9.73228e-05
2 *929:A 0
3 *897:Y 9.19701e-05
4 *48:6 0.000189293
5 *928:B1 *928:A2 5.50049e-05
6 *928:B1 *100:16 4.19743e-05
7 *48:6 *71:6 5.12254e-05
8 *48:6 *71:31 7.27182e-05
9 *48:6 *100:16 0.000312348
*RES
1 *897:Y *48:6 26.48 
2 *48:6 *929:A 23 
3 *48:6 *928:B1 25.0714 
*END

*D_NET *49 0.00125952
*CONN
*I *911:A1 I *D sky130_fd_sc_hd__o21ai_2
*I *898:Y O *D sky130_fd_sc_hd__inv_2
*CAP
1 *911:A1 0.000112836
2 *898:Y 0.000248484
3 *49:12 0.000361319
4 *911:A1 *911:B1 5.3304e-05
5 *49:12 *983:RESET_B 7.23895e-05
6 *49:12 *59:10 0.00033782
7 *49:12 *110:10 7.34394e-06
8 *18:10 *911:A1 5.56279e-05
9 *18:10 *49:12 1.03972e-05
*RES
1 *898:Y *49:12 44.1936 
2 *49:12 *911:A1 40.0507 
*END

*D_NET *50 0.000288858
*CONN
*I *908:A I *D sky130_fd_sc_hd__or3_2
*I *899:Y O *D sky130_fd_sc_hd__inv_2
*CAP
1 *908:A 0
2 *899:Y 7.25277e-05
3 *50:8 7.25277e-05
4 *50:8 *56:31 0.000143803
*RES
1 *899:Y *50:8 39.9057 
2 *50:8 *908:A 38 
*END

*D_NET *51 0.00735666
*CONN
*I *913:A1 I *D sky130_fd_sc_hd__a21boi_2
*I *932:C I *D sky130_fd_sc_hd__and4b_2
*I *915:B I *D sky130_fd_sc_hd__and3_2
*I *916:A1 I *D sky130_fd_sc_hd__a21oi_2
*I *900:Y O *D sky130_fd_sc_hd__inv_2
*CAP
1 *913:A1 0
2 *932:C 0.000289237
3 *915:B 9.6879e-05
4 *916:A1 0.00020293
5 *900:Y 0.000741438
6 *51:53 0.000433026
7 *51:12 0.000382288
8 *51:10 0.000632538
9 *51:6 0.00143529
10 *915:B *915:A 1.05235e-05
11 *915:B *915:C 3.57595e-06
12 *916:A1 *916:A2 0.000335279
13 *916:A1 *916:B1 0.000169016
14 *916:A1 *93:21 0.000218382
15 *932:C *932:D 5.5792e-05
16 *932:C *60:40 0.000422171
17 *932:C *93:36 0.000237664
18 *51:10 *67:18 9.98635e-05
19 *51:12 *916:A2 9.20193e-05
20 *51:12 *60:29 4.9858e-05
21 *51:12 *60:40 7.35277e-05
22 *51:12 *93:21 0.000107276
23 *51:12 *93:36 0.000110267
24 *51:53 *982:SET_B 0.000682451
25 *51:53 *56:51 5.79559e-05
26 *51:53 *84:31 0.000362108
27 *19:10 *51:6 5.53064e-05
*RES
1 *900:Y *51:6 32.6736 
2 *51:6 *51:10 18.48 
3 *51:10 *51:12 2.96214 
4 *51:12 *916:A1 43.9657 
5 *51:12 *915:B 39.0979 
6 *51:10 *932:C 44.8771 
7 *51:6 *51:53 42.3664 
8 *51:53 *913:A1 23 
*END

*D_NET *52 0.00124608
*CONN
*I *905:A I *D sky130_fd_sc_hd__or4b_2
*I *901:X O *D sky130_fd_sc_hd__or4b_2
*CAP
1 *905:A 0
2 *901:X 0.000484
3 *52:10 0.000484
4 *52:10 *55:14 6.46271e-05
5 *52:10 *56:14 0
6 *52:10 *95:37 0.000176794
7 *52:10 *108:48 3.66555e-05
*RES
1 *901:X *52:10 45.975 
2 *52:10 *905:A 38 
*END

*D_NET *53 0.00259732
*CONN
*I *905:B I *D sky130_fd_sc_hd__or4b_2
*I *902:X O *D sky130_fd_sc_hd__or4_2
*CAP
1 *905:B 0
2 *902:X 0.000171262
3 *53:12 0.000813505
4 *53:8 0.000984766
5 *53:8 *89:131 1.94812e-05
6 *53:8 *97:28 5.58975e-06
7 *53:12 *956:A1 8.03819e-05
8 *53:12 *89:61 0.00045297
9 *956:A2 *53:12 1.61385e-05
10 *956:B1_N *53:12 3.06472e-05
11 *44:10 *53:8 2.25792e-05
*RES
1 *902:X *53:8 40.9621 
2 *53:8 *53:12 27.0557 
3 *53:12 *905:B 23 
*END

*D_NET *54 0.00425521
*CONN
*I *905:C I *D sky130_fd_sc_hd__or4b_2
*I *903:X O *D sky130_fd_sc_hd__or4b_2
*CAP
1 *905:C 0
2 *903:X 0.000599771
3 *54:16 0.000532144
4 *54:6 0.00113192
5 *54:6 *903:D_N 5.00462e-05
6 *54:16 *971:RESET_B 0.000211875
7 *54:16 *55:14 9.64943e-05
8 *54:16 *56:10 8.84338e-05
9 *54:16 *83:17 0.000206451
10 *54:16 *89:40 2.84479e-05
11 *54:16 *89:61 0.000379171
12 *54:16 *107:8 0.000269991
13 *987:A *54:6 7.64147e-05
14 *3:14 *54:6 0.000584057
*RES
1 *903:X *54:6 37.3032 
2 *54:6 *54:16 45.4736 
3 *54:16 *905:C 23 
*END

*D_NET *55 0.00462268
*CONN
*I *905:D_N I *D sky130_fd_sc_hd__or4b_2
*I *904:X O *D sky130_fd_sc_hd__and4b_2
*CAP
1 *905:D_N 0
2 *904:X 0.00044958
3 *55:14 0.000991415
4 *55:8 0.00144099
5 *55:14 *901:C 0.000240031
6 *55:14 *56:10 1.24376e-05
7 *55:14 *84:10 0.000319846
8 *55:14 *84:108 0.000298644
9 *55:14 *84:140 0.00027449
10 *55:14 *95:37 0.000158796
11 *55:14 *109:39 0.000163867
12 *36:10 *55:14 0.000111462
13 *52:10 *55:14 6.46271e-05
14 *54:16 *55:14 9.64943e-05
*RES
1 *904:X *55:8 45.2914 
2 *55:8 *55:14 38.4279 
3 *55:14 *905:D_N 23 
*END

*D_NET *56 0.0107447
*CONN
*I *908:B I *D sky130_fd_sc_hd__or3_2
*I *911:A2 I *D sky130_fd_sc_hd__o21ai_2
*I *910:A1 I *D sky130_fd_sc_hd__o21ai_2
*I *909:A2 I *D sky130_fd_sc_hd__a21bo_2
*I *906:B I *D sky130_fd_sc_hd__and2_2
*I *913:A2 I *D sky130_fd_sc_hd__a21boi_2
*I *920:B I *D sky130_fd_sc_hd__nor2_2
*I *905:X O *D sky130_fd_sc_hd__or4b_2
*CAP
1 *908:B 0
2 *911:A2 0
3 *910:A1 0
4 *909:A2 0
5 *906:B 0.000228355
6 *913:A2 0
7 *920:B 0.000273181
8 *905:X 0.00023954
9 *56:89 0.000283767
10 *56:74 0.000678528
11 *56:67 0.000394761
12 *56:51 0.000281263
13 *56:37 0.000692544
14 *56:33 0.000280648
15 *56:31 0.000367094
16 *56:14 0.00157676
17 *56:10 0.00127375
18 *906:B *906:A 9.83963e-05
19 *906:B *914:A 0.000147656
20 *906:B *914:C 0.000137743
21 *906:B *60:8 0.000141352
22 *920:B *109:39 5.56356e-05
23 *56:10 *89:61 6.12127e-05
24 *56:14 *979:RESET_B 0
25 *56:14 *65:53 8.07477e-05
26 *56:31 *899:A 1.35999e-05
27 *56:31 *110:33 0
28 *56:33 *58:8 4.96213e-05
29 *56:33 *110:33 0
30 *56:37 *909:A1 0.000103123
31 *56:37 *109:27 0.000343906
32 *56:37 *112:14 7.19778e-05
33 *56:51 *914:C 3.26241e-05
34 *56:51 *982:SET_B 0.000158107
35 *56:51 *985:RESET_B 6.2088e-05
36 *56:51 *60:8 0.000315483
37 *56:51 *84:31 0.000124208
38 *56:51 *112:14 2.95526e-05
39 *56:74 *109:27 5.3304e-05
40 *56:74 *110:18 0.000586944
41 *56:89 *983:CLK 0.000103207
42 *56:89 *57:14 0.000196861
43 *56:89 *57:29 0.000247197
44 *56:89 *59:10 0
45 *56:89 *110:18 4.46854e-05
46 *913:B1_N *56:51 0.000249421
47 *18:10 *56:89 0
48 *39:25 *56:51 1.358e-05
49 *46:42 *56:14 0.000349679
50 *50:8 *56:31 0.000143803
51 *51:53 *56:51 5.79559e-05
52 *52:10 *56:14 0
53 *54:16 *56:10 8.84338e-05
54 *55:14 *56:10 1.24376e-05
*RES
1 *905:X *56:10 42.4536 
2 *56:10 *56:14 35.9214 
3 *56:14 *920:B 27.4536 
4 *56:14 *56:31 20.51 
5 *56:31 *56:33 2.25786 
6 *56:33 *56:37 20.075 
7 *56:37 *56:51 39.4043 
8 *56:51 *913:A2 23 
9 *56:37 *906:B 29.235 
10 *56:33 *56:67 15 
11 *56:67 *909:A2 23 
12 *56:67 *56:74 9.67357 
13 *56:74 *910:A1 23 
14 *56:74 *56:89 37.4986 
15 *56:89 *911:A2 23 
16 *56:31 *908:B 38 
*END

*D_NET *57 0.00535945
*CONN
*I *959:C I *D sky130_fd_sc_hd__and4_2
*I *910:A2 I *D sky130_fd_sc_hd__o21ai_2
*I *908:C I *D sky130_fd_sc_hd__or3_2
*I *907:Y O *D sky130_fd_sc_hd__nand3_2
*CAP
1 *959:C 0.000662841
2 *910:A2 0
3 *908:C 0.000511119
4 *907:Y 0.000221351
5 *57:29 0.00019416
6 *57:14 0.00105538
7 *57:10 0.0012343
8 *908:C *983:CLK 5.50106e-05
9 *959:C *959:A 5.3304e-05
10 *959:C *959:B 9.3688e-05
11 *57:10 *907:C 4.67488e-05
12 *57:10 *961:A 0.000165003
13 *57:29 *983:CLK 8.264e-05
14 *961:B *959:C 0.000461363
15 *46:26 *57:10 7.84832e-05
16 *56:89 *57:14 0.000196861
17 *56:89 *57:29 0.000247197
*RES
1 *907:Y *57:10 42.06 
2 *57:10 *57:14 22.54 
3 *57:14 *908:C 32.1971 
4 *57:14 *57:29 34.4121 
5 *57:29 *910:A2 23 
6 *57:10 *959:C 48.15 
*END

*D_NET *58 0.000391312
*CONN
*I *909:B1_N I *D sky130_fd_sc_hd__a21bo_2
*I *908:X O *D sky130_fd_sc_hd__or3_2
*CAP
1 *909:B1_N 2.87658e-05
2 *908:X 9.96378e-05
3 *58:8 0.000128404
4 *909:B1_N *109:27 7.47919e-05
5 *58:8 *909:A1 1.0092e-05
6 *56:33 *58:8 4.96213e-05
*RES
1 *908:X *58:8 40.2579 
2 *58:8 *909:B1_N 38.7975 
*END

*D_NET *59 0.00120576
*CONN
*I *911:B1 I *D sky130_fd_sc_hd__o21ai_2
*I *910:Y O *D sky130_fd_sc_hd__o21ai_2
*CAP
1 *911:B1 4.09526e-05
2 *910:Y 0.000272844
3 *59:10 0.000313796
4 *59:10 *110:10 3.54728e-05
5 *59:10 *110:18 1.41244e-05
6 *911:A1 *911:B1 5.3304e-05
7 *18:10 *59:10 0.000137441
8 *49:12 *59:10 0.00033782
9 *56:89 *59:10 0
*RES
1 *910:Y *59:10 43.945 
2 *59:10 *911:B1 38.6214 
*END

*D_NET *60 0.00844273
*CONN
*I *921:A I *D sky130_fd_sc_hd__and2_2
*I *922:A I *D sky130_fd_sc_hd__nand2_2
*I *932:D I *D sky130_fd_sc_hd__and4b_2
*I *915:C I *D sky130_fd_sc_hd__and3_2
*I *916:A2 I *D sky130_fd_sc_hd__a21oi_2
*I *914:X O *D sky130_fd_sc_hd__or3_2
*CAP
1 *921:A 0
2 *922:A 0
3 *932:D 5.88929e-05
4 *915:C 0.000133151
5 *916:A2 0.000297011
6 *914:X 0.000716479
7 *60:74 0.000292766
8 *60:57 0.000525731
9 *60:40 0.000572693
10 *60:29 0.000451048
11 *60:16 0.000925706
12 *60:8 0.00130811
13 *915:C *915:A 5.3304e-05
14 *916:A2 *916:B1 2.2385e-05
15 *932:D *73:10 2.45549e-06
16 *60:8 *84:31 0.000277792
17 *60:40 *67:18 0.000117051
18 *60:57 *933:B1 5.3304e-05
19 *60:57 *65:16 1.80792e-05
20 *60:57 *65:33 9.86777e-06
21 *60:57 *67:18 3.1231e-05
22 *60:57 *73:10 0.000109797
23 *60:74 *896:A 0.000252661
24 *60:74 *65:33 0.000153615
25 *60:74 *66:10 6.17437e-06
26 *60:74 *67:8 6.17437e-06
27 *60:74 *73:25 0.000373684
28 *60:74 *104:12 0.000137754
29 *906:B *60:8 0.000141352
30 *915:B *915:C 3.57595e-06
31 *916:A1 *916:A2 0.000335279
32 *932:C *932:D 5.5792e-05
33 *932:C *60:40 0.000422171
34 *47:10 *60:74 4.67488e-05
35 *51:12 *916:A2 9.20193e-05
36 *51:12 *60:29 4.9858e-05
37 *51:12 *60:40 7.35277e-05
38 *56:51 *60:8 0.000315483
*RES
1 *914:X *60:8 48.6264 
2 *60:8 *60:16 40.5021 
3 *60:16 *916:A2 44.7529 
4 *60:16 *60:29 0.849286 
5 *60:29 *915:C 39.5743 
6 *60:29 *60:40 7.18786 
7 *60:40 *932:D 39.0979 
8 *60:40 *60:57 19.9093 
9 *60:57 *922:A 23 
10 *60:57 *60:74 38.2443 
11 *60:74 *921:A 23 
*END

*D_NET *61 0.0037633
*CONN
*I *917:A I *D sky130_fd_sc_hd__nor2_2
*I *924:C I *D sky130_fd_sc_hd__and3_2
*I *919:B I *D sky130_fd_sc_hd__or2_2
*I *918:B I *D sky130_fd_sc_hd__nand2_2
*I *915:X O *D sky130_fd_sc_hd__and3_2
*CAP
1 *917:A 0
2 *924:C 0.000370236
3 *919:B 0.000177739
4 *918:B 5.83002e-05
5 *915:X 3.01043e-05
6 *61:23 0.000660228
7 *61:10 0.000930348
8 *61:6 0.000789899
9 *918:B *918:A 0
10 *918:B *67:26 4.91172e-06
11 *919:B *67:18 5.3304e-05
12 *924:C *924:B 5.03471e-05
13 *924:C *63:20 0.000101209
14 *924:C *63:29 7.52235e-05
15 *924:C *69:23 0
16 *924:C *70:10 8.85189e-05
17 *924:C *100:10 6.93627e-05
18 *924:C *100:36 3.82956e-05
19 *61:23 *63:20 5.10426e-05
20 *61:23 *67:26 0.000111106
21 *61:23 *100:10 0.000103123
*RES
1 *915:X *61:6 23.6214 
2 *61:6 *61:10 13.0293 
3 *61:10 *918:B 24.1186 
4 *61:10 *61:23 17.9621 
5 *61:23 *919:B 41.0036 
6 *61:23 *924:C 45.6021 
7 *61:6 *917:A 23 
*END

*D_NET *62 0.00105558
*CONN
*I *917:B I *D sky130_fd_sc_hd__nor2_2
*I *916:Y O *D sky130_fd_sc_hd__a21oi_2
*CAP
1 *917:B 0
2 *916:Y 0.000406013
3 *62:10 0.000406013
4 *62:10 *916:B1 2.07484e-05
5 *20:8 *62:10 0.000222802
*RES
1 *916:Y *62:10 44.6493 
2 *62:10 *917:B 38 
*END

*D_NET *63 0.0039874
*CONN
*I *929:B I *D sky130_fd_sc_hd__or3_2
*I *925:B I *D sky130_fd_sc_hd__xnor2_2
*I *927:B2 I *D sky130_fd_sc_hd__o22a_2
*I *928:A1 I *D sky130_fd_sc_hd__o21ai_2
*I *923:A I *D sky130_fd_sc_hd__and3_2
*I *918:Y O *D sky130_fd_sc_hd__nand2_2
*CAP
1 *929:B 0.000104883
2 *925:B 0.000422739
3 *927:B2 3.34796e-05
4 *928:A1 0.000104883
5 *923:A 7.94007e-06
6 *918:Y 0.000260822
7 *63:29 0.000849654
8 *63:20 0.000646318
9 *923:A *918:A 5.79559e-05
10 *923:A *67:26 5.79559e-05
11 *925:B *68:10 3.64337e-05
12 *925:B *101:25 0.000320642
13 *927:B2 *927:B1 2.93335e-05
14 *929:B *928:A2 2.32004e-05
15 *929:B *70:10 5.3304e-05
16 *929:B *100:16 9.84851e-05
17 *63:20 *67:26 0.000112455
18 *63:20 *100:38 0
19 *63:29 *924:A 0
20 *63:29 *68:10 0.000350511
21 *63:29 *100:38 0
22 *924:C *63:20 0.000101209
23 *924:C *63:29 7.52235e-05
24 *22:10 *925:B 0.000188927
25 *61:23 *63:20 5.10426e-05
*RES
1 *918:Y *923:A 46.6214 
2 *918:Y *63:20 44.1314 
3 *63:20 *928:A1 38 
4 *63:20 *63:29 8.59643 
5 *63:29 *927:B2 38.6214 
6 *63:29 *925:B 47.2593 
7 *928:A1 *929:B 48.5686 
*END

*D_NET *64 0.00063673
*CONN
*I *923:B I *D sky130_fd_sc_hd__and3_2
*I *919:X O *D sky130_fd_sc_hd__or2_2
*CAP
1 *923:B 5.11712e-05
2 *919:X 0.000183972
3 *64:10 0.000235143
4 *923:B *67:26 1.20433e-06
5 *64:10 *918:A 0.000154695
6 *21:8 *64:10 1.05441e-05
*RES
1 *919:X *64:10 41.9357 
2 *64:10 *923:B 38.6214 
*END

*D_NET *65 0.0050058
*CONN
*I *959:D I *D sky130_fd_sc_hd__and4_2
*I *958:A2 I *D sky130_fd_sc_hd__a21oi_2
*I *921:B I *D sky130_fd_sc_hd__and2_2
*I *922:B I *D sky130_fd_sc_hd__nand2_2
*I *920:Y O *D sky130_fd_sc_hd__nor2_2
*CAP
1 *959:D 0
2 *958:A2 0
3 *921:B 0
4 *922:B 0
5 *920:Y 0.000574414
6 *65:53 0.000109877
7 *65:40 0.000808848
8 *65:33 0.000371399
9 *65:16 0.000458324
10 *65:12 0.000785896
11 *65:10 0.000574414
12 *65:10 *104:12 8.7376e-05
13 *65:16 *67:8 1.24376e-05
14 *65:33 *933:B1 6.17437e-06
15 *65:33 *968:RESET_B 1.41891e-05
16 *65:33 *66:10 8.48502e-06
17 *65:33 *67:8 8.48502e-06
18 *65:33 *73:25 0.000399033
19 *65:33 *89:8 5.56279e-05
20 *65:40 *84:8 9.90115e-05
21 *65:53 *959:A 3.6941e-05
22 *65:53 *110:44 1.00286e-05
23 *47:10 *65:33 0.000322528
24 *56:14 *65:53 8.07477e-05
25 *60:57 *65:16 1.80792e-05
26 *60:57 *65:33 9.86777e-06
27 *60:74 *65:33 0.000153615
*RES
1 *920:Y *65:10 48.8543 
2 *65:10 *65:12 15 
3 *65:12 *65:16 1.595 
4 *65:16 *922:B 23 
5 *65:16 *65:33 39.5493 
6 *65:33 *921:B 23 
7 *65:12 *65:40 13.0086 
8 *65:40 *958:A2 23 
9 *65:40 *65:53 32.8793 
10 *65:53 *959:D 23 
*END

*D_NET *66 0.00124757
*CONN
*I *933:C1 I *D sky130_fd_sc_hd__a211oi_2
*I *921:X O *D sky130_fd_sc_hd__and2_2
*CAP
1 *933:C1 0
2 *921:X 0.000315485
3 *66:10 0.000315485
4 *66:10 *968:RESET_B 0.000193024
5 *66:10 *73:25 7.66914e-06
6 *66:10 *89:8 7.87147e-05
7 *47:10 *66:10 0.000322528
8 *60:74 *66:10 6.17437e-06
9 *65:33 *66:10 8.48502e-06
*RES
1 *921:X *66:10 44.7736 
2 *66:10 *933:C1 38 
*END

*D_NET *67 0.011506
*CONN
*I *941:A I *D sky130_fd_sc_hd__and3_2
*I *937:A I *D sky130_fd_sc_hd__and3_2
*I *930:A I *D sky130_fd_sc_hd__and3_2
*I *923:C I *D sky130_fd_sc_hd__and3_2
*I *922:Y O *D sky130_fd_sc_hd__nand2_2
*CAP
1 *941:A 1.86796e-05
2 *937:A 0
3 *930:A 0
4 *923:C 0
5 *922:Y 4.56113e-05
6 *67:58 0.00115873
7 *67:50 0.00321766
8 *67:26 0.000298368
9 *67:18 0.00158091
10 *67:8 0.0033684
11 *941:A *78:10 5.58152e-06
12 *67:18 *71:18 0.000402924
13 *67:18 *73:10 4.88501e-05
14 *67:18 *104:12 0.000324726
15 *67:26 *918:A 4.93812e-05
16 *67:50 *73:10 7.32852e-07
17 *67:50 *73:25 9.84614e-06
18 *67:50 *104:12 2.11157e-05
19 *67:58 *970:RESET_B 0.000288925
20 *67:58 *75:10 4.93525e-05
21 *67:58 *105:14 0
22 *918:B *67:26 4.91172e-06
23 *919:B *67:18 5.3304e-05
24 *923:A *67:26 5.79559e-05
25 *923:B *67:26 1.20433e-06
26 *51:10 *67:18 9.98635e-05
27 *60:40 *67:18 0.000117051
28 *60:57 *67:18 3.1231e-05
29 *60:74 *67:8 6.17437e-06
30 *61:23 *67:26 0.000111106
31 *63:20 *67:26 0.000112455
32 *65:16 *67:8 1.24376e-05
33 *65:33 *67:8 8.48502e-06
*RES
1 *922:Y *67:8 38.6214 
2 *67:8 *67:18 41.6593 
3 *67:18 *67:26 35.0336 
4 *67:26 *923:C 23 
5 *67:18 *930:A 23 
6 *67:8 *67:50 27.7147 
7 *67:50 *67:58 30.8059 
8 *67:58 *937:A 23 
9 *67:50 *941:A 46.3211 
*END

*D_NET *68 0.00103032
*CONN
*I *927:A2 I *D sky130_fd_sc_hd__o22a_2
*I *924:X O *D sky130_fd_sc_hd__and3_2
*CAP
1 *927:A2 0
2 *924:X 0.00027219
3 *68:10 0.00027219
4 *68:10 *924:B 9.89906e-05
5 *925:B *68:10 3.64337e-05
6 *63:29 *68:10 0.000350511
*RES
1 *924:X *68:10 44.1729 
2 *68:10 *927:A2 38 
*END

*D_NET *69 0.00382612
*CONN
*I *932:A_N I *D sky130_fd_sc_hd__and4b_2
*I *929:C I *D sky130_fd_sc_hd__or3_2
*I *928:A2 I *D sky130_fd_sc_hd__o21ai_2
*I *927:B1 I *D sky130_fd_sc_hd__o22a_2
*I *926:Y O *D sky130_fd_sc_hd__nand2_2
*CAP
1 *932:A_N 0.000578495
2 *929:C 0
3 *928:A2 9.66026e-05
4 *927:B1 0.000255269
5 *926:Y 8.09384e-05
6 *69:23 0.000259728
7 *69:19 0.00100191
8 *69:6 0.000596493
9 *927:B1 *927:A1 0.000189848
10 *928:A2 *100:16 9.84851e-05
11 *928:A2 *100:36 7.44257e-05
12 *932:A_N *924:B 0.000100486
13 *932:A_N *932:B 1.79384e-05
14 *69:6 *927:A1 0.000128918
15 *69:19 *924:B 0.000186031
16 *69:19 *101:27 2.23754e-05
17 *69:23 *86:46 0
18 *69:23 *100:36 3.0647e-05
19 *924:C *69:23 0
20 *927:B2 *927:B1 2.93335e-05
21 *928:B1 *928:A2 5.50049e-05
22 *929:B *928:A2 2.32004e-05
*RES
1 *926:Y *69:6 24.5743 
2 *69:6 *927:B1 27.8057 
3 *69:6 *69:19 21.1314 
4 *69:19 *69:23 17.9621 
5 *69:23 *928:A2 25.5271 
6 *69:23 *929:C 23 
7 *69:19 *932:A_N 48.6264 
*END

*D_NET *70 0.000399142
*CONN
*I *930:B I *D sky130_fd_sc_hd__and3_2
*I *928:Y O *D sky130_fd_sc_hd__o21ai_2
*CAP
1 *930:B 0
2 *928:Y 8.55201e-05
3 *70:10 8.55201e-05
4 *70:10 *100:10 8.62783e-05
5 *924:C *70:10 8.85189e-05
6 *929:B *70:10 5.3304e-05
*RES
1 *928:Y *70:10 39.8229 
2 *70:10 *930:B 38 
*END

*D_NET *71 0.00331103
*CONN
*I *933:A2 I *D sky130_fd_sc_hd__a211oi_2
*I *930:C I *D sky130_fd_sc_hd__and3_2
*I *929:X O *D sky130_fd_sc_hd__or3_2
*CAP
1 *933:A2 0
2 *930:C 0
3 *929:X 8.25057e-05
4 *71:31 0.000644343
5 *71:18 0.000447527
6 *71:6 0.00117438
7 *71:18 *86:46 0.000158221
8 *71:18 *103:12 0
9 *71:31 *72:10 3.97677e-05
10 *71:31 *100:16 1.03836e-05
11 *71:31 *103:19 0.000227036
12 *48:6 *71:6 5.12254e-05
13 *48:6 *71:31 7.27182e-05
14 *67:18 *71:18 0.000402924
*RES
1 *929:X *71:6 24.0979 
2 *71:6 *71:18 39.4457 
3 *71:18 *930:C 23 
4 *71:6 *71:31 41.0614 
5 *71:31 *933:A2 23 
*END

*D_NET *72 0.000637934
*CONN
*I *932:B I *D sky130_fd_sc_hd__and4b_2
*I *931:X O *D sky130_fd_sc_hd__and4_2
*CAP
1 *932:B 0.000162201
2 *931:X 0.00011181
3 *72:10 0.000274011
4 *72:10 *103:19 3.22051e-05
5 *932:A_N *932:B 1.79384e-05
6 *71:31 *72:10 3.97677e-05
*RES
1 *931:X *72:10 39.8229 
2 *72:10 *932:B 40.0507 
*END

*D_NET *73 0.00846828
*CONN
*I *945:C I *D sky130_fd_sc_hd__and4_2
*I *939:D I *D sky130_fd_sc_hd__and4_2
*I *938:A3 I *D sky130_fd_sc_hd__a31o_2
*I *936:C I *D sky130_fd_sc_hd__nand3_2
*I *934:B I *D sky130_fd_sc_hd__xor2_2
*I *935:A2 I *D sky130_fd_sc_hd__a21o_2
*I *933:B1 I *D sky130_fd_sc_hd__a211oi_2
*I *932:X O *D sky130_fd_sc_hd__and4b_2
*CAP
1 *945:C 0.000300573
2 *939:D 0
3 *938:A3 5.26477e-05
4 *936:C 0
5 *934:B 0.000211951
6 *935:A2 0
7 *933:B1 0.000100707
8 *932:X 0.00013024
9 *73:71 0.000378634
10 *73:60 0.00035938
11 *73:35 0.000537102
12 *73:29 0.000896821
13 *73:25 0.00144115
14 *73:10 0.000871761
15 *934:B *969:RESET_B 0.000233312
16 *938:A3 *938:B1 5.5792e-05
17 *938:A3 *85:30 0.000230048
18 *938:A3 *106:43 6.27856e-05
19 *938:A3 *106:58 9.7474e-05
20 *945:C *945:A 5.3304e-05
21 *945:C *945:B 9.5877e-05
22 *945:C *77:24 7.28526e-05
23 *945:C *78:10 3.53698e-05
24 *945:C *85:22 6.66613e-05
25 *945:C *85:59 0.00021018
26 *945:C *108:48 9.67842e-05
27 *73:25 *896:A 2.46399e-05
28 *73:25 *901:D_N 2.35118e-06
29 *73:25 *971:RESET_B 0.000111703
30 *73:25 *104:12 1.23676e-05
31 *73:29 *941:C 5.56279e-05
32 *73:35 *903:D_N 2.75733e-06
33 *73:35 *969:RESET_B 7.51578e-05
34 *73:35 *106:12 6.60845e-05
35 *73:60 *901:D_N 2.271e-05
36 *73:60 *78:10 4.84057e-05
37 *73:60 *85:22 3.46013e-05
38 *73:71 *78:10 5.36496e-05
39 *73:71 *85:22 0.000134776
40 *932:D *73:10 2.45549e-06
41 *933:A1 *933:B1 8.78045e-05
42 *3:10 *934:B 3.04519e-05
43 *3:10 *73:35 1.97353e-05
44 *28:10 *73:29 5.0613e-05
45 *28:10 *73:60 3.18811e-05
46 *60:57 *933:B1 5.3304e-05
47 *60:57 *73:10 0.000109797
48 *60:74 *73:25 0.000373684
49 *65:33 *933:B1 6.17437e-06
50 *65:33 *73:25 0.000399033
51 *66:10 *73:25 7.66914e-06
52 *67:18 *73:10 4.88501e-05
53 *67:50 *73:10 7.32852e-07
54 *67:50 *73:25 9.84614e-06
*RES
1 *932:X *73:10 40.3511 
2 *73:10 *933:B1 40.3718 
3 *73:10 *73:25 15.0282 
4 *73:25 *73:29 25.6264 
5 *73:29 *73:35 21.0486 
6 *73:35 *935:A2 38 
7 *73:35 *934:B 21.1314 
8 *73:29 *936:C 23 
9 *73:25 *73:60 4.55714 
10 *73:60 *938:A3 40.5271 
11 *73:60 *73:71 1.90571 
12 *73:71 *939:D 38 
13 *73:71 *945:C 45.1671 
*END

*D_NET *74 0.00048375
*CONN
*I *937:B I *D sky130_fd_sc_hd__and3_2
*I *935:X O *D sky130_fd_sc_hd__a21o_2
*CAP
1 *937:B 0.000240647
2 *935:X 0.000240647
3 *937:B *105:36 2.45549e-06
*RES
1 *935:X *937:B 49.0036 
*END

*D_NET *75 0.00112272
*CONN
*I *937:C I *D sky130_fd_sc_hd__and3_2
*I *936:Y O *D sky130_fd_sc_hd__nand3_2
*CAP
1 *937:C 0
2 *936:Y 0.000417491
3 *75:10 0.000417491
4 *75:10 *936:A 1.84831e-05
5 *75:10 *970:RESET_B 0.000193187
6 *27:10 *75:10 2.67179e-05
7 *67:58 *75:10 4.93525e-05
*RES
1 *936:Y *75:10 45.0221 
2 *75:10 *937:C 38 
*END

*D_NET *76 0.000631111
*CONN
*I *941:B I *D sky130_fd_sc_hd__and3_2
*I *938:X O *D sky130_fd_sc_hd__a31o_2
*CAP
1 *941:B 0
2 *938:X 0.000164945
3 *76:10 0.000164945
4 *76:10 *78:10 0.000112294
5 *76:10 *85:30 0.000188927
*RES
1 *938:X *76:10 41.6043 
2 *76:10 *941:B 38 
*END

*D_NET *77 0.00204405
*CONN
*I *943:A2 I *D sky130_fd_sc_hd__a21oi_2
*I *942:B I *D sky130_fd_sc_hd__xor2_2
*I *940:A I *D sky130_fd_sc_hd__inv_2
*I *939:X O *D sky130_fd_sc_hd__and4_2
*CAP
1 *943:A2 0.000253652
2 *942:B 0
3 *940:A 4.56418e-05
4 *939:X 0.000496471
5 *77:24 0.000704481
6 *940:A *939:A 0.000110395
7 *940:A *78:10 5.40241e-05
8 *943:A2 *108:16 0.000100061
9 *77:24 *85:59 0.000144816
10 *77:24 *85:70 6.16603e-05
11 *945:C *77:24 7.28526e-05
12 *26:10 *77:24 0
*RES
1 *939:X *940:A 47.595 
2 *939:X *77:24 48.9786 
3 *77:24 *942:B 15 
4 *77:24 *943:A2 43.0129 
*END

*D_NET *78 0.00132367
*CONN
*I *941:C I *D sky130_fd_sc_hd__and3_2
*I *940:Y O *D sky130_fd_sc_hd__inv_2
*CAP
1 *941:C 3.00561e-05
2 *940:Y 0.000441932
3 *78:10 0.000471988
4 *78:10 *939:A 1.47394e-05
5 *940:A *78:10 5.40241e-05
6 *941:A *78:10 5.58152e-06
7 *945:C *78:10 3.53698e-05
8 *73:29 *941:C 5.56279e-05
9 *73:60 *78:10 4.84057e-05
10 *73:71 *78:10 5.36496e-05
11 *76:10 *78:10 0.000112294
*RES
1 *940:Y *78:10 46.0579 
2 *78:10 *941:C 38.6214 
*END

*D_NET *79 0.00108707
*CONN
*I *946:A I *D sky130_fd_sc_hd__nor2_2
*I *943:Y O *D sky130_fd_sc_hd__a21oi_2
*CAP
1 *946:A 0
2 *943:Y 0.000400553
3 *79:12 0.000400553
4 *79:12 *973:CLK 5.45644e-05
5 *79:12 *81:8 3.50862e-06
6 *79:12 *94:37 1.68505e-05
7 *79:12 *108:16 4.91172e-06
8 *79:12 *108:25 8.08108e-05
9 *79:12 *108:29 5.75756e-06
10 *973:D *79:12 6.17437e-06
11 *30:10 *79:12 0.000113389
*RES
1 *943:Y *79:12 44.7114 
2 *79:12 *946:A 38 
*END

*D_NET *80 0.000446167
*CONN
*I *945:D I *D sky130_fd_sc_hd__and4_2
*I *944:X O *D sky130_fd_sc_hd__and3_2
*CAP
1 *945:D 6.80978e-05
2 *944:X 9.5835e-05
3 *80:8 0.000163933
4 *80:8 *83:17 8.51329e-05
5 *80:8 *108:48 3.31683e-05
*RES
1 *944:X *80:8 40.2579 
2 *80:8 *945:D 39.0979 
*END

*D_NET *81 0.00519799
*CONN
*I *947:B I *D sky130_fd_sc_hd__nor2_2
*I *951:A3 I *D sky130_fd_sc_hd__a31oi_2
*I *953:D I *D sky130_fd_sc_hd__and4_2
*I *955:C I *D sky130_fd_sc_hd__and4_2
*I *948:B I *D sky130_fd_sc_hd__nand2_2
*I *946:B I *D sky130_fd_sc_hd__nor2_2
*I *945:X O *D sky130_fd_sc_hd__and4_2
*CAP
1 *947:B 0
2 *951:A3 0
3 *953:D 4.15138e-05
4 *955:C 8.55509e-05
5 *948:B 0
6 *946:B 0
7 *945:X 0.000390706
8 *81:38 0.000365294
9 *81:34 0.000494308
10 *81:27 0.000487488
11 *81:21 0.000724056
12 *81:10 0.000492648
13 *81:8 0.000390706
14 *953:D *953:A 0.000100069
15 *955:C *96:14 0
16 *955:C *96:16 0
17 *81:8 *973:RESET_B 0
18 *81:8 *108:29 0
19 *81:21 *95:14 0
20 *81:27 *95:14 4.77796e-05
21 *81:27 *95:20 0.000235687
22 *81:34 *951:A1 4.21921e-05
23 *81:34 *95:14 0.000683881
24 *81:38 *96:14 0
25 *954:B *81:34 5.3304e-05
26 *954:B *81:38 0.000326388
27 *956:A2 *955:C 0.000134439
28 *956:A2 *81:38 8.11552e-05
29 *30:10 *81:21 1.35999e-05
30 *43:8 *953:D 3.7122e-06
31 *79:12 *81:8 3.50862e-06
*RES
1 *945:X *81:8 45.54 
2 *81:8 *81:10 15 
3 *81:10 *946:B 23 
4 *81:10 *81:21 8.76214 
5 *81:21 *81:27 4.95071 
6 *81:27 *948:B 23 
7 *81:27 *81:34 7.76786 
8 *81:34 *81:38 20.7793 
9 *81:38 *955:C 39.9057 
10 *81:38 *953:D 39.0979 
11 *81:34 *951:A3 23 
12 *81:21 *947:B 23 
*END

*D_NET *82 0.000286692
*CONN
*I *949:A_N I *D sky130_fd_sc_hd__and2b_2
*I *947:Y O *D sky130_fd_sc_hd__nor2_2
*CAP
1 *949:A_N 0
2 *947:Y 0.000143346
3 *82:8 0.000143346
*RES
1 *947:Y *82:8 40.61 
2 *82:8 *949:A_N 38 
*END

*D_NET *83 0.00310024
*CONN
*I *988:A I *D sky130_fd_sc_hd__clkbuf_16
*I *989:A I *D sky130_fd_sc_hd__clkbuf_16
*I *987:X O *D sky130_fd_sc_hd__clkbuf_16
*CAP
1 *988:A 0
2 *989:A 0
3 *987:X 0.000103357
4 *83:31 0.000548008
5 *83:17 0.000645119
6 *83:11 0.00130097
7 *83:6 0.000211199
8 *83:17 *971:RESET_B 0
9 *83:17 *973:RESET_B 0
10 *83:17 *108:48 0
11 *83:31 *971:RESET_B 0
12 *83:31 *84:140 0
13 *54:16 *83:17 0.000206451
14 *80:8 *83:17 8.51329e-05
*RES
1 *987:X *83:6 24.8125 
2 *83:6 *83:11 1.8125 
3 *83:11 *83:17 28.2157 
4 *83:17 *989:A 38 
5 *83:11 *83:31 25.3571 
6 *83:31 *988:A 38 
*END

*D_NET *84 0.0234386
*CONN
*I *980:CLK I *D sky130_fd_sc_hd__dfrtp_2
*I *981:CLK I *D sky130_fd_sc_hd__dfrtp_2
*I *979:CLK I *D sky130_fd_sc_hd__dfrtp_2
*I *968:CLK I *D sky130_fd_sc_hd__dfrtp_2
*I *966:CLK I *D sky130_fd_sc_hd__dfrtp_2
*I *983:CLK I *D sky130_fd_sc_hd__dfrtp_2
*I *984:CLK I *D sky130_fd_sc_hd__dfrtp_2
*I *986:CLK I *D sky130_fd_sc_hd__dfstp_2
*I *985:CLK I *D sky130_fd_sc_hd__dfrtp_2
*I *963:CLK I *D sky130_fd_sc_hd__dfrtp_2
*I *967:CLK I *D sky130_fd_sc_hd__dfrtp_2
*I *964:CLK I *D sky130_fd_sc_hd__dfrtp_2
*I *982:CLK I *D sky130_fd_sc_hd__dfstp_2
*I *988:X O *D sky130_fd_sc_hd__clkbuf_16
*CAP
1 *980:CLK 0.000168489
2 *981:CLK 4.38258e-05
3 *979:CLK 9.47569e-05
4 *968:CLK 0
5 *966:CLK 4.05012e-05
6 *983:CLK 0.000453771
7 *984:CLK 4.00699e-05
8 *986:CLK 0.000285331
9 *985:CLK 3.93866e-05
10 *963:CLK 0
11 *967:CLK 0
12 *964:CLK 0.000418977
13 *982:CLK 0.00031206
14 *988:X 0.000147831
15 *84:153 0.00143938
16 *84:140 0.00147912
17 *84:124 0.00124672
18 *84:112 0.00213897
19 *84:108 0.00124668
20 *84:75 0.00049174
21 *84:69 0.00173691
22 *84:58 0.00115618
23 *84:46 0.00011388
24 *84:33 0.000940544
25 *84:31 0.001157
26 *84:12 0.00118102
27 *84:10 0.000672698
28 *84:8 0.000857508
29 *964:CLK *86:21 3.08719e-06
30 *980:CLK *87:10 1.14452e-05
31 *980:CLK *91:8 0.000144501
32 *980:CLK *91:12 3.98882e-06
33 *982:CLK *982:SET_B 6.16484e-05
34 *984:CLK *906:A 7.87147e-05
35 *84:10 *109:39 0.000114775
36 *84:31 *963:RESET_B 0.000157393
37 *84:31 *982:SET_B 7.12293e-05
38 *84:31 *93:8 7.27073e-05
39 *84:33 *963:RESET_B 0.000187535
40 *84:33 *86:21 0.000190664
41 *84:33 *100:10 2.95423e-05
42 *84:46 *86:10 8.0614e-05
43 *84:69 *86:138 0.000196373
44 *84:69 *112:8 0.000195195
45 *84:112 *104:8 8.30457e-05
46 *84:124 *966:RESET_B 7.15758e-05
47 *84:124 *993:A 4.53082e-05
48 *84:124 *89:8 0.000456443
49 *84:153 *907:A 2.64616e-05
50 *84:153 *907:B 0.000142611
51 *84:153 *907:C 0.000166469
52 *908:C *983:CLK 5.50106e-05
53 *964:D *964:CLK 7.87147e-05
54 *968:D *84:112 2.93431e-05
55 *981:D *84:153 5.3304e-05
56 *984:D *984:CLK 7.87147e-05
57 *985:D *84:69 1.41244e-05
58 *17:10 *982:CLK 0.000137594
59 *19:10 *84:10 6.3861e-05
60 *24:8 *84:46 5.26295e-05
61 *37:8 *980:CLK 0
62 *37:8 *981:CLK 0
63 *38:12 *980:CLK 0.000103106
64 *38:12 *981:CLK 3.46993e-05
65 *39:25 *986:CLK 0.0002783
66 *46:26 *980:CLK 1.12919e-05
67 *46:26 *981:CLK 1.13013e-05
68 *51:53 *84:31 0.000362108
69 *55:14 *84:10 0.000319846
70 *55:14 *84:108 0.000298644
71 *55:14 *84:140 0.00027449
72 *56:51 *84:31 0.000124208
73 *56:89 *983:CLK 0.000103207
74 *57:29 *983:CLK 8.264e-05
75 *60:8 *84:31 0.000277792
76 *65:40 *84:8 9.90115e-05
77 *83:31 *84:140 0
*RES
1 *988:X *84:8 40.0507 
2 *84:8 *84:10 11.4136 
3 *84:10 *84:12 1.55357 
4 *84:12 *982:CLK 43.8414 
5 *84:12 *84:31 32.9386 
6 *84:31 *84:33 9.67357 
7 *84:33 *964:CLK 30.7679 
8 *84:33 *84:46 32.9621 
9 *84:46 *967:CLK 23 
10 *84:31 *963:CLK 23 
11 *84:10 *84:58 15 
12 *84:58 *985:CLK 23.8493 
13 *84:58 *84:69 30.3907 
14 *84:69 *84:75 2.67214 
15 *84:75 *986:CLK 43.9657 
16 *84:75 *984:CLK 39.5743 
17 *84:69 *983:CLK 46.5343 
18 *84:8 *84:108 4.01857 
19 *84:108 *84:112 30.8671 
20 *84:112 *84:124 49.2436 
21 *84:124 *966:CLK 23.8493 
22 *84:112 *968:CLK 23 
23 *84:108 *84:140 18.6664 
24 *84:140 *979:CLK 24.4707 
25 *84:140 *84:153 31.3436 
26 *84:153 *981:CLK 38.8493 
27 *84:153 *980:CLK 41.48 
*END

*D_NET *85 0.0172337
*CONN
*I *978:CLK I *D sky130_fd_sc_hd__dfrtp_2
*I *977:CLK I *D sky130_fd_sc_hd__dfrtp_2
*I *990:A I *D sky130_fd_sc_hd__clkbuf_8
*I *975:CLK I *D sky130_fd_sc_hd__dfrtp_2
*I *976:CLK I *D sky130_fd_sc_hd__dfrtp_2
*I *974:CLK I *D sky130_fd_sc_hd__dfrtp_2
*I *972:CLK I *D sky130_fd_sc_hd__dfrtp_2
*I *973:CLK I *D sky130_fd_sc_hd__dfrtp_2
*I *969:CLK I *D sky130_fd_sc_hd__dfrtp_2
*I *971:CLK I *D sky130_fd_sc_hd__dfrtp_2
*I *970:CLK I *D sky130_fd_sc_hd__dfrtp_2
*I *965:CLK I *D sky130_fd_sc_hd__dfrtp_2
*I *989:X O *D sky130_fd_sc_hd__clkbuf_16
*CAP
1 *978:CLK 0.000658541
2 *977:CLK 0
3 *990:A 0
4 *975:CLK 0
5 *976:CLK 0
6 *974:CLK 0
7 *972:CLK 0.000156841
8 *973:CLK 3.23488e-05
9 *969:CLK 0.000259304
10 *971:CLK 0
11 *970:CLK 4.24542e-05
12 *965:CLK 0.000723284
13 *989:X 9.60478e-05
14 *85:124 0.00072024
15 *85:107 0.000262167
16 *85:99 0.000773412
17 *85:92 0.00117208
18 *85:83 0.000972914
19 *85:70 0.000410899
20 *85:59 0.000729536
21 *85:30 0.00193571
22 *85:22 0.00129292
23 *85:18 0.000558333
24 *85:14 0.000559869
25 *85:10 0.000433101
26 *85:8 9.60478e-05
27 *965:CLK *965:RESET_B 0.000223723
28 *965:CLK *970:RESET_B 0
29 *972:CLK *108:16 4.82016e-05
30 *973:CLK *94:37 3.46302e-05
31 *978:CLK *902:C 5.3304e-05
32 *978:CLK *902:D 0.000164358
33 *978:CLK *89:131 5.9233e-05
34 *978:CLK *99:10 0.000185368
35 *85:8 *95:37 6.70389e-05
36 *85:14 *944:C 0.000288785
37 *85:18 *939:A 0.000137533
38 *85:18 *939:C 9.41704e-05
39 *85:18 *944:A 5.82853e-05
40 *85:18 *944:B 4.44894e-05
41 *85:18 *944:C 0.000104578
42 *85:22 *944:B 4.9858e-05
43 *85:22 *106:58 8.57577e-05
44 *85:22 *107:34 1.07299e-05
45 *85:30 *938:B1 2.02872e-05
46 *85:30 *969:RESET_B 5.36747e-05
47 *85:30 *106:10 2.50118e-05
48 *85:30 *106:43 0.000405155
49 *85:59 *944:B 8.89987e-05
50 *85:59 *945:B 7.80354e-05
51 *85:59 *108:29 0.000134578
52 *85:70 *108:25 5.76837e-05
53 *85:70 *108:29 6.40115e-05
54 *85:83 *108:16 3.64813e-05
55 *85:83 *108:25 4.21913e-05
56 *85:92 *972:RESET_B 2.57362e-05
57 *85:92 *108:6 0.000127646
58 *85:92 *108:16 4.44894e-05
59 *85:99 *975:RESET_B 0.000125783
60 *85:107 *950:A 0.000277792
61 *85:107 *976:RESET_B 0.000452219
62 *85:107 *95:8 6.25872e-05
63 *85:107 *97:8 3.42479e-05
64 *938:A3 *85:30 0.000230048
65 *945:C *85:22 6.66613e-05
66 *945:C *85:59 0.00021018
67 *970:D *85:30 3.57819e-05
68 *972:D *972:CLK 8.15864e-05
69 *977:D *978:CLK 0.00020833
70 *28:10 *85:22 2.35118e-06
71 *32:10 *85:107 2.67179e-05
72 *73:60 *85:22 3.46013e-05
73 *73:71 *85:22 0.000134776
74 *76:10 *85:30 0.000188927
75 *77:24 *85:59 0.000144816
76 *77:24 *85:70 6.16603e-05
77 *79:12 *973:CLK 5.45644e-05
*RES
1 *989:X *85:8 39.9057 
2 *85:8 *85:10 15 
3 *85:10 *85:14 8.265 
4 *85:14 *85:18 19.9093 
5 *85:18 *85:22 17.9621 
6 *85:22 *85:30 36.1493 
7 *85:30 *965:CLK 49.2064 
8 *85:30 *970:CLK 38.8493 
9 *85:22 *971:CLK 23 
10 *85:18 *85:59 8.59643 
11 *85:59 *969:CLK 42.4329 
12 *85:59 *85:70 5.77929 
13 *85:70 *973:CLK 39.0979 
14 *85:70 *85:83 18.3143 
15 *85:83 *972:CLK 26.48 
16 *85:83 *85:92 13.485 
17 *85:92 *974:CLK 23 
18 *85:92 *85:99 10.15 
19 *85:99 *85:107 37.8714 
20 *85:107 *976:CLK 23 
21 *85:99 *975:CLK 23 
22 *85:14 *990:A 23 
23 *85:10 *85:124 1.09786 
24 *85:124 *977:CLK 23 
25 *85:124 *978:CLK 37.9143 
*END

*D_NET *86 0.016408
*CONN
*I *983:RESET_B I *D sky130_fd_sc_hd__dfrtp_2
*I *984:RESET_B I *D sky130_fd_sc_hd__dfrtp_2
*I *986:SET_B I *D sky130_fd_sc_hd__dfstp_2
*I *969:RESET_B I *D sky130_fd_sc_hd__dfrtp_2
*I *985:RESET_B I *D sky130_fd_sc_hd__dfrtp_2
*I *970:RESET_B I *D sky130_fd_sc_hd__dfrtp_2
*I *965:RESET_B I *D sky130_fd_sc_hd__dfrtp_2
*I *982:SET_B I *D sky130_fd_sc_hd__dfstp_2
*I *993:A I *D sky130_fd_sc_hd__buf_4
*I *966:RESET_B I *D sky130_fd_sc_hd__dfrtp_2
*I *967:RESET_B I *D sky130_fd_sc_hd__dfrtp_2
*I *963:RESET_B I *D sky130_fd_sc_hd__dfrtp_2
*I *964:RESET_B I *D sky130_fd_sc_hd__dfrtp_2
*I *992:X O *D sky130_fd_sc_hd__buf_1
*CAP
1 *983:RESET_B 0.000264522
2 *984:RESET_B 3.58213e-05
3 *986:SET_B 0.00010702
4 *969:RESET_B 0.000454562
5 *985:RESET_B 0.000925226
6 *970:RESET_B 0.000676025
7 *965:RESET_B 8.17099e-05
8 *982:SET_B 0.000723787
9 *993:A 3.65067e-05
10 *966:RESET_B 0.000358917
11 *967:RESET_B 0.000143082
12 *963:RESET_B 0.00115186
13 *964:RESET_B 0.000193151
14 *992:X 0.000381486
15 *86:140 0.000321709
16 *86:138 0.00113914
17 *86:88 0.000563963
18 *86:46 0.00113505
19 *86:35 0.0011435
20 *86:21 0.000850702
21 *86:10 0.000381486
22 *966:RESET_B *102:8 6.17437e-06
23 *969:RESET_B *935:B1 0.00016524
24 *969:RESET_B *105:10 5.61207e-05
25 *969:RESET_B *105:12 0.000142299
26 *969:RESET_B *106:10 5.3304e-05
27 *969:RESET_B *106:12 3.46013e-05
28 *970:RESET_B *903:C 0
29 *982:SET_B *93:8 0.000140856
30 *983:RESET_B *111:25 5.31393e-05
31 *984:RESET_B *111:6 1.07585e-05
32 *985:RESET_B *909:A1 5.52801e-05
33 *985:RESET_B *112:14 0.000216694
34 *993:A *102:8 5.14826e-05
35 *86:46 *924:B 0.000186031
36 *86:46 *100:10 0
37 *86:46 *101:27 0.000112855
38 *86:46 *102:14 0.000116035
39 *86:88 *903:A 0
40 *86:88 *903:B 6.3614e-05
41 *86:88 *903:C 0
42 *86:88 *101:27 4.46849e-05
43 *86:138 *112:8 0.000185542
44 *86:140 *111:25 4.50022e-05
45 *934:B *969:RESET_B 0.000233312
46 *964:CLK *86:21 3.08719e-06
47 *965:CLK *965:RESET_B 0.000223723
48 *965:CLK *970:RESET_B 0
49 *982:CLK *982:SET_B 6.16484e-05
50 *3:10 *969:RESET_B 0
51 *17:10 *982:SET_B 9.65021e-05
52 *22:10 *86:88 0.000197479
53 *39:25 *985:RESET_B 3.84404e-05
54 *49:12 *983:RESET_B 7.23895e-05
55 *51:53 *982:SET_B 0.000682451
56 *56:51 *982:SET_B 0.000158107
57 *56:51 *985:RESET_B 6.2088e-05
58 *67:58 *970:RESET_B 0.000288925
59 *69:23 *86:46 0
60 *71:18 *86:46 0.000158221
61 *73:35 *969:RESET_B 7.51578e-05
62 *75:10 *970:RESET_B 0.000193187
63 *84:31 *963:RESET_B 0.000157393
64 *84:31 *982:SET_B 7.12293e-05
65 *84:33 *963:RESET_B 0.000187535
66 *84:33 *86:21 0.000190664
67 *84:46 *86:10 8.0614e-05
68 *84:69 *86:138 0.000196373
69 *84:124 *966:RESET_B 7.15758e-05
70 *84:124 *993:A 4.53082e-05
71 *85:30 *969:RESET_B 5.36747e-05
*RES
1 *992:X *86:10 44.4214 
2 *86:10 *964:RESET_B 15 
3 *964:RESET_B *86:21 3.88393 
4 *86:21 *963:RESET_B 10.7404 
5 *86:21 *86:35 15 
6 *86:35 *967:RESET_B 16.9057 
7 *86:35 *86:46 35.5693 
8 *86:46 *966:RESET_B 1.97821 
9 *86:46 *993:A 24.0979 
10 *963:RESET_B *982:SET_B 43.0086 
11 *966:RESET_B *86:88 21.5457 
12 *86:88 *965:RESET_B 17.4546 
13 *86:88 *970:RESET_B 20.7793 
14 *982:SET_B *985:RESET_B 35.7793 
15 *970:RESET_B *969:RESET_B 42.9154 
16 *985:RESET_B *86:138 29.3654 
17 *86:138 *86:140 3.66643 
18 *86:140 *986:SET_B 16.9057 
19 *86:140 *984:RESET_B 15.5489 
20 *86:138 *983:RESET_B 21.1314 
*END

*D_NET *87 0.00105233
*CONN
*I *962:B1 I *D sky130_fd_sc_hd__a21o_2
*I *991:X O *D sky130_fd_sc_hd__dlygate4sd3_1
*CAP
1 *962:B1 0
2 *991:X 0.000517646
3 *87:10 0.000517646
4 *87:10 *91:12 5.58975e-06
5 *980:CLK *87:10 1.14452e-05
*RES
1 *991:X *87:10 45.1671 
2 *87:10 *962:B1 38 
*END

*D_NET *88 0.000706944
*CONN
*I *994:A I *D sky130_fd_sc_hd__clkdlybuf4s25_1
*I *986:Q O *D sky130_fd_sc_hd__dfstp_2
*CAP
1 *994:A 0
2 *986:Q 0.000353472
3 *88:10 0.000353472
4 led[3] *88:10 0
*RES
1 *986:Q *88:10 43.2614 
2 *88:10 *994:A 38 
*END

*D_NET *89 0.018435
*CONN
*I *975:RESET_B I *D sky130_fd_sc_hd__dfrtp_2
*I *978:RESET_B I *D sky130_fd_sc_hd__dfrtp_2
*I *980:RESET_B I *D sky130_fd_sc_hd__dfrtp_2
*I *981:RESET_B I *D sky130_fd_sc_hd__dfrtp_2
*I *976:RESET_B I *D sky130_fd_sc_hd__dfrtp_2
*I *974:RESET_B I *D sky130_fd_sc_hd__dfrtp_2
*I *972:RESET_B I *D sky130_fd_sc_hd__dfrtp_2
*I *977:RESET_B I *D sky130_fd_sc_hd__dfrtp_2
*I *979:RESET_B I *D sky130_fd_sc_hd__dfrtp_2
*I *973:RESET_B I *D sky130_fd_sc_hd__dfrtp_2
*I *971:RESET_B I *D sky130_fd_sc_hd__dfrtp_2
*I *968:RESET_B I *D sky130_fd_sc_hd__dfrtp_2
*I *993:X O *D sky130_fd_sc_hd__buf_4
*CAP
1 *975:RESET_B 0.000382372
2 *978:RESET_B 7.80538e-05
3 *980:RESET_B 0
4 *981:RESET_B 0.000106633
5 *976:RESET_B 0.000502157
6 *974:RESET_B 0.000489361
7 *972:RESET_B 0.000140092
8 *977:RESET_B 0.00102354
9 *979:RESET_B 0.000531763
10 *973:RESET_B 0.00168286
11 *971:RESET_B 0.000756621
12 *968:RESET_B 0.000869677
13 *993:X 0.000327482
14 *89:135 0.000601759
15 *89:133 0.000573179
16 *89:131 0.000863853
17 *89:98 0.00119967
18 *89:63 0.000691449
19 *89:61 0.000437164
20 *89:40 0.00141684
21 *89:8 0.000467973
22 *971:RESET_B *896:A 0.000248151
23 *971:RESET_B *901:D_N 1.16551e-05
24 *971:RESET_B *107:8 1.90678e-05
25 *971:RESET_B *108:48 0.000248314
26 *972:RESET_B *108:6 4.89921e-05
27 *975:RESET_B *96:10 9.35569e-05
28 *976:RESET_B *950:A 0.000162643
29 *976:RESET_B *97:8 8.29338e-05
30 *981:RESET_B *92:25 0
31 *89:61 *901:C 3.85802e-05
32 *89:98 *950:A 5.76359e-05
33 *89:98 *94:8 1.2026e-05
34 *89:98 *94:37 0.00014006
35 *89:131 *902:D 5.3304e-05
36 *89:131 *956:A1 8.57485e-05
37 *89:135 *92:25 0
38 *949:B *89:98 5.43448e-05
39 *950:B *89:98 0.0001296
40 *956:B1_N *89:131 0.000274391
41 *957:B *89:131 0.000185618
42 *977:D *89:131 4.89921e-05
43 *978:CLK *89:131 5.9233e-05
44 *32:10 *976:RESET_B 0.000230056
45 *35:8 *978:RESET_B 0.000110267
46 *35:8 *89:135 3.673e-05
47 *37:8 *981:RESET_B 0
48 *45:8 *979:RESET_B 0.000194044
49 *53:8 *89:131 1.94812e-05
50 *53:12 *89:61 0.00045297
51 *54:16 *971:RESET_B 0.000211875
52 *54:16 *89:40 2.84479e-05
53 *54:16 *89:61 0.000379171
54 *56:10 *89:61 6.12127e-05
55 *56:14 *979:RESET_B 0
56 *65:33 *968:RESET_B 1.41891e-05
57 *65:33 *89:8 5.56279e-05
58 *66:10 *968:RESET_B 0.000193024
59 *66:10 *89:8 7.87147e-05
60 *73:25 *971:RESET_B 0.000111703
61 *81:8 *973:RESET_B 0
62 *83:17 *971:RESET_B 0
63 *83:17 *973:RESET_B 0
64 *83:31 *971:RESET_B 0
65 *84:124 *89:8 0.000456443
66 *85:92 *972:RESET_B 2.57362e-05
67 *85:99 *975:RESET_B 0.000125783
68 *85:107 *976:RESET_B 0.000452219
*RES
1 *993:X *89:8 46.7207 
2 *89:8 *968:RESET_B 18.3143 
3 *968:RESET_B *971:RESET_B 47.2032 
4 *971:RESET_B *89:40 0.548929 
5 *89:40 *973:RESET_B 47.6693 
6 *89:40 *89:61 40.5436 
7 *89:61 *89:63 15 
8 *89:63 *979:RESET_B 25.7093 
9 *89:63 *977:RESET_B 17.9621 
10 *973:RESET_B *972:RESET_B 32.4546 
11 *973:RESET_B *89:98 11.5068 
12 *89:98 *974:RESET_B 31.9057 
13 *89:98 *976:RESET_B 11.9832 
14 *977:RESET_B *89:131 43.0189 
15 *89:131 *89:133 15 
16 *89:133 *89:135 10.005 
17 *89:135 *981:RESET_B 16.9057 
18 *89:135 *980:RESET_B 15 
19 *89:133 *978:RESET_B 16.5536 
20 *974:RESET_B *975:RESET_B 7.47786 
*END

*D_NET *90 0.00192485
*CONN
*I *907:B I *D sky130_fd_sc_hd__nand3_2
*I *959:B I *D sky130_fd_sc_hd__and4_2
*I *958:B1 I *D sky130_fd_sc_hd__a21oi_2
*I *979:Q O *D sky130_fd_sc_hd__dfrtp_2
*CAP
1 *907:B 0.000214681
2 *959:B 6.35995e-05
3 *958:B1 0.000211787
4 *979:Q 0
5 *90:8 0.000410614
6 *90:4 0.000349909
7 *907:B *907:C 6.2228e-05
8 *959:B *959:A 5.3304e-05
9 *959:C *959:B 9.3688e-05
10 *961:B *959:B 0.000230718
11 *45:8 *958:B1 3.28604e-05
12 *45:8 *90:8 5.88494e-05
13 *84:153 *907:B 0.000142611
*RES
1 *979:Q *90:4 23 
2 *90:4 *90:8 17.9621 
3 *90:8 *958:B1 41.7079 
4 *90:8 *959:B 40.5271 
5 *90:4 *907:B 28.4064 
*END

*D_NET *91 0.00294516
*CONN
*I *962:A1 I *D sky130_fd_sc_hd__a21o_2
*I *907:A I *D sky130_fd_sc_hd__nand3_2
*I *961:A I *D sky130_fd_sc_hd__xor2_2
*I *980:Q O *D sky130_fd_sc_hd__dfrtp_2
*CAP
1 *962:A1 0
2 *907:A 2.77218e-05
3 *961:A 0.000247642
4 *980:Q 0.000687011
5 *91:12 0.000414809
6 *91:8 0.000826456
7 *907:A *907:C 5.3304e-05
8 *961:B *961:A 5.56279e-05
9 *980:CLK *91:8 0.000144501
10 *980:CLK *91:12 3.98882e-06
11 *980:D *91:8 2.93335e-05
12 *38:12 *91:8 1.21972e-05
13 *46:26 *961:A 5.73056e-05
14 *46:26 *91:8 2.64616e-05
15 *46:26 *91:12 0.000161748
16 *57:10 *961:A 0.000165003
17 *84:153 *907:A 2.64616e-05
18 *87:10 *91:12 5.58975e-06
*RES
1 *980:Q *91:8 35.5529 
2 *91:8 *91:12 17.61 
3 *91:12 *961:A 42.7021 
4 *91:12 *907:A 38.6214 
5 *91:8 *962:A1 23 
*END

*D_NET *92 0.00238113
*CONN
*I *991:A I *D sky130_fd_sc_hd__dlygate4sd3_1
*I *907:C I *D sky130_fd_sc_hd__nand3_2
*I *981:Q O *D sky130_fd_sc_hd__dfrtp_2
*CAP
1 *991:A 0
2 *907:C 0.000580825
3 *981:Q 8.23636e-05
4 *92:25 0.000311793
5 *92:6 0.000974982
6 *907:A *907:C 5.3304e-05
7 *907:B *907:C 6.2228e-05
8 *981:D *907:C 0.000102413
9 *981:RESET_B *92:25 0
10 *57:10 *907:C 4.67488e-05
11 *84:153 *907:C 0.000166469
12 *89:135 *92:25 0
*RES
1 *981:Q *92:6 24.5743 
2 *92:6 *907:C 35.5943 
3 *92:6 *92:25 35.7793 
4 *92:25 *991:A 23 
*END

*D_NET *93 0.00364422
*CONN
*I *904:D I *D sky130_fd_sc_hd__and4b_2
*I *931:A I *D sky130_fd_sc_hd__and4_2
*I *915:A I *D sky130_fd_sc_hd__and3_2
*I *916:B1 I *D sky130_fd_sc_hd__a21oi_2
*I *963:Q O *D sky130_fd_sc_hd__dfrtp_2
*CAP
1 *904:D 0.000214266
2 *931:A 0
3 *915:A 3.14462e-05
4 *916:B1 0.000230793
5 *963:Q 0.000278084
6 *93:36 0.000459742
7 *93:21 0.000446749
8 *93:8 0.000678703
9 *904:D *904:A_N 4.96717e-05
10 *904:D *904:C 6.51763e-05
11 *93:36 *904:A_N 2.64616e-05
12 *915:B *915:A 1.05235e-05
13 *915:C *915:A 5.3304e-05
14 *916:A1 *916:B1 0.000169016
15 *916:A1 *93:21 0.000218382
16 *916:A2 *916:B1 2.2385e-05
17 *932:C *93:36 0.000237664
18 *982:SET_B *93:8 0.000140856
19 *51:12 *93:21 0.000107276
20 *51:12 *93:36 0.000110267
21 *62:10 *916:B1 2.07484e-05
22 *84:31 *93:8 7.27073e-05
*RES
1 *963:Q *93:8 41.9564 
2 *93:8 *916:B1 42.785 
3 *93:8 *93:21 4.37071 
4 *93:21 *915:A 38.6214 
5 *93:21 *93:36 20.3443 
6 *93:36 *931:A 23 
7 *93:36 *904:D 26.9771 
*END

*D_NET *94 0.00595021
*CONN
*I *943:B1 I *D sky130_fd_sc_hd__a21oi_2
*I *944:C I *D sky130_fd_sc_hd__and3_2
*I *901:C I *D sky130_fd_sc_hd__or4b_2
*I *973:Q O *D sky130_fd_sc_hd__dfrtp_2
*CAP
1 *943:B1 0
2 *944:C 0.000511905
3 *901:C 0.000229629
4 *973:Q 0.000919306
5 *94:37 0.000869015
6 *94:10 0.00136169
7 *94:8 0.00067045
8 *901:C *95:37 5.82713e-05
9 *94:10 *95:31 0.000217924
10 *94:10 *95:37 0.000217992
11 *973:CLK *94:37 3.46302e-05
12 *973:D *94:37 1.84831e-05
13 *55:14 *901:C 0.000240031
14 *79:12 *94:37 1.68505e-05
15 *85:14 *944:C 0.000288785
16 *85:18 *944:C 0.000104578
17 *89:61 *901:C 3.85802e-05
18 *89:98 *94:8 1.2026e-05
19 *89:98 *94:37 0.00014006
*RES
1 *973:Q *94:8 38.6214 
2 *94:8 *94:10 14.2307 
3 *94:10 *901:C 43.075 
4 *94:10 *944:C 45.7679 
5 *973:Q *94:37 34.9521 
6 *94:37 *943:B1 23 
*END

*D_NET *95 0.00779017
*CONN
*I *951:A1 I *D sky130_fd_sc_hd__a31oi_2
*I *948:A I *D sky130_fd_sc_hd__nand2_2
*I *953:A I *D sky130_fd_sc_hd__and4_2
*I *955:A I *D sky130_fd_sc_hd__and4_2
*I *901:B I *D sky130_fd_sc_hd__or4b_2
*I *947:A I *D sky130_fd_sc_hd__nor2_2
*I *974:Q O *D sky130_fd_sc_hd__dfrtp_2
*CAP
1 *951:A1 0.000106037
2 *948:A 0
3 *953:A 0.000207294
4 *955:A 0
5 *901:B 0
6 *947:A 4.74257e-05
7 *974:Q 0.000250132
8 *95:52 8.45684e-05
9 *95:46 0.000904189
10 *95:37 0.000572434
11 *95:31 0.00145167
12 *95:20 0.000429009
13 *95:14 0.000426907
14 *95:10 0.00041827
15 *95:8 0.000250132
16 *951:A1 *951:A2 5.79559e-05
17 *953:A *953:B 0.000102389
18 *953:A *953:C 0.000146822
19 *901:C *95:37 5.82713e-05
20 *953:D *953:A 0.000100069
21 *954:B *951:A1 0.000162476
22 *956:A2 *95:52 9.53759e-05
23 *43:8 *953:A 8.06804e-06
24 *52:10 *95:37 0.000176794
25 *55:14 *95:37 0.000158796
26 *81:21 *95:14 0
27 *81:27 *95:14 4.77796e-05
28 *81:27 *95:20 0.000235687
29 *81:34 *951:A1 4.21921e-05
30 *81:34 *95:14 0.000683881
31 *85:8 *95:37 6.70389e-05
32 *85:107 *95:8 6.25872e-05
33 *94:10 *95:31 0.000217924
34 *94:10 *95:37 0.000217992
*RES
1 *974:Q *95:8 42.7229 
2 *95:8 *95:10 15 
3 *95:10 *95:14 8.74143 
4 *95:14 *95:20 18.1486 
5 *95:20 *947:A 38.6214 
6 *95:20 *95:31 6.13143 
7 *95:31 *95:37 27.0557 
8 *95:37 *901:B 23 
9 *95:31 *95:46 25.15 
10 *95:46 *95:52 31.9057 
11 *95:52 *955:A 23 
12 *95:46 *953:A 27.4329 
13 *95:14 *948:A 23 
14 *95:10 *951:A1 26.1693 
*END

*D_NET *96 0.00561613
*CONN
*I *950:A I *D sky130_fd_sc_hd__xnor2_2
*I *951:A2 I *D sky130_fd_sc_hd__a31oi_2
*I *953:C I *D sky130_fd_sc_hd__and4_2
*I *952:B I *D sky130_fd_sc_hd__and2_2
*I *902:B I *D sky130_fd_sc_hd__or4_2
*I *975:Q O *D sky130_fd_sc_hd__dfrtp_2
*CAP
1 *950:A 0.000309062
2 *951:A2 8.54055e-05
3 *953:C 0.000131068
4 *952:B 0.000115953
5 *902:B 5.97651e-05
6 *975:Q 0.000616668
7 *96:16 0.000265489
8 *96:14 0.00049217
9 *96:12 0.00047397
10 *96:10 0.00104296
11 *902:B *955:B 0
12 *902:B *97:28 0.000141879
13 *952:B *952:A 6.06161e-05
14 *953:C *953:B 2.1819e-05
15 *96:12 *97:10 6.67651e-05
16 *96:14 *97:10 1.16455e-05
17 *96:14 *97:14 0.000426287
18 *96:14 *97:16 6.25829e-05
19 *96:16 *955:B 0
20 *96:16 *97:16 0.000102629
21 *96:16 *97:28 6.16531e-05
22 *951:A1 *951:A2 5.79559e-05
23 *953:A *953:C 0.000146822
24 *954:B *951:A2 7.12002e-05
25 *955:C *96:14 0
26 *955:C *96:16 0
27 *955:D *952:B 9.65021e-05
28 *956:A2 *96:16 0
29 *975:RESET_B *96:10 9.35569e-05
30 *976:RESET_B *950:A 0.000162643
31 *32:10 *96:10 1.85903e-05
32 *44:10 *902:B 8.50366e-05
33 *81:38 *96:14 0
34 *85:107 *950:A 0.000277792
35 *89:98 *950:A 5.76359e-05
*RES
1 *975:Q *96:10 46.5964 
2 *96:10 *96:12 2.61 
3 *96:12 *96:14 6.83571 
4 *96:14 *96:16 2.25786 
5 *96:16 *902:B 39.9057 
6 *96:16 *952:B 40.5479 
7 *96:14 *953:C 40.0507 
8 *96:12 *951:A2 40.0507 
9 *96:10 *950:A 45.7886 
*END

*D_NET *97 0.00535851
*CONN
*I *951:B1 I *D sky130_fd_sc_hd__a31oi_2
*I *953:B I *D sky130_fd_sc_hd__and4_2
*I *952:A I *D sky130_fd_sc_hd__and2_2
*I *902:A I *D sky130_fd_sc_hd__or4_2
*I *976:Q O *D sky130_fd_sc_hd__dfrtp_2
*CAP
1 *951:B1 0
2 *953:B 0.000100254
3 *952:A 0.000125109
4 *902:A 0
5 *976:Q 0.000734151
6 *97:28 0.000473046
7 *97:16 0.000696811
8 *97:14 0.000447124
9 *97:10 0.000375251
10 *97:8 0.000861187
11 *97:28 *902:D 0.000135037
12 *97:28 *99:10 2.30282e-05
13 *97:28 *99:25 5.91105e-05
14 *902:B *97:28 0.000141879
15 *952:B *952:A 6.06161e-05
16 *953:A *953:B 0.000102389
17 *953:C *953:B 2.1819e-05
18 *955:D *952:A 5.56356e-05
19 *976:RESET_B *97:8 8.29338e-05
20 *44:10 *97:28 9.17321e-05
21 *53:8 *97:28 5.58975e-06
22 *85:107 *97:8 3.42479e-05
23 *96:12 *97:10 6.67651e-05
24 *96:14 *97:10 1.16455e-05
25 *96:14 *97:14 0.000426287
26 *96:14 *97:16 6.25829e-05
27 *96:16 *97:16 0.000102629
28 *96:16 *97:28 6.16531e-05
*RES
1 *976:Q *97:8 48.15 
2 *97:8 *97:10 2.25786 
3 *97:10 *97:14 6.40071 
4 *97:14 *97:16 2.25786 
5 *97:16 *97:28 37.8921 
6 *97:28 *902:A 38 
7 *97:16 *952:A 40.5479 
8 *97:14 *953:B 40.0507 
9 *97:10 *951:B1 38 
*END

*D_NET *98 0.00211151
*CONN
*I *955:B I *D sky130_fd_sc_hd__and4_2
*I *902:D I *D sky130_fd_sc_hd__or4_2
*I *956:A1 I *D sky130_fd_sc_hd__o21ba_2
*I *977:Q O *D sky130_fd_sc_hd__dfrtp_2
*CAP
1 *955:B 8.05805e-05
2 *902:D 0.000195197
3 *956:A1 0.000151813
4 *977:Q 0
5 *98:8 0.00040254
6 *98:6 0.000136111
7 *902:D *902:C 5.3304e-05
8 *902:D *99:10 4.08664e-05
9 *902:B *955:B 0
10 *956:A2 *955:B 0.00016046
11 *956:A2 *956:A1 0.000215925
12 *956:A2 *98:8 0.000106393
13 *956:B1_N *956:A1 4.94924e-05
14 *978:CLK *902:D 0.000164358
15 *44:10 *955:B 0
16 *44:10 *98:8 0
17 *53:12 *956:A1 8.03819e-05
18 *89:131 *902:D 5.3304e-05
19 *89:131 *956:A1 8.57485e-05
20 *96:16 *955:B 0
21 *97:28 *902:D 0.000135037
*RES
1 *977:Q *98:6 38 
2 *98:6 *98:8 1.55357 
3 *98:8 *956:A1 42.1843 
4 *98:8 *902:D 42.4329 
5 *98:6 *955:B 40.2579 
*END

*D_NET *99 0.00272849
*CONN
*I *957:A I *D sky130_fd_sc_hd__xor2_2
*I *902:C I *D sky130_fd_sc_hd__or4_2
*I *978:Q O *D sky130_fd_sc_hd__dfrtp_2
*CAP
1 *957:A 0
2 *902:C 2.32701e-05
3 *978:Q 0.000786722
4 *99:25 0.000171137
5 *99:10 0.000981129
6 *902:D *902:C 5.3304e-05
7 *902:D *99:10 4.08664e-05
8 *957:B *99:25 0.000100318
9 *978:CLK *902:C 5.3304e-05
10 *978:CLK *99:10 0.000185368
11 *978:D *99:10 9.50872e-05
12 *44:10 *99:25 0.000155844
13 *97:28 *99:10 2.30282e-05
14 *97:28 *99:25 5.91105e-05
*RES
1 *978:Q *99:10 35.0971 
2 *99:10 *902:C 23.6214 
3 *99:10 *99:25 33.7079 
4 *99:25 *957:A 23 
*END

*D_NET *100 0.00654728
*CONN
*I *924:A I *D sky130_fd_sc_hd__and3_2
*I *919:A I *D sky130_fd_sc_hd__or2_2
*I *918:A I *D sky130_fd_sc_hd__nand2_2
*I *904:A_N I *D sky130_fd_sc_hd__and4b_2
*I *931:B I *D sky130_fd_sc_hd__and4_2
*I *964:Q O *D sky130_fd_sc_hd__dfrtp_2
*CAP
1 *924:A 0.000145954
2 *919:A 0
3 *918:A 0.000232734
4 *904:A_N 7.43306e-05
5 *931:B 0
6 *964:Q 0.000424411
7 *100:38 0.000433772
8 *100:36 0.000783346
9 *100:16 0.000590211
10 *100:10 0.00137664
11 *904:A_N *904:C 0.000182542
12 *100:16 *904:C 4.73465e-05
13 *100:16 *103:19 0.000629427
14 *904:D *904:A_N 4.96717e-05
15 *918:B *918:A 0
16 *923:A *918:A 5.79559e-05
17 *924:C *100:10 6.93627e-05
18 *924:C *100:36 3.82956e-05
19 *928:A2 *100:16 9.84851e-05
20 *928:A2 *100:36 7.44257e-05
21 *928:B1 *100:16 4.19743e-05
22 *929:B *100:16 9.84851e-05
23 *24:8 *100:10 0.000295041
24 *48:6 *100:16 0.000312348
25 *61:23 *100:10 0.000103123
26 *63:20 *100:38 0
27 *63:29 *924:A 0
28 *63:29 *100:38 0
29 *64:10 *918:A 0.000154695
30 *67:26 *918:A 4.93812e-05
31 *69:23 *100:36 3.0647e-05
32 *70:10 *100:10 8.62783e-05
33 *71:31 *100:16 1.03836e-05
34 *84:33 *100:10 2.95423e-05
35 *86:46 *100:10 0
36 *93:36 *904:A_N 2.64616e-05
*RES
1 *964:Q *100:10 46.1614 
2 *100:10 *100:16 28.9821 
3 *100:16 *931:B 23 
4 *100:16 *904:A_N 25.0507 
5 *100:10 *100:36 36.1107 
6 *100:36 *100:38 4.01857 
7 *100:38 *918:A 43.4479 
8 *100:38 *919:A 38 
9 *100:36 *924:A 40.175 
*END

*D_NET *101 0.00483733
*CONN
*I *903:B I *D sky130_fd_sc_hd__or4b_2
*I *926:B I *D sky130_fd_sc_hd__nand2_2
*I *924:B I *D sky130_fd_sc_hd__and3_2
*I *925:A I *D sky130_fd_sc_hd__xnor2_2
*I *965:Q O *D sky130_fd_sc_hd__dfrtp_2
*CAP
1 *903:B 0.000236198
2 *926:B 0
3 *924:B 0.000448209
4 *925:A 9.2785e-05
5 *965:Q 0.000347029
6 *101:27 0.000699304
7 *101:25 0.000886855
8 *101:12 0.000492346
9 *101:10 0.000347029
10 *903:B *903:A 0
11 *903:B *903:D_N 4.04598e-06
12 *101:27 *903:A 0
13 *101:27 *102:14 0
14 *924:C *924:B 5.03471e-05
15 *925:B *101:25 0.000320642
16 *932:A_N *924:B 0.000100486
17 *22:10 *101:25 9.74722e-05
18 *68:10 *924:B 9.89906e-05
19 *69:19 *924:B 0.000186031
20 *69:19 *101:27 2.23754e-05
21 *86:46 *924:B 0.000186031
22 *86:46 *101:27 0.000112855
23 *86:88 *903:B 6.3614e-05
24 *86:88 *101:27 4.46849e-05
*RES
1 *965:Q *101:10 42.6607 
2 *101:10 *101:12 15 
3 *101:12 *925:A 24.595 
4 *101:12 *101:25 22.7679 
5 *101:25 *101:27 5.42714 
6 *101:27 *924:B 48.9579 
7 *101:27 *926:B 38 
8 *101:25 *903:B 42.1843 
*END

*D_NET *102 0.00211397
*CONN
*I *903:A I *D sky130_fd_sc_hd__or4b_2
*I *927:A1 I *D sky130_fd_sc_hd__o22a_2
*I *926:A I *D sky130_fd_sc_hd__nand2_2
*I *966:Q O *D sky130_fd_sc_hd__dfrtp_2
*CAP
1 *903:A 0.000275133
2 *927:A1 0.000214078
3 *926:A 0
4 *966:Q 8.32133e-05
5 *102:14 0.0004503
6 *102:8 0.000594569
7 *903:A *903:C 4.21594e-06
8 *903:B *903:A 0
9 *927:B1 *927:A1 0.000189848
10 *966:RESET_B *102:8 6.17437e-06
11 *993:A *102:8 5.14826e-05
12 *69:6 *927:A1 0.000128918
13 *86:46 *102:14 0.000116035
14 *86:88 *903:A 0
15 *101:27 *903:A 0
16 *101:27 *102:14 0
*RES
1 *966:Q *102:8 39.0979 
2 *102:8 *102:14 19.64 
3 *102:14 *926:A 23 
4 *102:14 *927:A1 27.93 
5 *102:8 *903:A 43.075 
*END

*D_NET *103 0.003751
*CONN
*I *904:C I *D sky130_fd_sc_hd__and4b_2
*I *931:D I *D sky130_fd_sc_hd__and4_2
*I *897:A I *D sky130_fd_sc_hd__inv_2
*I *967:Q O *D sky130_fd_sc_hd__dfrtp_2
*CAP
1 *904:C 0.000156083
2 *931:D 0
3 *897:A 0
4 *967:Q 0.000197312
5 *103:19 0.000299313
6 *103:12 0.00075284
7 *103:8 0.000806922
8 *904:C *931:C 0.000354796
9 *904:A_N *904:C 0.000182542
10 *904:D *904:C 6.51763e-05
11 *71:18 *103:12 0
12 *71:31 *103:19 0.000227036
13 *72:10 *103:19 3.22051e-05
14 *100:16 *904:C 4.73465e-05
15 *100:16 *103:19 0.000629427
*RES
1 *967:Q *103:8 40.5271 
2 *103:8 *103:12 25.7093 
3 *103:12 *897:A 23 
4 *103:12 *103:19 6.815 
5 *103:19 *931:D 23 
6 *103:19 *904:C 28.4064 
*END

*D_NET *104 0.00332258
*CONN
*I *896:A I *D sky130_fd_sc_hd__inv_2
*I *904:B I *D sky130_fd_sc_hd__and4b_2
*I *931:C I *D sky130_fd_sc_hd__and4_2
*I *968:Q O *D sky130_fd_sc_hd__dfrtp_2
*CAP
1 *896:A 0.000154558
2 *904:B 0
3 *931:C 0.000263624
4 *968:Q 0.000168543
5 *104:12 0.000564871
6 *104:8 0.000624348
7 *904:C *931:C 0.000354796
8 *971:RESET_B *896:A 0.000248151
9 *60:74 *896:A 0.000252661
10 *60:74 *104:12 0.000137754
11 *65:10 *104:12 8.7376e-05
12 *67:18 *104:12 0.000324726
13 *67:50 *104:12 2.11157e-05
14 *73:25 *896:A 2.46399e-05
15 *73:25 *104:12 1.23676e-05
16 *84:112 *104:8 8.30457e-05
*RES
1 *968:Q *104:8 40.5271 
2 *104:8 *104:12 21.8357 
3 *104:12 *931:C 26.9564 
4 *104:12 *904:B 23 
5 *104:8 *896:A 42.64 
*END

*D_NET *105 0.00558862
*CONN
*I *944:A I *D sky130_fd_sc_hd__and3_2
*I *934:A I *D sky130_fd_sc_hd__xor2_2
*I *935:A1 I *D sky130_fd_sc_hd__a21o_2
*I *939:A I *D sky130_fd_sc_hd__and4_2
*I *938:A1 I *D sky130_fd_sc_hd__a31o_2
*I *936:A I *D sky130_fd_sc_hd__nand3_2
*I *903:C I *D sky130_fd_sc_hd__or4b_2
*I *969:Q O *D sky130_fd_sc_hd__dfrtp_2
*CAP
1 *944:A 2.51334e-05
2 *934:A 0
3 *935:A1 0
4 *939:A 0.000456806
5 *938:A1 0
6 *936:A 3.45601e-05
7 *903:C 0.000129601
8 *969:Q 0.000156362
9 *105:48 0.000238441
10 *105:40 0.00123539
11 *105:36 0.000714118
12 *105:14 0.000404454
13 *105:12 0.000640223
14 *105:10 0.000407448
15 *903:C *903:D_N 7.98534e-05
16 *939:A *939:C 1.9054e-05
17 *939:A *944:B 4.98398e-05
18 *105:12 *935:B1 1.74126e-05
19 *105:14 *903:D_N 3.41998e-06
20 *105:14 *935:B1 6.09979e-05
21 *105:14 *106:12 0.000121767
22 *105:48 *106:43 0.000196084
23 *105:48 *106:58 5.31263e-05
24 *903:A *903:C 4.21594e-06
25 *937:B *105:36 2.45549e-06
26 *940:A *939:A 0.000110395
27 *969:RESET_B *105:10 5.61207e-05
28 *969:RESET_B *105:12 0.000142299
29 *970:RESET_B *903:C 0
30 *3:10 *903:C 0
31 *67:58 *105:14 0
32 *75:10 *936:A 1.84831e-05
33 *78:10 *939:A 1.47394e-05
34 *85:18 *939:A 0.000137533
35 *85:18 *944:A 5.82853e-05
36 *86:88 *903:C 0
*RES
1 *969:Q *105:10 40.8793 
2 *105:10 *105:12 6.13143 
3 *105:12 *105:14 5.42714 
4 *105:14 *903:C 40.61 
5 *105:14 *936:A 38.6214 
6 *105:12 *105:36 17.0507 
7 *105:36 *105:40 7.31214 
8 *105:40 *105:48 33.7286 
9 *105:48 *938:A1 23 
10 *105:40 *939:A 30.2086 
11 *105:36 *935:A1 23 
12 *105:10 *934:A 38 
13 *939:A *944:A 46.6214 
*END

*D_NET *106 0.00504127
*CONN
*I *944:B I *D sky130_fd_sc_hd__and3_2
*I *939:B I *D sky130_fd_sc_hd__and4_2
*I *938:A2 I *D sky130_fd_sc_hd__a31o_2
*I *935:B1 I *D sky130_fd_sc_hd__a21o_2
*I *936:B I *D sky130_fd_sc_hd__nand3_2
*I *903:D_N I *D sky130_fd_sc_hd__or4b_2
*I *970:Q O *D sky130_fd_sc_hd__dfrtp_2
*CAP
1 *944:B 0.000245366
2 *939:B 0
3 *938:A2 0
4 *935:B1 7.03016e-05
5 *936:B 0
6 *903:D_N 0.000276148
7 *970:Q 2.18824e-05
8 *106:58 0.000485489
9 *106:43 0.000592117
10 *106:12 0.000436442
11 *106:10 0.00029422
12 *106:6 0.000437502
13 *944:B *945:B 0.000101185
14 *944:B *107:34 3.673e-05
15 *106:58 *938:B1 0.000140021
16 *106:58 *107:34 8.57577e-05
17 *903:B *903:D_N 4.04598e-06
18 *903:C *903:D_N 7.98534e-05
19 *938:A3 *106:43 6.27856e-05
20 *938:A3 *106:58 9.7474e-05
21 *939:A *944:B 4.98398e-05
22 *969:RESET_B *935:B1 0.00016524
23 *969:RESET_B *106:10 5.3304e-05
24 *969:RESET_B *106:12 3.46013e-05
25 *3:10 *903:D_N 0
26 *54:6 *903:D_N 5.00462e-05
27 *73:35 *903:D_N 2.75733e-06
28 *73:35 *106:12 6.60845e-05
29 *85:18 *944:B 4.44894e-05
30 *85:22 *944:B 4.9858e-05
31 *85:22 *106:58 8.57577e-05
32 *85:30 *106:10 2.50118e-05
33 *85:30 *106:43 0.000405155
34 *85:59 *944:B 8.89987e-05
35 *105:12 *935:B1 1.74126e-05
36 *105:14 *903:D_N 3.41998e-06
37 *105:14 *935:B1 6.09979e-05
38 *105:14 *106:12 0.000121767
39 *105:48 *106:43 0.000196084
40 *105:48 *106:58 5.31263e-05
*RES
1 *970:Q *106:6 23.4971 
2 *106:6 *106:10 16.0979 
3 *106:10 *106:12 3.66643 
4 *106:12 *903:D_N 43.2821 
5 *106:12 *936:B 38 
6 *106:10 *935:B1 40.2579 
7 *106:6 *106:43 8.7725 
8 *106:43 *938:A2 23 
9 *106:43 *106:58 19.7954 
10 *106:58 *939:B 38 
11 *106:58 *944:B 42.4329 
*END

*D_NET *107 0.00480772
*CONN
*I *945:B I *D sky130_fd_sc_hd__and4_2
*I *939:C I *D sky130_fd_sc_hd__and4_2
*I *938:B1 I *D sky130_fd_sc_hd__a31o_2
*I *901:D_N I *D sky130_fd_sc_hd__or4b_2
*I *971:Q O *D sky130_fd_sc_hd__dfrtp_2
*CAP
1 *945:B 0.00019801
2 *939:C 8.83112e-05
3 *938:B1 9.12098e-05
4 *901:D_N 0.000309054
5 *971:Q 0.000529015
6 *107:34 0.00036089
7 *107:23 0.000247558
8 *107:8 0.000919849
9 *901:D_N *108:48 0.000589867
10 *945:B *108:29 5.94125e-05
11 *945:B *108:48 5.63378e-05
12 *107:23 *108:48 0.000119659
13 *107:34 *108:48 3.40882e-05
14 *938:A3 *938:B1 5.5792e-05
15 *939:A *939:C 1.9054e-05
16 *944:B *945:B 0.000101185
17 *944:B *107:34 3.673e-05
18 *945:C *945:B 9.5877e-05
19 *971:RESET_B *901:D_N 1.16551e-05
20 *971:RESET_B *107:8 1.90678e-05
21 *28:10 *901:D_N 8.57577e-05
22 *28:10 *107:23 5.52801e-05
23 *54:16 *107:8 0.000269991
24 *73:25 *901:D_N 2.35118e-06
25 *73:60 *901:D_N 2.271e-05
26 *85:18 *939:C 9.41704e-05
27 *85:22 *107:34 1.07299e-05
28 *85:30 *938:B1 2.02872e-05
29 *85:59 *945:B 7.80354e-05
30 *106:58 *938:B1 0.000140021
31 *106:58 *107:34 8.57577e-05
*RES
1 *971:Q *107:8 45.2914 
2 *107:8 *901:D_N 45.6436 
3 *107:8 *107:23 2.65143 
4 *107:23 *938:B1 40.0507 
5 *107:23 *107:34 1.90571 
6 *107:34 *939:C 39.595 
7 *107:34 *945:B 42.7643 
*END

*D_NET *108 0.00607715
*CONN
*I *942:A I *D sky130_fd_sc_hd__xor2_2
*I *901:A I *D sky130_fd_sc_hd__or4b_2
*I *945:A I *D sky130_fd_sc_hd__and4_2
*I *943:A1 I *D sky130_fd_sc_hd__a21oi_2
*I *972:Q O *D sky130_fd_sc_hd__dfrtp_2
*CAP
1 *942:A 0
2 *901:A 0
3 *945:A 3.68553e-05
4 *943:A1 0
5 *972:Q 0.000288883
6 *108:48 0.000665678
7 *108:29 0.00107897
8 *108:25 0.000590047
9 *108:16 0.00038731
10 *108:6 0.000889799
11 *901:D_N *108:48 0.000589867
12 *943:A2 *108:16 0.000100061
13 *945:B *108:29 5.94125e-05
14 *945:B *108:48 5.63378e-05
15 *945:C *945:A 5.3304e-05
16 *945:C *108:48 9.67842e-05
17 *971:RESET_B *108:48 0.000248314
18 *972:CLK *108:16 4.82016e-05
19 *972:RESET_B *108:6 4.89921e-05
20 *30:10 *108:25 1.61983e-05
21 *52:10 *108:48 3.66555e-05
22 *79:12 *108:16 4.91172e-06
23 *79:12 *108:25 8.08108e-05
24 *79:12 *108:29 5.75756e-06
25 *80:8 *108:48 3.31683e-05
26 *81:8 *108:29 0
27 *83:17 *108:48 0
28 *85:59 *108:29 0.000134578
29 *85:70 *108:25 5.76837e-05
30 *85:70 *108:29 6.40115e-05
31 *85:83 *108:16 3.64813e-05
32 *85:83 *108:25 4.21913e-05
33 *85:92 *108:6 0.000127646
34 *85:92 *108:16 4.44894e-05
35 *107:23 *108:48 0.000119659
36 *107:34 *108:48 3.40882e-05
*RES
1 *972:Q *108:6 27.4329 
2 *108:6 *108:16 36.4836 
3 *108:16 *943:A1 23 
4 *108:6 *108:25 20.075 
5 *108:25 *108:29 23.9486 
6 *108:29 *945:A 23.6214 
7 *108:29 *108:48 46.3021 
8 *108:48 *901:A 23 
9 *108:25 *942:A 38 
*END

*D_NET *109 0.00322984
*CONN
*I *900:A I *D sky130_fd_sc_hd__inv_2
*I *920:A I *D sky130_fd_sc_hd__nor2_2
*I *912:B I *D sky130_fd_sc_hd__or2_2
*I *982:Q O *D sky130_fd_sc_hd__dfstp_2
*CAP
1 *900:A 0
2 *920:A 0
3 *912:B 0
4 *982:Q 0.000129117
5 *109:39 0.000324775
6 *109:27 0.000856005
7 *109:10 0.000660346
8 *109:27 *909:A1 5.58003e-05
9 *109:27 *112:14 1.41891e-05
10 *909:B1_N *109:27 7.47919e-05
11 *920:B *109:39 5.56356e-05
12 *19:10 *109:27 8.88657e-05
13 *19:10 *109:39 0.000100069
14 *39:25 *109:10 0.000194393
15 *55:14 *109:39 0.000163867
16 *56:37 *109:27 0.000343906
17 *56:74 *109:27 5.3304e-05
18 *84:10 *109:39 0.000114775
*RES
1 *982:Q *109:10 40.8793 
2 *109:10 *912:B 38 
3 *109:10 *109:27 26.3307 
4 *109:27 *109:39 37.6436 
5 *109:39 *920:A 23 
6 *109:27 *900:A 23 
*END

*D_NET *110 0.00565521
*CONN
*I *910:B1 I *D sky130_fd_sc_hd__o21ai_2
*I *959:A I *D sky130_fd_sc_hd__and4_2
*I *958:A1 I *D sky130_fd_sc_hd__a21oi_2
*I *899:A I *D sky130_fd_sc_hd__inv_2
*I *914:B I *D sky130_fd_sc_hd__or3_2
*I *983:Q O *D sky130_fd_sc_hd__dfrtp_2
*CAP
1 *910:B1 0
2 *959:A 0.000106833
3 *958:A1 6.63829e-05
4 *899:A 3.66776e-05
5 *914:B 0.000254375
6 *983:Q 0.000749225
7 *110:44 0.000336912
8 *110:33 0.000701969
9 *110:18 0.00121394
10 *110:12 0.000457966
11 *110:10 0.000749225
12 *110:10 *111:25 3.36312e-06
13 *959:B *959:A 5.3304e-05
14 *959:C *959:A 5.3304e-05
15 *983:D *110:10 1.23353e-05
16 *45:8 *959:A 0.000110258
17 *49:12 *110:10 7.34394e-06
18 *56:31 *899:A 1.35999e-05
19 *56:31 *110:33 0
20 *56:33 *110:33 0
21 *56:74 *110:18 0.000586944
22 *56:89 *110:18 4.46854e-05
23 *59:10 *110:10 3.54728e-05
24 *59:10 *110:18 1.41244e-05
25 *65:53 *959:A 3.6941e-05
26 *65:53 *110:44 1.00286e-05
*RES
1 *983:Q *110:10 48.0257 
2 *110:10 *110:12 15 
3 *110:12 *110:18 24.6943 
4 *110:18 *914:B 42.3707 
5 *110:18 *110:33 24.135 
6 *110:33 *899:A 23.6214 
7 *110:33 *110:44 18.3143 
8 *110:44 *958:A1 39.0979 
9 *110:44 *959:A 40.8793 
10 *110:12 *910:B1 23 
*END

*D_NET *111 0.00292386
*CONN
*I *914:A I *D sky130_fd_sc_hd__or3_2
*I *898:A I *D sky130_fd_sc_hd__inv_2
*I *906:A I *D sky130_fd_sc_hd__and2_2
*I *984:Q O *D sky130_fd_sc_hd__dfrtp_2
*CAP
1 *914:A 3.4118e-05
2 *898:A 0
3 *906:A 0.000761564
4 *984:Q 0.000196018
5 *111:25 0.000240791
6 *111:6 0.00116425
7 *906:A *914:C 3.28357e-06
8 *914:A *914:C 6.50348e-05
9 *906:B *906:A 9.83963e-05
10 *906:B *914:A 0.000147656
11 *983:RESET_B *111:25 5.31393e-05
12 *984:CLK *906:A 7.87147e-05
13 *984:D *906:A 2.17633e-05
14 *984:RESET_B *111:6 1.07585e-05
15 *86:140 *111:25 4.50022e-05
16 *110:10 *111:25 3.36312e-06
*RES
1 *984:Q *111:6 25.5271 
2 *111:6 *906:A 34.3929 
3 *111:6 *111:25 34.7229 
4 *111:25 *898:A 23 
5 *906:A *914:A 47.5743 
*END

*D_NET *112 0.00240781
*CONN
*I *909:A1 I *D sky130_fd_sc_hd__a21bo_2
*I *914:C I *D sky130_fd_sc_hd__or3_2
*I *912:A I *D sky130_fd_sc_hd__or2_2
*I *985:Q O *D sky130_fd_sc_hd__dfrtp_2
*CAP
1 *909:A1 0.000153077
2 *914:C 0.000157116
3 *912:A 0
4 *985:Q 0.000134961
5 *112:14 0.000277561
6 *112:8 0.000408483
7 *906:A *914:C 3.28357e-06
8 *906:B *914:C 0.000137743
9 *914:A *914:C 6.50348e-05
10 *985:RESET_B *909:A1 5.52801e-05
11 *985:RESET_B *112:14 0.000216694
12 *39:25 *914:C 4.21921e-05
13 *39:25 *112:14 5.82853e-05
14 *56:37 *909:A1 0.000103123
15 *56:37 *112:14 7.19778e-05
16 *56:51 *914:C 3.26241e-05
17 *56:51 *112:14 2.95526e-05
18 *58:8 *909:A1 1.0092e-05
19 *84:69 *112:8 0.000195195
20 *86:138 *112:8 0.000185542
21 *109:27 *909:A1 5.58003e-05
22 *109:27 *112:14 1.41891e-05
*RES
1 *985:Q *112:8 41.9564 
2 *112:8 *112:14 18.5836 
3 *112:14 *912:A 23 
4 *112:14 *914:C 27.6193 
5 *112:8 *909:A1 41.5836 
*END
