*SPEF "ieee 1481-1999"
*DESIGN "soc_top"
*DATE "08:25:18 Monday September 07, 2026"
*VENDOR "The OpenROAD Project"
*PROGRAM "OpenROAD"
*VERSION "dcf36133a369abc8f3c5e5738cd4d82e4903c0e0"
*DESIGN_FLOW "NAME_SCOPE LOCAL" "PIN_CAP NONE"
*DIVIDER /
*DELIMITER :
*BUS_DELIMITER []
*T_UNIT 1 NS
*C_UNIT 1 PF
*R_UNIT 1 OHM
*L_UNIT 1 HENRY

*NAME_MAP
*3 clk
*4 net
*5 net4
*6 net5
*7 net6
*8 net7
*9 net8
*10 net9
*11 net10
*12 net12
*13 net11
*14 rst_n
*15 uart_tx
*16 _000_
*17 _001_
*18 _002_
*19 _003_
*20 _004_
*21 _005_
*22 _006_
*23 _007_
*24 _008_
*25 _009_
*26 _010_
*27 _011_
*28 _012_
*29 _013_
*30 _014_
*31 _015_
*32 _016_
*33 _017_
*34 _018_
*35 _019_
*36 _020_
*37 _021_
*38 _022_
*39 _023_
*40 _024_
*41 _025_
*42 _026_
*43 _027_
*44 _028_
*45 _029_
*46 _030_
*47 _031_
*48 _032_
*49 _033_
*50 _034_
*51 _035_
*52 _036_
*53 _037_
*54 _038_
*55 _039_
*56 _040_
*57 _041_
*58 _042_
*59 _043_
*60 _044_
*61 _045_
*62 _046_
*63 _047_
*64 _048_
*65 _049_
*66 _050_
*67 _051_
*68 _052_
*69 _053_
*70 _054_
*71 _055_
*72 _056_
*73 _057_
*74 _058_
*75 _059_
*76 _060_
*77 _061_
*78 _062_
*79 _063_
*80 _064_
*81 _065_
*82 _066_
*83 clknet_0_clk
*84 clknet_1_0__leaf_clk
*85 clknet_1_1__leaf_clk
*86 net1
*87 net13
*88 net2
*89 net3
*90 u_uart\.bit_idx\[0\]
*91 u_uart\.bit_idx\[1\]
*92 u_uart\.bit_idx\[2\]
*93 u_uart\.clk_cnt\[0\]
*94 u_uart\.clk_cnt\[10\]
*95 u_uart\.clk_cnt\[11\]
*96 u_uart\.clk_cnt\[12\]
*97 u_uart\.clk_cnt\[13\]
*98 u_uart\.clk_cnt\[14\]
*99 u_uart\.clk_cnt\[15\]
*100 u_uart\.clk_cnt\[1\]
*101 u_uart\.clk_cnt\[2\]
*102 u_uart\.clk_cnt\[3\]
*103 u_uart\.clk_cnt\[4\]
*104 u_uart\.clk_cnt\[5\]
*105 u_uart\.clk_cnt\[6\]
*106 u_uart\.clk_cnt\[7\]
*107 u_uart\.clk_cnt\[8\]
*108 u_uart\.clk_cnt\[9\]
*109 u_uart\.state\[0\]
*110 u_uart\.state\[1\]
*111 u_uart\.state\[2\]
*112 u_uart\.state\[3\]
*113 FILLER_0_100
*114 FILLER_0_103
*115 FILLER_0_106
*116 FILLER_0_109
*117 FILLER_0_113
*118 FILLER_0_116
*119 FILLER_0_119
*120 FILLER_0_12
*121 FILLER_0_125
*122 FILLER_0_128
*123 FILLER_0_18
*124 FILLER_0_21
*125 FILLER_0_24
*126 FILLER_0_27
*127 FILLER_0_29
*128 FILLER_0_32
*129 FILLER_0_35
*130 FILLER_0_38
*131 FILLER_0_41
*132 FILLER_0_44
*133 FILLER_0_47
*134 FILLER_0_50
*135 FILLER_0_53
*136 FILLER_0_57
*137 FILLER_0_6
*138 FILLER_0_60
*139 FILLER_0_63
*140 FILLER_0_66
*141 FILLER_0_72
*142 FILLER_0_75
*143 FILLER_0_78
*144 FILLER_0_81
*145 FILLER_0_85
*146 FILLER_0_88
*147 FILLER_0_9
*148 FILLER_0_91
*149 FILLER_0_94
*150 FILLER_0_97
*151 FILLER_10_102
*152 FILLER_10_105
*153 FILLER_10_108
*154 FILLER_10_19
*155 FILLER_10_22
*156 FILLER_10_25
*157 FILLER_10_29
*158 FILLER_10_3
*159 FILLER_10_32
*160 FILLER_10_35
*161 FILLER_10_38
*162 FILLER_10_41
*163 FILLER_10_44
*164 FILLER_10_47
*165 FILLER_10_50
*166 FILLER_10_53
*167 FILLER_10_56
*168 FILLER_10_59
*169 FILLER_10_62
*170 FILLER_10_65
*171 FILLER_10_68
*172 FILLER_10_71
*173 FILLER_10_74
*174 FILLER_10_77
*175 FILLER_10_80
*176 FILLER_10_83
*177 FILLER_10_90
*178 FILLER_10_93
*179 FILLER_10_96
*180 FILLER_10_99
*181 FILLER_11_100
*182 FILLER_11_103
*183 FILLER_11_106
*184 FILLER_11_109
*185 FILLER_11_113
*186 FILLER_11_116
*187 FILLER_11_119
*188 FILLER_11_130
*189 FILLER_11_133
*190 FILLER_11_136
*191 FILLER_11_29
*192 FILLER_11_3
*193 FILLER_11_38
*194 FILLER_11_41
*195 FILLER_11_44
*196 FILLER_11_47
*197 FILLER_11_50
*198 FILLER_11_53
*199 FILLER_11_57
*200 FILLER_11_6
*201 FILLER_11_60
*202 FILLER_11_82
*203 FILLER_11_85
*204 FILLER_11_88
*205 FILLER_11_91
*206 FILLER_11_94
*207 FILLER_11_97
*208 FILLER_12_100
*209 FILLER_12_103
*210 FILLER_12_106
*211 FILLER_12_109
*212 FILLER_12_112
*213 FILLER_12_115
*214 FILLER_12_118
*215 FILLER_12_12
*216 FILLER_12_121
*217 FILLER_12_124
*218 FILLER_12_127
*219 FILLER_12_130
*220 FILLER_12_133
*221 FILLER_12_15
*222 FILLER_12_18
*223 FILLER_12_21
*224 FILLER_12_24
*225 FILLER_12_27
*226 FILLER_12_3
*227 FILLER_12_37
*228 FILLER_12_40
*229 FILLER_12_43
*230 FILLER_12_46
*231 FILLER_12_49
*232 FILLER_12_57
*233 FILLER_12_6
*234 FILLER_12_60
*235 FILLER_12_63
*236 FILLER_12_66
*237 FILLER_12_69
*238 FILLER_12_80
*239 FILLER_12_83
*240 FILLER_12_85
*241 FILLER_12_88
*242 FILLER_12_9
*243 FILLER_12_91
*244 FILLER_12_94
*245 FILLER_12_97
*246 FILLER_13_108
*247 FILLER_13_111
*248 FILLER_13_12
*249 FILLER_13_126
*250 FILLER_13_129
*251 FILLER_13_132
*252 FILLER_13_135
*253 FILLER_13_3
*254 FILLER_13_36
*255 FILLER_13_39
*256 FILLER_13_42
*257 FILLER_13_45
*258 FILLER_13_48
*259 FILLER_13_6
*260 FILLER_13_86
*261 FILLER_13_89
*262 FILLER_13_9
*263 FILLER_13_92
*264 FILLER_13_95
*265 FILLER_13_98
*266 FILLER_14_106
*267 FILLER_14_114
*268 FILLER_14_12
*269 FILLER_14_15
*270 FILLER_14_18
*271 FILLER_14_27
*272 FILLER_14_3
*273 FILLER_14_36
*274 FILLER_14_39
*275 FILLER_14_42
*276 FILLER_14_45
*277 FILLER_14_48
*278 FILLER_14_6
*279 FILLER_14_78
*280 FILLER_14_81
*281 FILLER_14_9
*282 FILLER_15_110
*283 FILLER_15_119
*284 FILLER_15_12
*285 FILLER_15_122
*286 FILLER_15_125
*287 FILLER_15_128
*288 FILLER_15_131
*289 FILLER_15_134
*290 FILLER_15_15
*291 FILLER_15_18
*292 FILLER_15_21
*293 FILLER_15_24
*294 FILLER_15_27
*295 FILLER_15_3
*296 FILLER_15_30
*297 FILLER_15_33
*298 FILLER_15_36
*299 FILLER_15_39
*300 FILLER_15_42
*301 FILLER_15_45
*302 FILLER_15_48
*303 FILLER_15_51
*304 FILLER_15_54
*305 FILLER_15_57
*306 FILLER_15_6
*307 FILLER_15_87
*308 FILLER_15_9
*309 FILLER_15_90
*310 FILLER_15_93
*311 FILLER_15_96
*312 FILLER_15_99
*313 FILLER_16_100
*314 FILLER_16_103
*315 FILLER_16_112
*316 FILLER_16_115
*317 FILLER_16_118
*318 FILLER_16_12
*319 FILLER_16_121
*320 FILLER_16_124
*321 FILLER_16_127
*322 FILLER_16_130
*323 FILLER_16_133
*324 FILLER_16_136
*325 FILLER_16_15
*326 FILLER_16_18
*327 FILLER_16_21
*328 FILLER_16_24
*329 FILLER_16_27
*330 FILLER_16_42
*331 FILLER_16_45
*332 FILLER_16_48
*333 FILLER_16_51
*334 FILLER_16_54
*335 FILLER_16_57
*336 FILLER_16_6
*337 FILLER_16_60
*338 FILLER_16_63
*339 FILLER_16_66
*340 FILLER_16_69
*341 FILLER_16_72
*342 FILLER_16_75
*343 FILLER_16_78
*344 FILLER_16_81
*345 FILLER_16_85
*346 FILLER_16_88
*347 FILLER_16_9
*348 FILLER_16_91
*349 FILLER_16_94
*350 FILLER_16_97
*351 FILLER_17_102
*352 FILLER_17_105
*353 FILLER_17_108
*354 FILLER_17_111
*355 FILLER_17_113
*356 FILLER_17_116
*357 FILLER_17_119
*358 FILLER_17_12
*359 FILLER_17_122
*360 FILLER_17_125
*361 FILLER_17_128
*362 FILLER_17_131
*363 FILLER_17_134
*364 FILLER_17_15
*365 FILLER_17_18
*366 FILLER_17_21
*367 FILLER_17_24
*368 FILLER_17_27
*369 FILLER_17_3
*370 FILLER_17_49
*371 FILLER_17_52
*372 FILLER_17_55
*373 FILLER_17_57
*374 FILLER_17_6
*375 FILLER_17_60
*376 FILLER_17_63
*377 FILLER_17_66
*378 FILLER_17_69
*379 FILLER_17_72
*380 FILLER_17_75
*381 FILLER_17_78
*382 FILLER_17_81
*383 FILLER_17_84
*384 FILLER_17_87
*385 FILLER_17_9
*386 FILLER_17_90
*387 FILLER_17_93
*388 FILLER_17_96
*389 FILLER_17_99
*390 FILLER_18_100
*391 FILLER_18_103
*392 FILLER_18_12
*393 FILLER_18_120
*394 FILLER_18_123
*395 FILLER_18_126
*396 FILLER_18_129
*397 FILLER_18_132
*398 FILLER_18_135
*399 FILLER_18_15
*400 FILLER_18_18
*401 FILLER_18_21
*402 FILLER_18_24
*403 FILLER_18_27
*404 FILLER_18_29
*405 FILLER_18_3
*406 FILLER_18_32
*407 FILLER_18_35
*408 FILLER_18_38
*409 FILLER_18_41
*410 FILLER_18_44
*411 FILLER_18_47
*412 FILLER_18_6
*413 FILLER_18_67
*414 FILLER_18_70
*415 FILLER_18_73
*416 FILLER_18_76
*417 FILLER_18_85
*418 FILLER_18_9
*419 FILLER_18_91
*420 FILLER_18_94
*421 FILLER_18_97
*422 FILLER_19_105
*423 FILLER_19_108
*424 FILLER_19_111
*425 FILLER_19_113
*426 FILLER_19_12
*427 FILLER_19_15
*428 FILLER_19_18
*429 FILLER_19_21
*430 FILLER_19_24
*431 FILLER_19_27
*432 FILLER_19_3
*433 FILLER_19_30
*434 FILLER_19_33
*435 FILLER_19_36
*436 FILLER_19_39
*437 FILLER_19_42
*438 FILLER_19_45
*439 FILLER_19_48
*440 FILLER_19_57
*441 FILLER_19_6
*442 FILLER_19_80
*443 FILLER_19_9
*444 FILLER_19_90
*445 FILLER_1_101
*446 FILLER_1_104
*447 FILLER_1_107
*448 FILLER_1_110
*449 FILLER_1_113
*450 FILLER_1_12
*451 FILLER_1_15
*452 FILLER_1_18
*453 FILLER_1_21
*454 FILLER_1_3
*455 FILLER_1_44
*456 FILLER_1_47
*457 FILLER_1_57
*458 FILLER_1_6
*459 FILLER_1_60
*460 FILLER_1_63
*461 FILLER_1_66
*462 FILLER_1_69
*463 FILLER_1_72
*464 FILLER_1_9
*465 FILLER_1_95
*466 FILLER_1_98
*467 FILLER_20_12
*468 FILLER_20_127
*469 FILLER_20_130
*470 FILLER_20_133
*471 FILLER_20_136
*472 FILLER_20_15
*473 FILLER_20_18
*474 FILLER_20_21
*475 FILLER_20_24
*476 FILLER_20_27
*477 FILLER_20_29
*478 FILLER_20_3
*479 FILLER_20_32
*480 FILLER_20_35
*481 FILLER_20_38
*482 FILLER_20_41
*483 FILLER_20_44
*484 FILLER_20_47
*485 FILLER_20_6
*486 FILLER_20_71
*487 FILLER_20_74
*488 FILLER_20_77
*489 FILLER_20_80
*490 FILLER_20_83
*491 FILLER_20_9
*492 FILLER_21_102
*493 FILLER_21_105
*494 FILLER_21_108
*495 FILLER_21_111
*496 FILLER_21_113
*497 FILLER_21_116
*498 FILLER_21_119
*499 FILLER_21_12
*500 FILLER_21_122
*501 FILLER_21_125
*502 FILLER_21_128
*503 FILLER_21_131
*504 FILLER_21_134
*505 FILLER_21_15
*506 FILLER_21_18
*507 FILLER_21_21
*508 FILLER_21_24
*509 FILLER_21_27
*510 FILLER_21_3
*511 FILLER_21_30
*512 FILLER_21_33
*513 FILLER_21_36
*514 FILLER_21_39
*515 FILLER_21_42
*516 FILLER_21_45
*517 FILLER_21_48
*518 FILLER_21_51
*519 FILLER_21_54
*520 FILLER_21_57
*521 FILLER_21_6
*522 FILLER_21_60
*523 FILLER_21_63
*524 FILLER_21_66
*525 FILLER_21_69
*526 FILLER_21_72
*527 FILLER_21_75
*528 FILLER_21_78
*529 FILLER_21_81
*530 FILLER_21_84
*531 FILLER_21_87
*532 FILLER_21_9
*533 FILLER_21_90
*534 FILLER_21_93
*535 FILLER_21_96
*536 FILLER_21_99
*537 FILLER_22_100
*538 FILLER_22_103
*539 FILLER_22_106
*540 FILLER_22_109
*541 FILLER_22_113
*542 FILLER_22_116
*543 FILLER_22_119
*544 FILLER_22_12
*545 FILLER_22_125
*546 FILLER_22_128
*547 FILLER_22_131
*548 FILLER_22_15
*549 FILLER_22_18
*550 FILLER_22_21
*551 FILLER_22_24
*552 FILLER_22_27
*553 FILLER_22_29
*554 FILLER_22_32
*555 FILLER_22_35
*556 FILLER_22_38
*557 FILLER_22_41
*558 FILLER_22_44
*559 FILLER_22_47
*560 FILLER_22_50
*561 FILLER_22_53
*562 FILLER_22_57
*563 FILLER_22_6
*564 FILLER_22_60
*565 FILLER_22_63
*566 FILLER_22_66
*567 FILLER_22_72
*568 FILLER_22_75
*569 FILLER_22_78
*570 FILLER_22_81
*571 FILLER_22_85
*572 FILLER_22_88
*573 FILLER_22_9
*574 FILLER_22_91
*575 FILLER_22_94
*576 FILLER_22_97
*577 FILLER_2_100
*578 FILLER_2_128
*579 FILLER_2_131
*580 FILLER_2_134
*581 FILLER_2_29
*582 FILLER_2_3
*583 FILLER_2_32
*584 FILLER_2_35
*585 FILLER_2_38
*586 FILLER_2_41
*587 FILLER_2_6
*588 FILLER_2_64
*589 FILLER_2_67
*590 FILLER_2_70
*591 FILLER_2_73
*592 FILLER_2_85
*593 FILLER_2_88
*594 FILLER_3_100
*595 FILLER_3_103
*596 FILLER_3_106
*597 FILLER_3_109
*598 FILLER_3_113
*599 FILLER_3_116
*600 FILLER_3_119
*601 FILLER_3_122
*602 FILLER_3_125
*603 FILLER_3_128
*604 FILLER_3_131
*605 FILLER_3_134
*606 FILLER_3_23
*607 FILLER_3_26
*608 FILLER_3_29
*609 FILLER_3_3
*610 FILLER_3_32
*611 FILLER_3_35
*612 FILLER_3_38
*613 FILLER_3_41
*614 FILLER_3_44
*615 FILLER_3_57
*616 FILLER_3_6
*617 FILLER_3_60
*618 FILLER_3_63
*619 FILLER_3_66
*620 FILLER_3_69
*621 FILLER_3_72
*622 FILLER_3_75
*623 FILLER_3_78
*624 FILLER_3_9
*625 FILLER_4_102
*626 FILLER_4_105
*627 FILLER_4_108
*628 FILLER_4_111
*629 FILLER_4_12
*630 FILLER_4_122
*631 FILLER_4_125
*632 FILLER_4_128
*633 FILLER_4_131
*634 FILLER_4_134
*635 FILLER_4_18
*636 FILLER_4_21
*637 FILLER_4_29
*638 FILLER_4_3
*639 FILLER_4_32
*640 FILLER_4_35
*641 FILLER_4_38
*642 FILLER_4_41
*643 FILLER_4_44
*644 FILLER_4_47
*645 FILLER_4_50
*646 FILLER_4_53
*647 FILLER_4_56
*648 FILLER_4_59
*649 FILLER_4_6
*650 FILLER_4_62
*651 FILLER_4_65
*652 FILLER_4_68
*653 FILLER_4_71
*654 FILLER_4_74
*655 FILLER_4_77
*656 FILLER_4_80
*657 FILLER_4_9
*658 FILLER_4_93
*659 FILLER_4_96
*660 FILLER_4_99
*661 FILLER_5_100
*662 FILLER_5_103
*663 FILLER_5_106
*664 FILLER_5_109
*665 FILLER_5_113
*666 FILLER_5_12
*667 FILLER_5_136
*668 FILLER_5_15
*669 FILLER_5_18
*670 FILLER_5_3
*671 FILLER_5_33
*672 FILLER_5_38
*673 FILLER_5_41
*674 FILLER_5_44
*675 FILLER_5_47
*676 FILLER_5_6
*677 FILLER_5_66
*678 FILLER_5_69
*679 FILLER_5_72
*680 FILLER_5_75
*681 FILLER_5_78
*682 FILLER_5_81
*683 FILLER_5_84
*684 FILLER_5_87
*685 FILLER_5_9
*686 FILLER_5_94
*687 FILLER_5_97
*688 FILLER_6_102
*689 FILLER_6_105
*690 FILLER_6_108
*691 FILLER_6_111
*692 FILLER_6_12
*693 FILLER_6_120
*694 FILLER_6_123
*695 FILLER_6_126
*696 FILLER_6_129
*697 FILLER_6_132
*698 FILLER_6_135
*699 FILLER_6_15
*700 FILLER_6_22
*701 FILLER_6_25
*702 FILLER_6_29
*703 FILLER_6_3
*704 FILLER_6_32
*705 FILLER_6_35
*706 FILLER_6_38
*707 FILLER_6_41
*708 FILLER_6_44
*709 FILLER_6_47
*710 FILLER_6_58
*711 FILLER_6_6
*712 FILLER_6_61
*713 FILLER_6_64
*714 FILLER_6_67
*715 FILLER_6_70
*716 FILLER_6_73
*717 FILLER_6_76
*718 FILLER_6_85
*719 FILLER_6_88
*720 FILLER_6_9
*721 FILLER_6_93
*722 FILLER_6_96
*723 FILLER_6_99
*724 FILLER_7_102
*725 FILLER_7_105
*726 FILLER_7_108
*727 FILLER_7_111
*728 FILLER_7_113
*729 FILLER_7_116
*730 FILLER_7_119
*731 FILLER_7_12
*732 FILLER_7_122
*733 FILLER_7_125
*734 FILLER_7_128
*735 FILLER_7_131
*736 FILLER_7_134
*737 FILLER_7_15
*738 FILLER_7_18
*739 FILLER_7_21
*740 FILLER_7_24
*741 FILLER_7_27
*742 FILLER_7_3
*743 FILLER_7_30
*744 FILLER_7_33
*745 FILLER_7_36
*746 FILLER_7_39
*747 FILLER_7_42
*748 FILLER_7_45
*749 FILLER_7_6
*750 FILLER_7_62
*751 FILLER_7_65
*752 FILLER_7_68
*753 FILLER_7_9
*754 FILLER_7_96
*755 FILLER_7_99
*756 FILLER_8_101
*757 FILLER_8_104
*758 FILLER_8_107
*759 FILLER_8_110
*760 FILLER_8_12
*761 FILLER_8_124
*762 FILLER_8_127
*763 FILLER_8_130
*764 FILLER_8_133
*765 FILLER_8_136
*766 FILLER_8_15
*767 FILLER_8_24
*768 FILLER_8_27
*769 FILLER_8_34
*770 FILLER_8_37
*771 FILLER_8_40
*772 FILLER_8_43
*773 FILLER_8_6
*774 FILLER_8_67
*775 FILLER_8_70
*776 FILLER_8_73
*777 FILLER_8_76
*778 FILLER_8_79
*779 FILLER_8_82
*780 FILLER_8_85
*781 FILLER_8_9
*782 FILLER_8_95
*783 FILLER_8_98
*784 FILLER_9_102
*785 FILLER_9_134
*786 FILLER_9_3
*787 FILLER_9_39
*788 FILLER_9_42
*789 FILLER_9_45
*790 FILLER_9_48
*791 FILLER_9_6
*792 FILLER_9_60
*793 FILLER_9_63
*794 FILLER_9_66
*795 FILLER_9_69
*796 FILLER_9_72
*797 FILLER_9_75
*798 FILLER_9_9
*799 FILLER_9_99
*800 PHY_EDGE_ROW_0_Left_23
*801 PHY_EDGE_ROW_0_Right_0
*802 PHY_EDGE_ROW_10_Left_33
*803 PHY_EDGE_ROW_10_Right_10
*804 PHY_EDGE_ROW_11_Left_34
*805 PHY_EDGE_ROW_11_Right_11
*806 PHY_EDGE_ROW_12_Left_35
*807 PHY_EDGE_ROW_12_Right_12
*808 PHY_EDGE_ROW_13_Left_36
*809 PHY_EDGE_ROW_13_Right_13
*810 PHY_EDGE_ROW_14_Left_37
*811 PHY_EDGE_ROW_14_Right_14
*812 PHY_EDGE_ROW_15_Left_38
*813 PHY_EDGE_ROW_15_Right_15
*814 PHY_EDGE_ROW_16_Left_39
*815 PHY_EDGE_ROW_16_Right_16
*816 PHY_EDGE_ROW_17_Left_40
*817 PHY_EDGE_ROW_17_Right_17
*818 PHY_EDGE_ROW_18_Left_41
*819 PHY_EDGE_ROW_18_Right_18
*820 PHY_EDGE_ROW_19_Left_42
*821 PHY_EDGE_ROW_19_Right_19
*822 PHY_EDGE_ROW_1_Left_24
*823 PHY_EDGE_ROW_1_Right_1
*824 PHY_EDGE_ROW_20_Left_43
*825 PHY_EDGE_ROW_20_Right_20
*826 PHY_EDGE_ROW_21_Left_44
*827 PHY_EDGE_ROW_21_Right_21
*828 PHY_EDGE_ROW_22_Left_45
*829 PHY_EDGE_ROW_22_Right_22
*830 PHY_EDGE_ROW_2_Left_25
*831 PHY_EDGE_ROW_2_Right_2
*832 PHY_EDGE_ROW_3_Left_26
*833 PHY_EDGE_ROW_3_Right_3
*834 PHY_EDGE_ROW_4_Left_27
*835 PHY_EDGE_ROW_4_Right_4
*836 PHY_EDGE_ROW_5_Left_28
*837 PHY_EDGE_ROW_5_Right_5
*838 PHY_EDGE_ROW_6_Left_29
*839 PHY_EDGE_ROW_6_Right_6
*840 PHY_EDGE_ROW_7_Left_30
*841 PHY_EDGE_ROW_7_Right_7
*842 PHY_EDGE_ROW_8_Left_31
*843 PHY_EDGE_ROW_8_Right_8
*844 PHY_EDGE_ROW_9_Left_32
*845 PHY_EDGE_ROW_9_Right_9
*846 TAP_TAPCELL_ROW_0_46
*847 TAP_TAPCELL_ROW_0_47
*848 TAP_TAPCELL_ROW_0_48
*849 TAP_TAPCELL_ROW_0_49
*850 TAP_TAPCELL_ROW_10_68
*851 TAP_TAPCELL_ROW_10_69
*852 TAP_TAPCELL_ROW_11_70
*853 TAP_TAPCELL_ROW_11_71
*854 TAP_TAPCELL_ROW_12_72
*855 TAP_TAPCELL_ROW_12_73
*856 TAP_TAPCELL_ROW_13_74
*857 TAP_TAPCELL_ROW_13_75
*858 TAP_TAPCELL_ROW_14_76
*859 TAP_TAPCELL_ROW_14_77
*860 TAP_TAPCELL_ROW_15_78
*861 TAP_TAPCELL_ROW_15_79
*862 TAP_TAPCELL_ROW_16_80
*863 TAP_TAPCELL_ROW_16_81
*864 TAP_TAPCELL_ROW_17_82
*865 TAP_TAPCELL_ROW_17_83
*866 TAP_TAPCELL_ROW_18_84
*867 TAP_TAPCELL_ROW_18_85
*868 TAP_TAPCELL_ROW_19_86
*869 TAP_TAPCELL_ROW_19_87
*870 TAP_TAPCELL_ROW_1_50
*871 TAP_TAPCELL_ROW_1_51
*872 TAP_TAPCELL_ROW_20_88
*873 TAP_TAPCELL_ROW_20_89
*874 TAP_TAPCELL_ROW_21_90
*875 TAP_TAPCELL_ROW_21_91
*876 TAP_TAPCELL_ROW_22_92
*877 TAP_TAPCELL_ROW_22_93
*878 TAP_TAPCELL_ROW_22_94
*879 TAP_TAPCELL_ROW_22_95
*880 TAP_TAPCELL_ROW_2_52
*881 TAP_TAPCELL_ROW_2_53
*882 TAP_TAPCELL_ROW_3_54
*883 TAP_TAPCELL_ROW_3_55
*884 TAP_TAPCELL_ROW_4_56
*885 TAP_TAPCELL_ROW_4_57
*886 TAP_TAPCELL_ROW_5_58
*887 TAP_TAPCELL_ROW_5_59
*888 TAP_TAPCELL_ROW_6_60
*889 TAP_TAPCELL_ROW_6_61
*890 TAP_TAPCELL_ROW_7_62
*891 TAP_TAPCELL_ROW_7_63
*892 TAP_TAPCELL_ROW_8_64
*893 TAP_TAPCELL_ROW_8_65
*894 TAP_TAPCELL_ROW_9_66
*895 TAP_TAPCELL_ROW_9_67
*896 _067_
*897 _068_
*898 _069_
*899 _070_
*900 _071_
*901 _072_
*902 _073_
*903 _074_
*904 _075_
*905 _076_
*906 _077_
*907 _078_
*908 _079_
*909 _080_
*910 _081_
*911 _082_
*912 _083_
*913 _084_
*914 _085_
*915 _086_
*916 _087_
*917 _088_
*918 _089_
*919 _090_
*920 _091_
*921 _092_
*922 _093_
*923 _094_
*924 _095_
*925 _096_
*926 _097_
*927 _098_
*928 _099_
*929 _100_
*930 _101_
*931 _102_
*932 _103_
*933 _104_
*934 _105_
*935 _106_
*936 _107_
*937 _108_
*938 _109_
*939 _110_
*940 _111_
*941 _112_
*942 _113_
*943 _114_
*944 _115_
*945 _116_
*946 _117_
*947 _118_
*948 _119_
*949 _120_
*950 _121_
*951 _122_
*952 _123_
*953 _124_
*954 _125_
*955 _126_
*956 _127_
*957 _128_
*958 _129_
*959 _130_
*960 _131_
*961 _132_
*962 _133_
*963 _134_
*964 _135_
*965 _136_
*966 _137_
*967 _138_
*968 _139_
*969 _140_
*970 _141_
*971 _142_
*972 _143_
*973 _144_
*974 _145_
*975 _146_
*976 _147_
*977 _148_
*978 _149_
*979 _150_
*980 _151_
*981 _152_
*982 _153_
*983 _154_
*984 _155_
*985 _156_
*986 _157_
*987 clkbuf_0_clk
*988 clkbuf_1_0__f_clk
*989 clkbuf_1_1__f_clk
*990 clkload0
*991 hold13
*992 input1
*993 max_cap3
*994 output2
*995 soc_top
*996 soc_top_10
*997 soc_top_11
*998 soc_top_12
*999 soc_top_4
*1000 soc_top_5
*1001 soc_top_6
*1002 soc_top_7
*1003 soc_top_8
*1004 soc_top_9

*PORTS
clk I
led[0] O
led[1] O
led[2] O
led[3] O
led[4] O
led[5] O
led[6] O
led[7] O
mbox_c0_to_c1_flag O
mbox_c1_to_c0_flag O
rst_n I
uart_tx O

*D_NET *3 0.00686238
*CONN
*P clk I
*I *987:A I *D sky130_fd_sc_hd__clkbuf_16
*CAP
1 clk 0.00259979
2 *987:A 5.91218e-05
3 *3:14 0.000494063
4 *3:12 0.00303473
5 *987:A *54:16 7.542e-05
6 *3:12 *903:C 0
7 *3:12 *903:D_N 0
8 *3:12 *934:B 3.09725e-05
9 *3:12 *969:D 0
10 *3:12 *969:RESET_B 0
11 *3:12 *73:35 2.15817e-05
12 *3:14 *54:16 0.000546709
*RES
1 clk *3:12 48.5044 
2 *3:12 *3:14 8.23214 
3 *3:14 *987:A 10.7643 
*END

*D_NET *4 0.00126375
*CONN
*P led[0] O
*I *995:LO O *D sky130_fd_sc_hd__conb_1
*CAP
1 led[0] 0.000631876
2 *995:LO 0.000631876
*RES
1 *995:LO led[0] 29.1134 
*END

*D_NET *5 0.00124509
*CONN
*P led[1] O
*I *999:LO O *D sky130_fd_sc_hd__conb_1
*CAP
1 led[1] 0.000622544
2 *999:LO 0.000622544
*RES
1 *999:LO led[1] 29.082 
*END

*D_NET *6 0.0011449
*CONN
*P led[2] O
*I *1000:LO O *D sky130_fd_sc_hd__conb_1
*CAP
1 led[2] 0.00057245
2 *1000:LO 0.00057245
*RES
1 *1000:LO led[2] 27.8991 
*END

*D_NET *7 0.00112624
*CONN
*P led[3] O
*I *1001:LO O *D sky130_fd_sc_hd__conb_1
*CAP
1 led[3] 0.000563119
2 *1001:LO 0.000563119
3 led[3] *994:A 0
*RES
1 *1001:LO led[3] 27.8677 
*END

*D_NET *8 0.000891466
*CONN
*P led[4] O
*I *1002:LO O *D sky130_fd_sc_hd__conb_1
*CAP
1 led[4] 0.000445733
2 *1002:LO 0.000445733
*RES
1 *1002:LO led[4] 22.2018 
*END

*D_NET *9 0.00079346
*CONN
*P led[5] O
*I *1003:LO O *D sky130_fd_sc_hd__conb_1
*CAP
1 led[5] 0.00039673
2 *1003:LO 0.00039673
*RES
1 *1003:LO led[5] 21.1482 
*END

*D_NET *10 0.000857993
*CONN
*P led[6] O
*I *1004:LO O *D sky130_fd_sc_hd__conb_1
*CAP
1 led[6] 0.000428996
2 *1004:LO 0.000428996
*RES
1 *1004:LO led[6] 22.3179 
*END

*D_NET *11 0.00082047
*CONN
*P led[7] O
*I *996:LO O *D sky130_fd_sc_hd__conb_1
*CAP
1 led[7] 0.000410235
2 *996:LO 0.000410235
*RES
1 *996:LO led[7] 21.3982 
*END

*D_NET *12 0.000840038
*CONN
*P mbox_c0_to_c1_flag O
*I *998:LO O *D sky130_fd_sc_hd__conb_1
*CAP
1 mbox_c0_to_c1_flag 0.000420019
2 *998:LO 0.000420019
*RES
1 *998:LO mbox_c0_to_c1_flag 21.5143 
*END

*D_NET *13 0.00102319
*CONN
*P mbox_c1_to_c0_flag O
*I *997:LO O *D sky130_fd_sc_hd__conb_1
*CAP
1 mbox_c1_to_c0_flag 0.000511594
2 *997:LO 0.000511594
*RES
1 *997:LO mbox_c1_to_c0_flag 22.5946 
*END

*D_NET *14 0.00122476
*CONN
*P rst_n I
*I *992:A I *D sky130_fd_sc_hd__buf_1
*CAP
1 rst_n 0.000612379
2 *992:A 0.000612379
*RES
1 rst_n *992:A 28.4285 
*END

*D_NET *15 0.000960012
*CONN
*P uart_tx O
*I *994:X O *D sky130_fd_sc_hd__clkdlybuf4s25_1
*CAP
1 uart_tx 0.000480006
2 *994:X 0.000480006
*RES
1 *994:X uart_tx 22.0589 
*END

*D_NET *16 0.000327403
*CONN
*I *984:D I *D sky130_fd_sc_hd__dfrtp_2
*I *906:X O *D sky130_fd_sc_hd__and2_2
*CAP
1 *984:D 0.000114359
2 *906:X 0.000114359
3 *984:D *906:A 2.29536e-05
4 *984:D *984:CLK 7.57312e-05
*RES
1 *906:X *984:D 20.7786 
*END

*D_NET *17 0.000550371
*CONN
*I *982:D I *D sky130_fd_sc_hd__dfstp_2
*I *913:Y O *D sky130_fd_sc_hd__a21boi_2
*CAP
1 *982:D 0.000165235
2 *913:Y 0.000165235
3 *982:D *982:CLK 0.000124083
4 *982:D *982:SET_B 9.58181e-05
*RES
1 *913:Y *982:D 30.4929 
*END

*D_NET *18 0.000528674
*CONN
*I *983:D I *D sky130_fd_sc_hd__dfrtp_2
*I *911:Y O *D sky130_fd_sc_hd__o21ai_2
*CAP
1 *983:D 0.000163461
2 *911:Y 0.000163461
3 *983:D *911:A1 6.49819e-05
4 *983:D *911:A2 0
5 *983:D *911:B1 0.000123946
6 *983:D *110:12 1.28239e-05
*RES
1 *911:Y *983:D 30.9214 
*END

*D_NET *19 0.000686718
*CONN
*I *985:D I *D sky130_fd_sc_hd__dfrtp_2
*I *909:X O *D sky130_fd_sc_hd__a21bo_2
*CAP
1 *985:D 0.000185254
2 *909:X 0.000185254
3 *985:D *920:A 9.83442e-05
4 *985:D *51:6 5.47047e-05
5 *985:D *84:10 6.15273e-05
6 *985:D *84:69 1.48543e-05
7 *985:D *109:27 8.67797e-05
*RES
1 *909:X *985:D 31.5464 
*END

*D_NET *20 0.000391338
*CONN
*I *963:D I *D sky130_fd_sc_hd__dfrtp_2
*I *917:Y O *D sky130_fd_sc_hd__nor2_2
*CAP
1 *963:D 9.61463e-05
2 *917:Y 9.61463e-05
3 *963:D *917:B 0.000199045
*RES
1 *917:Y *963:D 30.1536 
*END

*D_NET *21 0.000518603
*CONN
*I *964:D I *D sky130_fd_sc_hd__dfrtp_2
*I *923:X O *D sky130_fd_sc_hd__and3_2
*CAP
1 *964:D 0.000216662
2 *923:X 0.000216662
3 *964:D *923:B 9.54798e-06
4 *964:D *964:CLK 7.57312e-05
*RES
1 *923:X *964:D 31.2071 
*END

*D_NET *22 0.000911705
*CONN
*I *965:D I *D sky130_fd_sc_hd__dfrtp_2
*I *925:Y O *D sky130_fd_sc_hd__xnor2_2
*CAP
1 *965:D 0.000226242
2 *925:Y 0.000226242
3 *965:D *925:B 0.000185118
4 *965:D *86:88 0.000177948
5 *965:D *101:25 9.61553e-05
*RES
1 *925:Y *965:D 33.2607 
*END

*D_NET *23 0.000371422
*CONN
*I *966:D I *D sky130_fd_sc_hd__dfrtp_2
*I *927:X O *D sky130_fd_sc_hd__o22a_2
*CAP
1 *966:D 0.000185711
2 *927:X 0.000185711
*RES
1 *927:X *966:D 30.1893 
*END

*D_NET *24 0.000873951
*CONN
*I *967:D I *D sky130_fd_sc_hd__dfrtp_2
*I *930:X O *D sky130_fd_sc_hd__and3_2
*CAP
1 *967:D 0.000276695
2 *930:X 0.000276695
3 *967:D *967:CLK 5.57204e-05
4 *967:D *100:10 0.000264841
*RES
1 *930:X *967:D 33.7964 
*END

*D_NET *25 0.000517592
*CONN
*I *968:D I *D sky130_fd_sc_hd__dfrtp_2
*I *933:Y O *D sky130_fd_sc_hd__a211oi_2
*CAP
1 *968:D 0.000216293
2 *933:Y 0.000216293
3 *968:D *933:A1 5.65955e-05
4 *968:D *84:112 2.84109e-05
*RES
1 *933:Y *968:D 31.1357 
*END

*D_NET *26 0.000657401
*CONN
*I *969:D I *D sky130_fd_sc_hd__dfrtp_2
*I *934:X O *D sky130_fd_sc_hd__xor2_2
*CAP
1 *969:D 0.0003287
2 *934:X 0.0003287
3 *969:D *77:24 0
4 *3:12 *969:D 0
*RES
1 *934:X *969:D 33.1714 
*END

*D_NET *27 0.000467805
*CONN
*I *970:D I *D sky130_fd_sc_hd__dfrtp_2
*I *937:X O *D sky130_fd_sc_hd__and3_2
*CAP
1 *970:D 0.00020099
2 *937:X 0.00020099
3 *970:D *937:C 2.81946e-05
4 *970:D *85:30 3.76309e-05
*RES
1 *937:X *970:D 30.8321 
*END

*D_NET *28 0.000675351
*CONN
*I *971:D I *D sky130_fd_sc_hd__dfrtp_2
*I *941:X O *D sky130_fd_sc_hd__and3_2
*CAP
1 *971:D 0.000232416
2 *941:X 0.000232416
3 *971:D *901:D_N 7.74135e-05
4 *971:D *73:29 5.07129e-05
5 *971:D *73:60 3.08588e-05
6 *971:D *85:22 2.53112e-06
7 *971:D *107:23 4.90023e-05
*RES
1 *941:X *971:D 31.4214 
*END

*D_NET *29 0.000888957
*CONN
*I *972:D I *D sky130_fd_sc_hd__dfrtp_2
*I *942:X O *D sky130_fd_sc_hd__xor2_2
*CAP
1 *972:D 0.000405381
2 *942:X 0.000405381
3 *972:D *972:CLK 7.8195e-05
*RES
1 *942:X *972:D 34.6893 
*END

*D_NET *30 0.000503927
*CONN
*I *973:D I *D sky130_fd_sc_hd__dfrtp_2
*I *946:Y O *D sky130_fd_sc_hd__nor2_2
*CAP
1 *973:D 0.000173628
2 *946:Y 0.000173628
3 *973:D *943:B1 1.84776e-05
4 *973:D *946:A 0.00010796
5 *973:D *81:21 1.32293e-05
6 *973:D *108:25 1.70057e-05
*RES
1 *946:Y *973:D 31.0286 
*END

*D_NET *31 0.000153638
*CONN
*I *974:D I *D sky130_fd_sc_hd__dfrtp_2
*I *949:X O *D sky130_fd_sc_hd__and2b_2
*CAP
1 *974:D 7.6819e-05
2 *949:X 7.6819e-05
*RES
1 *949:X *974:D 28.9393 
*END

*D_NET *32 0.000724171
*CONN
*I *975:D I *D sky130_fd_sc_hd__dfrtp_2
*I *950:Y O *D sky130_fd_sc_hd__xnor2_2
*CAP
1 *975:D 0.000225065
2 *950:Y 0.000225065
3 *975:D *976:CLK 2.81946e-05
4 *975:D *976:RESET_B 0.000226073
5 *975:D *96:10 1.9774e-05
*RES
1 *950:Y *975:D 31.1179 
*END

*D_NET *33 0.000279382
*CONN
*I *976:D I *D sky130_fd_sc_hd__dfrtp_2
*I *954:Y O *D sky130_fd_sc_hd__nor2_2
*CAP
1 *976:D 0.000139691
2 *954:Y 0.000139691
*RES
1 *954:Y *976:D 29.85 
*END

*D_NET *34 0.00131986
*CONN
*I *977:D I *D sky130_fd_sc_hd__dfrtp_2
*I *956:X O *D sky130_fd_sc_hd__o21ba_2
*CAP
1 *977:D 0.000492517
2 *956:X 0.000492517
3 *977:D *956:A2 7.74068e-05
4 *977:D *978:CLK 0.000209035
5 *977:D *89:133 4.83849e-05
*RES
1 *956:X *977:D 34.9393 
*END

*D_NET *35 0.000685761
*CONN
*I *978:D I *D sky130_fd_sc_hd__dfrtp_2
*I *957:X O *D sky130_fd_sc_hd__xor2_2
*CAP
1 *978:D 0.000228969
2 *957:X 0.000228969
3 *978:D *978:RESET_B 9.96553e-05
4 *978:D *89:135 3.2923e-05
5 *978:D *99:10 9.52437e-05
*RES
1 *957:X *978:D 32.4393 
*END

*D_NET *36 0.00062208
*CONN
*I *979:D I *D sky130_fd_sc_hd__dfrtp_2
*I *960:Y O *D sky130_fd_sc_hd__nor2_2
*CAP
1 *979:D 0.00026072
2 *960:Y 0.00026072
3 *979:D *55:14 0.000100639
*RES
1 *960:Y *979:D 31.1179 
*END

*D_NET *37 0.000682494
*CONN
*I *980:D I *D sky130_fd_sc_hd__dfrtp_2
*I *961:X O *D sky130_fd_sc_hd__xor2_2
*CAP
1 *980:D 0.000327046
2 *961:X 0.000327046
3 *980:D *980:CLK 0
4 *980:D *981:CLK 0
5 *980:D *981:RESET_B 0
6 *980:D *91:8 2.84026e-05
*RES
1 *961:X *980:D 33.1179 
*END

*D_NET *38 0.000836278
*CONN
*I *981:D I *D sky130_fd_sc_hd__dfrtp_2
*I *962:X O *D sky130_fd_sc_hd__a21o_2
*CAP
1 *981:D 0.000222277
2 *962:X 0.000222277
3 *981:D *907:C 9.83971e-05
4 *981:D *962:A2 0.000100639
5 *981:D *980:CLK 9.56957e-05
6 *981:D *981:CLK 3.15653e-05
7 *981:D *84:153 5.33005e-05
8 *981:D *91:8 1.21258e-05
*RES
1 *962:X *981:D 32.0821 
*END

*D_NET *39 0.00278733
*CONN
*I *986:D I *D sky130_fd_sc_hd__dfstp_2
*I *913:B1_N I *D sky130_fd_sc_hd__a21boi_2
*I *912:X O *D sky130_fd_sc_hd__or2_2
*CAP
1 *986:D 0.00084301
2 *913:B1_N 0.00012658
3 *912:X 0
4 *39:4 0.00096959
5 *913:B1_N *913:A2 0.000243753
6 *986:D *913:A2 1.35553e-05
7 *986:D *914:C 4.17702e-05
8 *986:D *985:RESET_B 4.0698e-05
9 *986:D *986:CLK 0.000272061
10 *986:D *109:10 0.000179617
11 *986:D *112:14 5.66971e-05
*RES
1 *912:X *39:4 9.3 
2 *39:4 *913:B1_N 11.8893 
3 *39:4 *986:D 33.4786 
*END

*D_NET *40 0.000687094
*CONN
*I *950:B I *D sky130_fd_sc_hd__xnor2_2
*I *949:B I *D sky130_fd_sc_hd__and2b_2
*I *948:Y O *D sky130_fd_sc_hd__nand2_2
*CAP
1 *950:B 8.76486e-05
2 *949:B 6.66717e-05
3 *948:Y 0.000101133
4 *40:10 0.000255454
5 *949:B *89:98 5.2254e-05
6 *950:B *89:98 0.000123932
*RES
1 *948:Y *40:10 19.9429 
2 *40:10 *949:B 10.675 
3 *40:10 *950:B 11.4786 
*END

*D_NET *41 0.000190913
*CONN
*I *954:A I *D sky130_fd_sc_hd__nor2_2
*I *951:Y O *D sky130_fd_sc_hd__a31oi_2
*CAP
1 *954:A 6.6727e-05
2 *951:Y 6.6727e-05
3 *954:A *954:B 5.74596e-05
*RES
1 *951:Y *954:A 19.975 
*END

*D_NET *42 0.000543559
*CONN
*I *955:D I *D sky130_fd_sc_hd__and4_2
*I *952:X O *D sky130_fd_sc_hd__and2_2
*CAP
1 *955:D 0.000172814
2 *952:X 0.000172814
3 *955:D *952:A 5.49544e-05
4 *955:D *952:B 9.58181e-05
5 *955:D *44:12 4.71586e-05
*RES
1 *952:X *955:D 22.0107 
*END

*D_NET *43 0.00332435
*CONN
*I *954:B I *D sky130_fd_sc_hd__nor2_2
*I *956:A2 I *D sky130_fd_sc_hd__o21ba_2
*I *953:X O *D sky130_fd_sc_hd__and4_2
*CAP
1 *954:B 0.000476592
2 *956:A2 0.00035808
3 *953:X 5.01881e-05
4 *43:8 0.00088486
5 *954:B *951:A1 0.000158532
6 *954:B *951:A2 6.8529e-05
7 *954:B *81:34 5.33005e-05
8 *954:B *81:38 0.000292669
9 *956:A2 *905:B 1.62025e-05
10 *956:A2 *955:A 8.82933e-05
11 *956:A2 *955:B 0.000144512
12 *956:A2 *955:C 0.000122051
13 *956:A2 *956:A1 0.000199737
14 *956:A2 *956:B1_N 9.58689e-05
15 *956:A2 *81:38 7.29667e-05
16 *956:A2 *96:16 0
17 *956:A2 *98:8 9.51563e-05
18 *43:8 *953:A 8.25843e-06
19 *43:8 *953:D 3.69047e-06
20 *954:A *954:B 5.74596e-05
21 *977:D *956:A2 7.74068e-05
*RES
1 *953:X *43:8 14.3357 
2 *43:8 *956:A2 23.425 
3 *43:8 *954:B 23.4607 
*END

*D_NET *44 0.00214572
*CONN
*I *957:B I *D sky130_fd_sc_hd__xor2_2
*I *956:B1_N I *D sky130_fd_sc_hd__o21ba_2
*I *955:X O *D sky130_fd_sc_hd__and4_2
*CAP
1 *957:B 6.38446e-05
2 *956:B1_N 0.000189816
3 *955:X 0.000268812
4 *44:12 0.000522472
5 *956:B1_N *905:B 3.22806e-05
6 *956:B1_N *956:A1 4.73945e-05
7 *956:B1_N *89:133 0.000269431
8 *957:B *957:A 9.84229e-05
9 *957:B *89:133 0.000182676
10 *44:12 *902:A 8.47329e-05
11 *44:12 *902:B 7.6997e-05
12 *44:12 *905:B 2.39506e-05
13 *44:12 *955:B 0
14 *44:12 *957:A 0.000141863
15 *44:12 *98:8 0
16 *955:D *44:12 4.71586e-05
17 *956:A2 *956:B1_N 9.58689e-05
*RES
1 *955:X *44:12 23.425 
2 *44:12 *956:B1_N 13.9607 
3 *44:12 *957:B 2.13393 
*END

*D_NET *45 0.00121634
*CONN
*I *960:A I *D sky130_fd_sc_hd__nor2_2
*I *958:Y O *D sky130_fd_sc_hd__a21oi_2
*CAP
1 *960:A 0.000422247
2 *958:Y 0.000422247
3 *960:A *958:B1 3.51971e-05
4 *960:A *959:A 9.96487e-05
5 *960:A *979:RESET_B 0.000174843
6 *960:A *90:8 6.21613e-05
*RES
1 *958:Y *960:A 36.2786 
*END

*D_NET *46 0.00365619
*CONN
*I *960:B I *D sky130_fd_sc_hd__nor2_2
*I *962:A2 I *D sky130_fd_sc_hd__a21o_2
*I *961:B I *D sky130_fd_sc_hd__xor2_2
*I *959:X O *D sky130_fd_sc_hd__and4_2
*CAP
1 *960:B 0.000217818
2 *962:A2 0.000342513
3 *961:B 0.000874324
4 *959:X 0.000749629
5 *960:B *56:14 0.000313807
6 *961:B *959:B 0.000226274
7 *961:B *959:C 0.000454824
8 *961:B *961:A 5.49489e-05
9 *962:A2 *961:A 5.1829e-05
10 *962:A2 *980:CLK 1.08847e-05
11 *962:A2 *981:CLK 1.08936e-05
12 *962:A2 *57:10 7.5802e-05
13 *962:A2 *91:8 2.59355e-05
14 *962:A2 *91:12 0.000146071
15 *981:D *962:A2 0.000100639
*RES
1 *959:X *961:B 21.3268 
2 *961:B *962:A2 25.4071 
3 *959:X *960:B 32.2071 
*END

*D_NET *47 0.00141448
*CONN
*I *933:A1 I *D sky130_fd_sc_hd__a211oi_2
*I *896:Y O *D sky130_fd_sc_hd__inv_2
*CAP
1 *933:A1 0.00032467
2 *896:Y 0.00032467
3 *933:A1 *921:A 4.58194e-05
4 *933:A1 *921:B 0.000289204
5 *933:A1 *933:B1 8.43213e-05
6 *933:A1 *933:C1 0.000289204
7 *968:D *933:A1 5.65955e-05
*RES
1 *896:Y *933:A1 35.4571 
*END

*D_NET *48 0.000866766
*CONN
*I *928:B1 I *D sky130_fd_sc_hd__o21ai_2
*I *929:A I *D sky130_fd_sc_hd__or3_2
*I *897:Y O *D sky130_fd_sc_hd__inv_2
*CAP
1 *928:B1 8.9328e-05
2 *929:A 0
3 *897:Y 7.76093e-05
4 *48:6 0.000166937
5 *928:B1 *928:A2 5.52238e-05
6 *928:B1 *100:16 4.14279e-05
7 *48:6 *933:A2 7.17235e-05
8 *48:6 *71:6 5.03772e-05
9 *48:6 *100:16 0.000314139
*RES
1 *897:Y *48:6 12.3 
2 *48:6 *929:A 9.3 
3 *48:6 *928:B1 11.0857 
*END

*D_NET *49 0.00112166
*CONN
*I *911:A1 I *D sky130_fd_sc_hd__o21ai_2
*I *898:Y O *D sky130_fd_sc_hd__inv_2
*CAP
1 *911:A1 0.0003089
2 *898:Y 0.0003089
3 *911:A1 *911:B1 0.000359035
4 *911:A1 *983:RESET_B 7.21891e-05
5 *911:A1 *110:12 7.65336e-06
6 *983:D *911:A1 6.49819e-05
*RES
1 *898:Y *911:A1 34.7071 
*END

*D_NET *50 0.000257072
*CONN
*I *908:A I *D sky130_fd_sc_hd__or3_2
*I *899:Y O *D sky130_fd_sc_hd__inv_2
*CAP
1 *908:A 6.38848e-05
2 *899:Y 6.38848e-05
3 *908:A *56:31 0.000129303
*RES
1 *899:Y *908:A 29.2429 
*END

*D_NET *51 0.00672188
*CONN
*I *913:A1 I *D sky130_fd_sc_hd__a21boi_2
*I *932:C I *D sky130_fd_sc_hd__and4b_2
*I *915:B I *D sky130_fd_sc_hd__and3_2
*I *916:A1 I *D sky130_fd_sc_hd__a21oi_2
*I *900:Y O *D sky130_fd_sc_hd__inv_2
*CAP
1 *913:A1 0.000382832
2 *932:C 0.000247134
3 *915:B 8.64907e-05
4 *916:A1 0.000166298
5 *900:Y 0.000708848
6 *51:12 0.000316249
7 *51:10 0.000552928
8 *51:6 0.00133401
9 *913:A1 *913:A2 5.65955e-05
10 *913:A1 *982:SET_B 0.000664806
11 *913:A1 *84:31 0.000347182
12 *915:B *915:A 1.07719e-05
13 *915:B *915:C 3.83239e-06
14 *916:A1 *916:A2 0.000301835
15 *916:A1 *916:B1 0.000156857
16 *916:A1 *93:21 0.000195856
17 *932:C *932:D 5.49995e-05
18 *932:C *60:40 0.000381141
19 *932:C *93:36 0.000213397
20 *51:10 *67:18 9.61161e-05
21 *51:12 *916:A2 8.1932e-05
22 *51:12 *60:29 4.50762e-05
23 *51:12 *60:40 6.67257e-05
24 *51:12 *93:21 9.56079e-05
25 *51:12 *93:36 9.96553e-05
26 *985:D *51:6 5.47047e-05
*RES
1 *900:Y *51:6 17.6393 
2 *51:6 *51:10 7.5 
3 *51:10 *51:12 2.55357 
4 *51:12 *916:A1 18.9429 
5 *51:12 *915:B 14.7464 
6 *51:10 *932:C 19.7286 
7 *51:6 *913:A1 28.9607 
*END

*D_NET *52 0.00115287
*CONN
*I *905:A I *D sky130_fd_sc_hd__or4b_2
*I *901:X O *D sky130_fd_sc_hd__or4b_2
*CAP
1 *905:A 0.00044569
2 *901:X 0.00044569
3 *905:A *901:A 3.67252e-05
4 *905:A *901:B 0.000162558
5 *905:A *55:14 6.22028e-05
6 *905:A *56:14 0
*RES
1 *901:X *905:A 34.475 
*END

*D_NET *53 0.00245769
*CONN
*I *905:B I *D sky130_fd_sc_hd__or4b_2
*I *902:X O *D sky130_fd_sc_hd__or4_2
*CAP
1 *905:B 0.000919259
2 *902:X 0.000919259
3 *905:B *902:A 5.37741e-06
4 *905:B *956:A1 7.71403e-05
5 *905:B *89:63 0.00044325
6 *905:B *89:133 2.09722e-05
7 *956:A2 *905:B 1.62025e-05
8 *956:B1_N *905:B 3.22806e-05
9 *44:12 *905:B 2.39506e-05
*RES
1 *902:X *905:B 40.5464 
*END

*D_NET *54 0.00391715
*CONN
*I *905:C I *D sky130_fd_sc_hd__or4b_2
*I *903:X O *D sky130_fd_sc_hd__or4b_2
*CAP
1 *905:C 0
2 *903:X 0.0010004
3 *54:16 0.0010004
4 *54:16 *903:D_N 4.93948e-05
5 *54:16 *971:RESET_B 0.000203997
6 *54:16 *55:14 9.58126e-05
7 *54:16 *56:14 8.57913e-05
8 *54:16 *83:17 0.000198755
9 *54:16 *89:40 2.72654e-05
10 *54:16 *89:63 0.000373725
11 *54:16 *107:8 0.000259487
12 *987:A *54:16 7.542e-05
13 *3:14 *54:16 0.000546709
*RES
1 *903:X *54:16 43.9696 
2 *54:16 *905:C 9.3 
*END

*D_NET *55 0.00413527
*CONN
*I *905:D_N I *D sky130_fd_sc_hd__or4b_2
*I *904:X O *D sky130_fd_sc_hd__and4b_2
*CAP
1 *905:D_N 0
2 *904:X 0.00127755
3 *55:14 0.00127755
4 *55:14 *901:B 0.000143967
5 *55:14 *901:C 0.000216336
6 *55:14 *920:A 0.000147588
7 *55:14 *56:14 1.24368e-05
8 *55:14 *84:10 0.000287651
9 *55:14 *84:108 0.000267766
10 *55:14 *84:140 0.000245778
11 *905:A *55:14 6.22028e-05
12 *979:D *55:14 0.000100639
13 *54:16 *55:14 9.58126e-05
*RES
1 *904:X *55:14 44.7821 
2 *55:14 *905:D_N 9.3 
*END

*D_NET *56 0.00982507
*CONN
*I *908:B I *D sky130_fd_sc_hd__or3_2
*I *911:A2 I *D sky130_fd_sc_hd__o21ai_2
*I *910:A1 I *D sky130_fd_sc_hd__o21ai_2
*I *909:A2 I *D sky130_fd_sc_hd__a21bo_2
*I *906:B I *D sky130_fd_sc_hd__and2_2
*I *913:A2 I *D sky130_fd_sc_hd__a21boi_2
*I *920:B I *D sky130_fd_sc_hd__nor2_2
*I *905:X O *D sky130_fd_sc_hd__or4b_2
*CAP
1 *908:B 0
2 *911:A2 0.000243853
3 *910:A1 0
4 *909:A2 0
5 *906:B 0.000208682
6 *913:A2 0.000238969
7 *920:B 0.00025113
8 *905:X 0.00114542
9 *56:74 0.000609286
10 *56:67 0.000365433
11 *56:37 0.000590012
12 *56:33 0.000227394
13 *56:31 0.000330002
14 *56:14 0.00164151
15 *906:B *906:A 9.12828e-05
16 *906:B *914:A 0.000143633
17 *906:B *914:C 0.000131887
18 *906:B *60:16 0.000139337
19 *911:A2 *910:A2 0.000222578
20 *911:A2 *911:B1 0
21 *911:A2 *983:CLK 9.93915e-05
22 *911:A2 *57:14 0.000176598
23 *911:A2 *110:18 4.34677e-05
24 *913:A2 *914:C 3.11088e-05
25 *913:A2 *982:SET_B 0.000155672
26 *913:A2 *985:RESET_B 5.5764e-05
27 *913:A2 *60:16 0.000314452
28 *913:A2 *84:31 0.000121186
29 *913:A2 *112:14 2.85321e-05
30 *920:B *920:A 5.49544e-05
31 *56:14 *959:D 7.79481e-05
32 *56:14 *979:RESET_B 0
33 *56:14 *89:63 6.12668e-05
34 *56:31 *899:A 1.32293e-05
35 *56:31 *110:33 0
36 *56:33 *909:B1_N 5.04938e-05
37 *56:33 *110:33 0
38 *56:37 *909:A1 9.95963e-05
39 *56:37 *109:27 0.000309187
40 *56:37 *112:14 6.96346e-05
41 *56:74 *109:27 5.33005e-05
42 *56:74 *110:18 0.000573633
43 *905:A *56:14 0
44 *908:A *56:31 0.000129303
45 *913:A1 *913:A2 5.65955e-05
46 *913:B1_N *913:A2 0.000243753
47 *960:B *56:14 0.000313807
48 *983:D *911:A2 0
49 *986:D *913:A2 1.35553e-05
50 *54:16 *56:14 8.57913e-05
51 *55:14 *56:14 1.24368e-05
*RES
1 *905:X *56:14 40.175 
2 *56:14 *920:B 13.1393 
3 *56:14 *56:31 9.25 
4 *56:31 *56:33 1.94643 
5 *56:33 *56:37 8.875 
6 *56:37 *913:A2 26.4071 
7 *56:37 *906:B 14.675 
8 *56:33 *56:67 4.5 
9 *56:67 *909:A2 9.3 
10 *56:67 *56:74 8.33929 
11 *56:74 *910:A1 9.3 
12 *56:74 *911:A2 24.7643 
13 *56:31 *908:B 13.8 
*END

*D_NET *57 0.00495108
*CONN
*I *959:C I *D sky130_fd_sc_hd__and4_2
*I *910:A2 I *D sky130_fd_sc_hd__o21ai_2
*I *908:C I *D sky130_fd_sc_hd__or3_2
*I *907:Y O *D sky130_fd_sc_hd__nand3_2
*CAP
1 *959:C 0.000623301
2 *910:A2 0.000165135
3 *908:C 0.000477936
4 *907:Y 0.000188094
5 *57:14 0.000961436
6 *57:10 0.00112976
7 *908:C *983:CLK 5.52302e-05
8 *910:A2 *983:CLK 8.27532e-05
9 *959:C *959:A 5.33005e-05
10 *959:C *959:B 9.00671e-05
11 *57:10 *907:C 4.58194e-05
12 *57:10 *961:A 0.000148449
13 *911:A2 *910:A2 0.000222578
14 *911:A2 *57:14 0.000176598
15 *961:B *959:C 0.000454824
16 *962:A2 *57:10 7.5802e-05
*RES
1 *907:Y *57:10 17.3 
2 *57:10 *57:14 11 
3 *57:14 *908:C 17.2286 
4 *57:14 *910:A2 22.1036 
5 *57:10 *959:C 22.55 
*END

*D_NET *58 0.000359922
*CONN
*I *909:B1_N I *D sky130_fd_sc_hd__a21bo_2
*I *908:X O *D sky130_fd_sc_hd__or3_2
*CAP
1 *909:B1_N 0.000113755
2 *908:X 0.000113755
3 *909:B1_N *909:A1 9.15842e-06
4 *909:B1_N *109:27 7.27604e-05
5 *56:33 *909:B1_N 5.04938e-05
*RES
1 *908:X *909:B1_N 30.2339 
*END

*D_NET *59 0.00106908
*CONN
*I *911:B1 I *D sky130_fd_sc_hd__o21ai_2
*I *910:Y O *D sky130_fd_sc_hd__o21ai_2
*CAP
1 *911:B1 0.000268509
2 *910:Y 0.000268509
3 *911:B1 *110:12 3.42301e-05
4 *911:B1 *110:18 1.48543e-05
5 *911:A1 *911:B1 0.000359035
6 *911:A2 *911:B1 0
7 *983:D *911:B1 0.000123946
*RES
1 *910:Y *911:B1 33.2607 
*END

*D_NET *60 0.00763915
*CONN
*I *921:A I *D sky130_fd_sc_hd__and2_2
*I *922:A I *D sky130_fd_sc_hd__nand2_2
*I *932:D I *D sky130_fd_sc_hd__and4b_2
*I *915:C I *D sky130_fd_sc_hd__and3_2
*I *916:A2 I *D sky130_fd_sc_hd__a21oi_2
*I *914:X O *D sky130_fd_sc_hd__or3_2
*CAP
1 *921:A 0.000235122
2 *922:A 0
3 *932:D 5.124e-05
4 *915:C 0.000118898
5 *916:A2 0.000258369
6 *914:X 0.00121646
7 *60:57 0.000435601
8 *60:40 0.000476058
9 *60:29 0.000374304
10 *60:16 0.0015059
11 *915:C *915:A 5.33005e-05
12 *916:A2 *916:B1 2.16573e-05
13 *921:A *896:A 0.000226687
14 *921:A *921:B 0.000151718
15 *921:A *933:C1 6.05161e-06
16 *921:A *67:8 6.05161e-06
17 *921:A *73:25 0.000335217
18 *921:A *104:12 0.000124019
19 *932:D *73:10 2.51343e-06
20 *60:16 *84:31 0.000271898
21 *60:40 *67:18 0.000119718
22 *60:57 *921:B 9.86486e-06
23 *60:57 *933:B1 5.33005e-05
24 *60:57 *65:16 1.7792e-05
25 *60:57 *67:18 3.28616e-05
26 *60:57 *73:10 9.9403e-05
27 *906:B *60:16 0.000139337
28 *913:A2 *60:16 0.000314452
29 *915:B *915:C 3.83239e-06
30 *916:A1 *916:A2 0.000301835
31 *932:C *932:D 5.49995e-05
32 *932:C *60:40 0.000381141
33 *933:A1 *921:A 4.58194e-05
34 *51:12 *916:A2 8.1932e-05
35 *51:12 *60:29 4.50762e-05
36 *51:12 *60:40 6.67257e-05
*RES
1 *914:X *60:16 41.0143 
2 *60:16 *916:A2 19.6214 
3 *60:16 *60:29 0.732143 
4 *60:29 *915:C 15.1571 
5 *60:29 *60:40 6.19643 
6 *60:40 *932:D 14.7464 
7 *60:40 *60:57 8.73214 
8 *60:57 *922:A 9.3 
9 *60:57 *921:A 25.4071 
*END

*D_NET *61 0.00342368
*CONN
*I *917:A I *D sky130_fd_sc_hd__nor2_2
*I *924:C I *D sky130_fd_sc_hd__and3_2
*I *919:B I *D sky130_fd_sc_hd__or2_2
*I *918:B I *D sky130_fd_sc_hd__nand2_2
*I *915:X O *D sky130_fd_sc_hd__and3_2
*CAP
1 *917:A 0
2 *924:C 0.000322803
3 *919:B 0.000159457
4 *918:B 5.42165e-05
5 *915:X 2.88898e-05
6 *61:23 0.000572019
7 *61:10 0.000844103
8 *61:6 0.000729017
9 *918:B *918:A 0
10 *918:B *923:C 4.93118e-06
11 *919:B *67:18 5.33005e-05
12 *924:C *924:B 5.26134e-05
13 *924:C *930:B 8.00806e-05
14 *924:C *63:20 9.7435e-05
15 *924:C *63:29 7.24799e-05
16 *924:C *69:23 0
17 *924:C *100:10 6.66076e-05
18 *924:C *100:36 3.67452e-05
19 *61:23 *923:C 0.000100248
20 *61:23 *63:20 4.91344e-05
21 *61:23 *100:10 9.95963e-05
*RES
1 *915:X *61:6 9.83571 
2 *61:6 *61:10 11.2321 
3 *61:10 *918:B 10.2643 
4 *61:10 *61:23 7.05357 
5 *61:23 *919:B 16.3893 
6 *61:23 *924:C 20.3536 
7 *61:6 *917:A 9.3 
*END

*D_NET *62 0.000934942
*CONN
*I *917:B I *D sky130_fd_sc_hd__nor2_2
*I *916:Y O *D sky130_fd_sc_hd__a21oi_2
*CAP
1 *917:B 0.000357554
2 *916:Y 0.000357554
3 *917:B *916:B1 2.07878e-05
4 *963:D *917:B 0.000199045
*RES
1 *916:Y *917:B 33.3321 
*END

*D_NET *63 0.00365086
*CONN
*I *929:B I *D sky130_fd_sc_hd__or3_2
*I *925:B I *D sky130_fd_sc_hd__xnor2_2
*I *927:B2 I *D sky130_fd_sc_hd__o22a_2
*I *928:A1 I *D sky130_fd_sc_hd__o21ai_2
*I *923:A I *D sky130_fd_sc_hd__and3_2
*I *918:Y O *D sky130_fd_sc_hd__nand2_2
*CAP
1 *929:B 9.44318e-05
2 *925:B 0.000382077
3 *927:B2 2.83387e-05
4 *928:A1 9.44318e-05
5 *923:A 7.41148e-06
6 *918:Y 0.000232603
7 *63:29 0.000755665
8 *63:20 0.000570441
9 *923:A *918:A 5.65955e-05
10 *923:A *923:C 5.65955e-05
11 *925:B *927:A2 3.27526e-05
12 *925:B *101:25 0.000315987
13 *927:B2 *927:B1 2.84026e-05
14 *929:B *928:A2 2.28499e-05
15 *929:B *930:B 5.33005e-05
16 *929:B *100:16 9.90431e-05
17 *63:20 *923:C 0.00010137
18 *63:20 *100:38 0
19 *63:29 *924:A 0
20 *63:29 *927:A2 0.000314395
21 *63:29 *100:38 0
22 *924:C *63:20 9.7435e-05
23 *924:C *63:29 7.24799e-05
24 *965:D *925:B 0.000185118
25 *61:23 *63:20 4.91344e-05
*RES
1 *918:Y *923:A 19.1357 
2 *918:Y *63:20 19.0857 
3 *63:20 *928:A1 13.8 
4 *63:20 *63:29 7.41071 
5 *63:29 *927:B2 14.3357 
6 *63:29 *925:B 21.7821 
7 *928:A1 *929:B 20.8143 
*END

*D_NET *64 0.000576362
*CONN
*I *923:B I *D sky130_fd_sc_hd__and3_2
*I *919:X O *D sky130_fd_sc_hd__or2_2
*CAP
1 *923:B 0.000213487
2 *919:X 0.000213487
3 *923:B *918:A 0.000138522
4 *923:B *923:C 1.31795e-06
5 *964:D *923:B 9.54798e-06
*RES
1 *919:X *923:B 31.5286 
*END

*D_NET *65 0.00456616
*CONN
*I *959:D I *D sky130_fd_sc_hd__and4_2
*I *958:A2 I *D sky130_fd_sc_hd__a21oi_2
*I *921:B I *D sky130_fd_sc_hd__and2_2
*I *922:B I *D sky130_fd_sc_hd__nand2_2
*I *920:Y O *D sky130_fd_sc_hd__nor2_2
*CAP
1 *959:D 9.26344e-05
2 *958:A2 0
3 *921:B 0.000308401
4 *922:B 0
5 *920:Y 0.000532742
6 *65:40 0.000745115
7 *65:16 0.000385119
8 *65:12 0.00126194
9 *921:B *933:B1 6.05161e-06
10 *921:B *933:C1 8.43535e-06
11 *921:B *968:RESET_B 6.99712e-05
12 *921:B *67:8 8.43535e-06
13 *921:B *73:25 0.000358052
14 *959:D *959:A 3.90086e-05
15 *959:D *110:44 1.06172e-05
16 *65:12 *104:12 8.50484e-05
17 *65:16 *67:8 1.24368e-05
18 *65:40 *84:8 9.56233e-05
19 *921:A *921:B 0.000151718
20 *933:A1 *921:B 0.000289204
21 *56:14 *959:D 7.79481e-05
22 *60:57 *921:B 9.86486e-06
23 *60:57 *65:16 1.7792e-05
*RES
1 *920:Y *65:12 27.6571 
2 *65:12 *65:16 1.375 
3 *65:16 *922:B 9.3 
4 *65:16 *921:B 26.5321 
5 *65:12 *65:40 11.2143 
6 *65:40 *958:A2 9.3 
7 *65:40 *959:D 20.7821 
*END

*D_NET *66 0.00111586
*CONN
*I *933:C1 I *D sky130_fd_sc_hd__a211oi_2
*I *921:X O *D sky130_fd_sc_hd__and2_2
*CAP
1 *933:C1 0.000277674
2 *921:X 0.000277674
3 *933:C1 *968:RESET_B 0.000248746
4 *933:C1 *73:25 8.07792e-06
5 *921:A *933:C1 6.05161e-06
6 *921:B *933:C1 8.43535e-06
7 *933:A1 *933:C1 0.000289204
*RES
1 *921:X *933:C1 33.4393 
*END

*D_NET *67 0.0106951
*CONN
*I *941:A I *D sky130_fd_sc_hd__and3_2
*I *937:A I *D sky130_fd_sc_hd__and3_2
*I *930:A I *D sky130_fd_sc_hd__and3_2
*I *923:C I *D sky130_fd_sc_hd__and3_2
*I *922:Y O *D sky130_fd_sc_hd__nand2_2
*CAP
1 *941:A 1.57994e-05
2 *937:A 0.00107283
3 *930:A 0
4 *923:C 0.000274561
5 *922:Y 3.71857e-05
6 *67:50 0.00297715
7 *67:18 0.00141926
8 *67:8 0.00307041
9 *923:C *918:A 4.73286e-05
10 *937:A *937:C 4.7659e-05
11 *937:A *970:RESET_B 0.000258176
12 *937:A *105:14 0
13 *941:A *941:C 5.7836e-06
14 *67:18 *930:C 0.000393657
15 *67:18 *73:10 4.75203e-05
16 *67:18 *104:12 0.000291143
17 *67:50 *73:10 7.44945e-07
18 *67:50 *73:25 0.00012302
19 *67:50 *104:12 1.94945e-05
20 *918:B *923:C 4.93118e-06
21 *919:B *67:18 5.33005e-05
22 *921:A *67:8 6.05161e-06
23 *921:B *67:8 8.43535e-06
24 *923:A *923:C 5.65955e-05
25 *923:B *923:C 1.31795e-06
26 *51:10 *67:18 9.61161e-05
27 *60:40 *67:18 0.000119718
28 *60:57 *67:18 3.28616e-05
29 *61:23 *923:C 0.000100248
30 *63:20 *923:C 0.00010137
31 *65:16 *67:8 1.24368e-05
*RES
1 *922:Y *67:8 14.3357 
2 *67:8 *67:18 27.4821 
3 *67:18 *923:C 22.6393 
4 *67:18 *930:A 9.3 
5 *67:8 *67:50 13.355 
6 *67:50 *937:A 23.889 
7 *67:50 *941:A 17.4868 
*END

*D_NET *68 0.000929784
*CONN
*I *927:A2 I *D sky130_fd_sc_hd__o22a_2
*I *924:X O *D sky130_fd_sc_hd__and3_2
*CAP
1 *927:A2 0.000242559
2 *924:X 0.000242559
3 *927:A2 *924:B 9.75173e-05
4 *925:B *927:A2 3.27526e-05
5 *63:29 *927:A2 0.000314395
*RES
1 *924:X *927:A2 32.9214 
*END

*D_NET *69 0.00351844
*CONN
*I *932:A_N I *D sky130_fd_sc_hd__and4b_2
*I *929:C I *D sky130_fd_sc_hd__or3_2
*I *928:A2 I *D sky130_fd_sc_hd__o21ai_2
*I *927:B1 I *D sky130_fd_sc_hd__o22a_2
*I *926:Y O *D sky130_fd_sc_hd__nand2_2
*CAP
1 *932:A_N 0.000537605
2 *929:C 0
3 *928:A2 7.96497e-05
4 *927:B1 0.000232216
5 *926:Y 7.02235e-05
6 *69:23 0.000222677
7 *69:19 0.000908126
8 *69:6 0.000529933
9 *927:B1 *927:A1 0.000185403
10 *928:A2 *100:16 9.90431e-05
11 *928:A2 *100:36 7.32272e-05
12 *932:A_N *924:B 9.84729e-05
13 *932:A_N *932:B 1.79203e-05
14 *69:6 *927:A1 0.000126907
15 *69:19 *924:B 0.000179504
16 *69:19 *101:27 2.16482e-05
17 *69:23 *86:46 0
18 *69:23 *100:36 2.94103e-05
19 *924:C *69:23 0
20 *927:B2 *927:B1 2.84026e-05
21 *928:B1 *928:A2 5.52238e-05
22 *929:B *928:A2 2.28499e-05
*RES
1 *926:Y *69:6 10.6571 
2 *69:6 *927:B1 13.4429 
3 *69:6 *69:19 9.78571 
4 *69:19 *69:23 7.05357 
5 *69:23 *928:A2 11.4786 
6 *69:23 *929:C 9.3 
7 *69:19 *932:A_N 22.9607 
*END

*D_NET *70 0.000352625
*CONN
*I *930:B I *D sky130_fd_sc_hd__and3_2
*I *928:Y O *D sky130_fd_sc_hd__o21ai_2
*CAP
1 *930:B 7.04427e-05
2 *928:Y 7.04427e-05
3 *930:B *100:10 7.83587e-05
4 *924:C *930:B 8.00806e-05
5 *929:B *930:B 5.33005e-05
*RES
1 *928:Y *930:B 29.1714 
*END

*D_NET *71 0.00307765
*CONN
*I *933:A2 I *D sky130_fd_sc_hd__a211oi_2
*I *930:C I *D sky130_fd_sc_hd__and3_2
*I *929:X O *D sky130_fd_sc_hd__or3_2
*CAP
1 *933:A2 0.000603057
2 *930:C 0.000392787
3 *929:X 7.48623e-05
4 *71:6 0.00107071
5 *930:C *86:46 0.000152068
6 *930:C *103:12 0
7 *933:A2 *932:B 3.83655e-05
8 *933:A2 *100:16 1.02821e-05
9 *933:A2 *103:19 0.000219762
10 *48:6 *933:A2 7.17235e-05
11 *48:6 *71:6 5.03772e-05
12 *67:18 *930:C 0.000393657
*RES
1 *929:X *71:6 10.2464 
2 *71:6 *930:C 26.4429 
3 *71:6 *933:A2 27.8357 
*END

*D_NET *72 0.000584733
*CONN
*I *932:B I *D sky130_fd_sc_hd__and4b_2
*I *931:X O *D sky130_fd_sc_hd__and4_2
*CAP
1 *932:B 0.00024879
2 *931:X 0.00024879
3 *932:B *103:19 3.08664e-05
4 *932:A_N *932:B 1.79203e-05
5 *933:A2 *932:B 3.83655e-05
*RES
1 *931:X *932:B 30.9393 
*END

*D_NET *73 0.00770346
*CONN
*I *945:C I *D sky130_fd_sc_hd__and4_2
*I *939:D I *D sky130_fd_sc_hd__and4_2
*I *938:A3 I *D sky130_fd_sc_hd__a31o_2
*I *936:C I *D sky130_fd_sc_hd__nand3_2
*I *934:B I *D sky130_fd_sc_hd__xor2_2
*I *935:A2 I *D sky130_fd_sc_hd__a21o_2
*I *933:B1 I *D sky130_fd_sc_hd__a211oi_2
*I *932:X O *D sky130_fd_sc_hd__and4b_2
*CAP
1 *945:C 0.000252867
2 *939:D 0
3 *938:A3 4.28911e-05
4 *936:C 0
5 *934:B 0.000187944
6 *935:A2 0
7 *933:B1 8.7591e-05
8 *932:X 0.000107258
9 *73:71 0.000311317
10 *73:60 0.000297128
11 *73:35 0.000465905
12 *73:29 0.000809945
13 *73:25 0.00126749
14 *73:10 0.000734565
15 *934:B *969:RESET_B 0.000223693
16 *938:A3 *938:B1 5.49995e-05
17 *938:A3 *85:30 0.000226067
18 *938:A3 *106:43 6.13118e-05
19 *938:A3 *106:58 9.56386e-05
20 *945:C *901:A 9.71197e-05
21 *945:C *941:C 3.41848e-05
22 *945:C *945:A 5.33005e-05
23 *945:C *945:B 9.60939e-05
24 *945:C *77:24 6.97972e-05
25 *945:C *85:22 5.90911e-05
26 *945:C *85:59 0.000189288
27 *73:25 *896:A 2.37944e-05
28 *73:25 *901:D_N 2.53112e-06
29 *73:25 *971:RESET_B 0.000111353
30 *73:25 *104:12 1.19409e-05
31 *73:29 *941:C 5.49489e-05
32 *73:35 *903:D_N 2.83284e-06
33 *73:35 *969:RESET_B 7.26481e-05
34 *73:35 *106:12 6.96422e-05
35 *73:60 *901:D_N 2.3942e-05
36 *73:60 *941:C 4.67422e-05
37 *73:60 *85:22 3.14003e-05
38 *73:71 *941:C 5.19522e-05
39 *73:71 *85:22 0.000121897
40 *921:A *73:25 0.000335217
41 *921:B *933:B1 6.05161e-06
42 *921:B *73:25 0.000358052
43 *932:D *73:10 2.51343e-06
44 *933:A1 *933:B1 8.43213e-05
45 *933:C1 *73:25 8.07792e-06
46 *971:D *73:29 5.07129e-05
47 *971:D *73:60 3.08588e-05
48 *3:12 *934:B 3.09725e-05
49 *3:12 *73:35 2.15817e-05
50 *60:57 *933:B1 5.33005e-05
51 *60:57 *73:10 9.9403e-05
52 *67:18 *73:10 4.75203e-05
53 *67:50 *73:10 7.44945e-07
54 *67:50 *73:25 0.00012302
*RES
1 *932:X *73:10 15.8268 
2 *73:10 *933:B1 15.8446 
3 *73:10 *73:25 12.9554 
4 *73:25 *73:29 13.6607 
5 *73:29 *73:35 9.71429 
6 *73:35 *935:A2 13.8 
7 *73:35 *934:B 9.78571 
8 *73:29 *936:C 9.3 
9 *73:25 *73:60 3.92857 
10 *73:60 *938:A3 15.9786 
11 *73:60 *73:71 1.64286 
12 *73:71 *939:D 13.8 
13 *73:71 *945:C 19.9786 
*END

*D_NET *74 0.000463804
*CONN
*I *937:B I *D sky130_fd_sc_hd__and3_2
*I *935:X O *D sky130_fd_sc_hd__a21o_2
*CAP
1 *937:B 0.000230645
2 *935:X 0.000230645
3 *937:B *105:36 2.51343e-06
*RES
1 *935:X *937:B 21.1893 
*END

*D_NET *75 0.00101138
*CONN
*I *937:C I *D sky130_fd_sc_hd__and3_2
*I *936:Y O *D sky130_fd_sc_hd__nand3_2
*CAP
1 *937:C 0.000371944
2 *936:Y 0.000371944
3 *937:C *936:A 1.84776e-05
4 *937:C *970:RESET_B 0.000173159
5 *937:A *937:C 4.7659e-05
6 *970:D *937:C 2.81946e-05
*RES
1 *936:Y *937:C 33.6536 
*END

*D_NET *76 0.000578058
*CONN
*I *941:B I *D sky130_fd_sc_hd__and3_2
*I *938:X O *D sky130_fd_sc_hd__a31o_2
*CAP
1 *941:B 0.000145857
2 *938:X 0.000145857
3 *941:B *941:C 0.000101227
4 *941:B *85:30 0.000185118
*RES
1 *938:X *941:B 30.7071 
*END

*D_NET *77 0.00188568
*CONN
*I *943:A2 I *D sky130_fd_sc_hd__a21oi_2
*I *942:B I *D sky130_fd_sc_hd__xor2_2
*I *940:A I *D sky130_fd_sc_hd__inv_2
*I *939:X O *D sky130_fd_sc_hd__and4_2
*CAP
1 *943:A2 0.000233443
2 *942:B 0
3 *940:A 3.95564e-05
4 *939:X 0.000440076
5 *77:24 0.000633962
6 *940:A *939:A 0.000109467
7 *940:A *941:C 5.20669e-05
8 *943:A2 *943:A1 9.83388e-05
9 *77:24 *85:59 0.000144037
10 *77:24 *85:70 6.4934e-05
11 *945:C *77:24 6.97972e-05
12 *969:D *77:24 0
*RES
1 *939:X *940:A 19.975 
2 *939:X *77:24 23.2643 
3 *77:24 *942:B 4.5 
4 *77:24 *943:A2 18.1214 
*END

*D_NET *78 0.00114887
*CONN
*I *941:C I *D sky130_fd_sc_hd__and3_2
*I *940:Y O *D sky130_fd_sc_hd__inv_2
*CAP
1 *941:C 0.000393582
2 *940:Y 0.000393582
3 *941:C *939:A 1.47972e-05
4 *940:A *941:C 5.20669e-05
5 *941:A *941:C 5.7836e-06
6 *941:B *941:C 0.000101227
7 *945:C *941:C 3.41848e-05
8 *73:29 *941:C 5.49489e-05
9 *73:60 *941:C 4.67422e-05
10 *73:71 *941:C 5.19522e-05
*RES
1 *940:Y *941:C 35.0821 
*END

*D_NET *79 0.0010045
*CONN
*I *946:A I *D sky130_fd_sc_hd__nor2_2
*I *943:Y O *D sky130_fd_sc_hd__a21oi_2
*CAP
1 *946:A 0.000366895
2 *943:Y 0.000366895
3 *946:A *943:A1 4.93118e-06
4 *946:A *943:B1 1.82051e-05
5 *946:A *973:CLK 5.23822e-05
6 *946:A *81:10 3.67279e-06
7 *946:A *108:25 7.80092e-05
8 *946:A *108:29 5.54817e-06
9 *973:D *946:A 0.00010796
*RES
1 *943:Y *946:A 33.3857 
*END

*D_NET *80 0.000392176
*CONN
*I *945:D I *D sky130_fd_sc_hd__and4_2
*I *944:X O *D sky130_fd_sc_hd__and3_2
*CAP
1 *945:D 0.000138557
2 *944:X 0.000138557
3 *945:D *901:A 3.34672e-05
4 *945:D *83:17 8.15939e-05
*RES
1 *944:X *945:D 30.4929 
*END

*D_NET *81 0.00481125
*CONN
*I *947:B I *D sky130_fd_sc_hd__nor2_2
*I *951:A3 I *D sky130_fd_sc_hd__a31oi_2
*I *953:D I *D sky130_fd_sc_hd__and4_2
*I *955:C I *D sky130_fd_sc_hd__and4_2
*I *948:B I *D sky130_fd_sc_hd__nand2_2
*I *946:B I *D sky130_fd_sc_hd__nor2_2
*I *945:X O *D sky130_fd_sc_hd__and4_2
*CAP
1 *947:B 0
2 *951:A3 0
3 *953:D 3.67359e-05
4 *955:C 7.14952e-05
5 *948:B 0
6 *946:B 0
7 *945:X 0.000356658
8 *81:38 0.000315154
9 *81:34 0.000446756
10 *81:27 0.000453654
11 *81:21 0.000672549
12 *81:10 0.000815386
13 *953:D *953:A 9.83442e-05
14 *955:C *96:14 0
15 *955:C *96:16 0
16 *81:10 *973:RESET_B 0
17 *81:10 *108:29 0
18 *81:21 *95:14 0
19 *81:27 *95:14 4.5763e-05
20 *81:27 *95:20 0.000230155
21 *81:34 *951:A1 4.17702e-05
22 *81:34 *95:14 0.000665245
23 *81:38 *96:14 0
24 *946:A *81:10 3.67279e-06
25 *954:B *81:34 5.33005e-05
26 *954:B *81:38 0.000292669
27 *956:A2 *955:C 0.000122051
28 *956:A2 *81:38 7.29667e-05
29 *973:D *81:21 1.32293e-05
30 *43:8 *953:D 3.69047e-06
*RES
1 *945:X *81:10 24.8 
2 *81:10 *946:B 9.3 
3 *81:10 *81:21 7.55357 
4 *81:21 *81:27 4.26786 
5 *81:27 *948:B 9.3 
6 *81:27 *81:34 6.69643 
7 *81:34 *81:38 9.48214 
8 *81:38 *955:C 15.4429 
9 *81:38 *953:D 14.7464 
10 *81:34 *951:A3 9.3 
11 *81:21 *947:B 9.3 
*END

*D_NET *82 0.000261098
*CONN
*I *949:A_N I *D sky130_fd_sc_hd__and2b_2
*I *947:Y O *D sky130_fd_sc_hd__nor2_2
*CAP
1 *949:A_N 0.000130549
2 *947:Y 0.000130549
*RES
1 *947:Y *949:A_N 29.85 
*END

*D_NET *83 0.00281278
*CONN
*I *988:A I *D sky130_fd_sc_hd__clkbuf_16
*I *989:A I *D sky130_fd_sc_hd__clkbuf_16
*I *987:X O *D sky130_fd_sc_hd__clkbuf_16
*CAP
1 *988:A 0
2 *989:A 0
3 *987:X 9.80935e-05
4 *83:31 0.00049887
5 *83:17 0.000568327
6 *83:11 0.00116812
7 *83:6 0.000199018
8 *83:17 *901:A 0
9 *83:17 *971:RESET_B 0
10 *83:17 *973:RESET_B 0
11 *83:31 *971:RESET_B 0
12 *83:31 *84:140 0
13 *945:D *83:17 8.15939e-05
14 *54:16 *83:17 0.000198755
*RES
1 *987:X *83:6 10.8625 
2 *83:6 *83:11 1.5625 
3 *83:11 *83:17 15.8929 
4 *83:17 *989:A 13.8 
5 *83:11 *83:31 13.4286 
6 *83:31 *988:A 13.8 
*END

*D_NET *84 0.0216137
*CONN
*I *980:CLK I *D sky130_fd_sc_hd__dfrtp_2
*I *981:CLK I *D sky130_fd_sc_hd__dfrtp_2
*I *979:CLK I *D sky130_fd_sc_hd__dfrtp_2
*I *968:CLK I *D sky130_fd_sc_hd__dfrtp_2
*I *966:CLK I *D sky130_fd_sc_hd__dfrtp_2
*I *983:CLK I *D sky130_fd_sc_hd__dfrtp_2
*I *984:CLK I *D sky130_fd_sc_hd__dfrtp_2
*I *986:CLK I *D sky130_fd_sc_hd__dfstp_2
*I *985:CLK I *D sky130_fd_sc_hd__dfrtp_2
*I *963:CLK I *D sky130_fd_sc_hd__dfrtp_2
*I *967:CLK I *D sky130_fd_sc_hd__dfrtp_2
*I *964:CLK I *D sky130_fd_sc_hd__dfrtp_2
*I *982:CLK I *D sky130_fd_sc_hd__dfstp_2
*I *988:X O *D sky130_fd_sc_hd__clkbuf_16
*CAP
1 *980:CLK 0.000141816
2 *981:CLK 3.60731e-05
3 *979:CLK 8.89926e-05
4 *968:CLK 0
5 *966:CLK 0.00116244
6 *983:CLK 0.000397287
7 *984:CLK 3.36017e-05
8 *986:CLK 0.000255997
9 *985:CLK 3.80696e-05
10 *963:CLK 0
11 *967:CLK 9.60148e-05
12 *964:CLK 0.000390391
13 *982:CLK 0.000273031
14 *988:X 0.000135526
15 *84:153 0.00133656
16 *84:140 0.00138765
17 *84:112 0.00200692
18 *84:108 0.00112239
19 *84:75 0.000436776
20 *84:69 0.00159165
21 *84:58 0.00108526
22 *84:33 0.000853659
23 *84:31 0.00104364
24 *84:12 0.00104868
25 *84:10 0.000578092
26 *84:8 0.000752293
27 *964:CLK *86:21 3.02581e-06
28 *966:CLK *966:RESET_B 7.06028e-05
29 *966:CLK *968:RESET_B 0.000445743
30 *966:CLK *993:A 4.37451e-05
31 *967:CLK *964:RESET_B 7.76132e-05
32 *980:CLK *962:B1 1.02504e-05
33 *980:CLK *91:8 0.000141734
34 *980:CLK *91:12 4.17661e-06
35 *982:CLK *982:SET_B 5.94205e-05
36 *984:CLK *906:A 7.57312e-05
37 *84:10 *920:A 0.000110485
38 *84:31 *963:RESET_B 0.000153647
39 *84:31 *982:SET_B 6.7921e-05
40 *84:31 *93:8 7.26775e-05
41 *84:33 *963:RESET_B 0.000187995
42 *84:33 *86:21 0.000182891
43 *84:33 *100:10 2.85234e-05
44 *84:69 *86:138 0.000196946
45 *84:69 *112:8 0.000187561
46 *84:112 *104:8 8.32964e-05
47 *84:153 *907:A 2.59355e-05
48 *84:153 *907:B 0.000143085
49 *84:153 *907:C 0.000163004
50 *908:C *983:CLK 5.52302e-05
51 *910:A2 *983:CLK 8.27532e-05
52 *911:A2 *983:CLK 9.93915e-05
53 *913:A1 *84:31 0.000347182
54 *913:A2 *84:31 0.000121186
55 *962:A2 *980:CLK 1.08847e-05
56 *962:A2 *981:CLK 1.08936e-05
57 *964:D *964:CLK 7.57312e-05
58 *967:D *967:CLK 5.57204e-05
59 *968:D *84:112 2.84109e-05
60 *980:D *980:CLK 0
61 *980:D *981:CLK 0
62 *981:D *980:CLK 9.56957e-05
63 *981:D *981:CLK 3.15653e-05
64 *981:D *84:153 5.33005e-05
65 *982:D *982:CLK 0.000124083
66 *984:D *984:CLK 7.57312e-05
67 *985:D *84:10 6.15273e-05
68 *985:D *84:69 1.48543e-05
69 *986:D *986:CLK 0.000272061
70 *55:14 *84:10 0.000287651
71 *55:14 *84:108 0.000267766
72 *55:14 *84:140 0.000245778
73 *60:16 *84:31 0.000271898
74 *65:40 *84:8 9.56233e-05
75 *83:31 *84:140 0
*RES
1 *988:X *84:8 15.5679 
2 *84:8 *84:10 9.83929 
3 *84:10 *84:12 1.33929 
4 *84:12 *982:CLK 18.8357 
5 *84:12 *84:31 19.9643 
6 *84:31 *84:33 8.33929 
7 *84:33 *964:CLK 15.9964 
8 *84:33 *967:CLK 20.8536 
9 *84:31 *963:CLK 9.3 
10 *84:10 *84:58 4.5 
11 *84:58 *985:CLK 10.0321 
12 *84:58 *84:69 17.7679 
13 *84:69 *84:75 2.30357 
14 *84:75 *986:CLK 18.9429 
15 *84:75 *984:CLK 15.1571 
16 *84:69 *983:CLK 21.1571 
17 *84:8 *84:108 3.46429 
18 *84:108 *84:112 18.1786 
19 *84:112 *966:CLK 35.6214 
20 *84:112 *968:CLK 9.3 
21 *84:108 *84:140 7.66071 
22 *84:140 *979:CLK 10.5679 
23 *84:140 *84:153 18.5893 
24 *84:153 *981:CLK 14.5321 
25 *84:153 *980:CLK 16.8 
*END

*D_NET *85 0.0159671
*CONN
*I *978:CLK I *D sky130_fd_sc_hd__dfrtp_2
*I *977:CLK I *D sky130_fd_sc_hd__dfrtp_2
*I *990:A I *D sky130_fd_sc_hd__clkbuf_8
*I *975:CLK I *D sky130_fd_sc_hd__dfrtp_2
*I *976:CLK I *D sky130_fd_sc_hd__dfrtp_2
*I *974:CLK I *D sky130_fd_sc_hd__dfrtp_2
*I *972:CLK I *D sky130_fd_sc_hd__dfrtp_2
*I *973:CLK I *D sky130_fd_sc_hd__dfrtp_2
*I *969:CLK I *D sky130_fd_sc_hd__dfrtp_2
*I *971:CLK I *D sky130_fd_sc_hd__dfrtp_2
*I *970:CLK I *D sky130_fd_sc_hd__dfrtp_2
*I *965:CLK I *D sky130_fd_sc_hd__dfrtp_2
*I *989:X O *D sky130_fd_sc_hd__clkbuf_16
*CAP
1 *978:CLK 0.000597339
2 *977:CLK 0
3 *990:A 0
4 *975:CLK 0
5 *976:CLK 0.000221776
6 *974:CLK 0
7 *972:CLK 0.000142588
8 *973:CLK 2.65188e-05
9 *969:CLK 0.000240678
10 *971:CLK 0
11 *970:CLK 3.94137e-05
12 *965:CLK 0.000679565
13 *989:X 8.09922e-05
14 *85:124 0.000654275
15 *85:99 0.000704313
16 *85:92 0.00110393
17 *85:83 0.000894604
18 *85:70 0.000348508
19 *85:59 0.000633668
20 *85:30 0.00179593
21 *85:22 0.00116993
22 *85:18 0.000454333
23 *85:14 0.000496261
24 *85:10 0.000474449
25 *965:CLK *965:RESET_B 0.000223174
26 *965:CLK *970:RESET_B 0
27 *972:CLK *943:A1 4.82354e-05
28 *973:CLK *943:B1 3.4689e-05
29 *976:CLK *950:A 0.000271898
30 *976:CLK *976:RESET_B 0.000443023
31 *976:CLK *95:10 6.05139e-05
32 *976:CLK *97:10 3.42509e-05
33 *978:CLK *902:C 5.33005e-05
34 *978:CLK *902:D 0.000158288
35 *978:CLK *89:133 5.71795e-05
36 *978:CLK *99:10 0.000182598
37 *85:10 *901:B 6.45537e-05
38 *85:14 *944:C 0.000277178
39 *85:18 *939:A 0.000136733
40 *85:18 *939:C 9.41642e-05
41 *85:18 *944:A 5.66971e-05
42 *85:18 *944:B 4.4545e-05
43 *85:18 *944:C 0.000100074
44 *85:22 *944:B 4.50762e-05
45 *85:22 *106:58 7.74135e-05
46 *85:22 *107:34 1.03904e-05
47 *85:30 *938:B1 1.98839e-05
48 *85:30 *969:RESET_B 5.32819e-05
49 *85:30 *106:10 2.38501e-05
50 *85:30 *106:43 0.000388549
51 *85:59 *944:B 7.9951e-05
52 *85:59 *945:B 7.48356e-05
53 *85:59 *108:29 0.000133999
54 *85:70 *108:25 6.10115e-05
55 *85:70 *108:29 6.74651e-05
56 *85:83 *943:A1 3.87671e-05
57 *85:83 *108:25 4.49141e-05
58 *85:92 *943:A1 4.4545e-05
59 *85:92 *972:RESET_B 2.48941e-05
60 *85:92 *108:6 0.000128032
61 *85:99 *975:RESET_B 0.000120295
62 *938:A3 *85:30 0.000226067
63 *941:B *85:30 0.000185118
64 *945:C *85:22 5.90911e-05
65 *945:C *85:59 0.000189288
66 *946:A *973:CLK 5.23822e-05
67 *970:D *85:30 3.76309e-05
68 *971:D *85:22 2.53112e-06
69 *972:D *972:CLK 7.8195e-05
70 *975:D *976:CLK 2.81946e-05
71 *977:D *978:CLK 0.000209035
72 *73:60 *85:22 3.14003e-05
73 *73:71 *85:22 0.000121897
74 *77:24 *85:59 0.000144037
75 *77:24 *85:70 6.4934e-05
*RES
1 *989:X *85:10 19.9429 
2 *85:10 *85:14 7.125 
3 *85:14 *85:18 8.73214 
4 *85:18 *85:22 7.05357 
5 *85:22 *85:30 22.7321 
6 *85:30 *965:CLK 23.4607 
7 *85:30 *970:CLK 14.5321 
8 *85:22 *971:CLK 9.3 
9 *85:18 *85:59 7.41071 
10 *85:59 *969:CLK 17.6214 
11 *85:59 *85:70 4.98214 
12 *85:70 *973:CLK 14.7464 
13 *85:70 *85:83 7.35714 
14 *85:83 *972:CLK 12.3 
15 *85:83 *85:92 11.625 
16 *85:92 *974:CLK 9.3 
17 *85:92 *85:99 8.75 
18 *85:99 *976:CLK 25.0857 
19 *85:99 *975:CLK 9.3 
20 *85:14 *990:A 9.3 
21 *85:10 *85:124 0.946429 
22 *85:124 *977:CLK 9.3 
23 *85:124 *978:CLK 22.1571 
*END

*D_NET *86 0.0149755
*CONN
*I *983:RESET_B I *D sky130_fd_sc_hd__dfrtp_2
*I *984:RESET_B I *D sky130_fd_sc_hd__dfrtp_2
*I *986:SET_B I *D sky130_fd_sc_hd__dfstp_2
*I *969:RESET_B I *D sky130_fd_sc_hd__dfrtp_2
*I *985:RESET_B I *D sky130_fd_sc_hd__dfrtp_2
*I *970:RESET_B I *D sky130_fd_sc_hd__dfrtp_2
*I *965:RESET_B I *D sky130_fd_sc_hd__dfrtp_2
*I *982:SET_B I *D sky130_fd_sc_hd__dfstp_2
*I *993:A I *D sky130_fd_sc_hd__buf_4
*I *966:RESET_B I *D sky130_fd_sc_hd__dfrtp_2
*I *967:RESET_B I *D sky130_fd_sc_hd__dfrtp_2
*I *963:RESET_B I *D sky130_fd_sc_hd__dfrtp_2
*I *964:RESET_B I *D sky130_fd_sc_hd__dfrtp_2
*I *992:X O *D sky130_fd_sc_hd__buf_1
*CAP
1 *983:RESET_B 0.000233956
2 *984:RESET_B 3.05892e-05
3 *986:SET_B 9.58915e-05
4 *969:RESET_B 0.000382495
5 *985:RESET_B 0.000837127
6 *970:RESET_B 0.000572278
7 *965:RESET_B 7.50357e-05
8 *982:SET_B 0.000640189
9 *993:A 2.8431e-05
10 *966:RESET_B 0.000312226
11 *967:RESET_B 0.000117879
12 *963:RESET_B 0.00106367
13 *964:RESET_B 0.000522029
14 *992:X 0.000350563
15 *86:140 0.000285077
16 *86:138 0.00103624
17 *86:88 0.000492483
18 *86:46 0.000985824
19 *86:35 0.00099071
20 *86:21 0.000788385
21 *966:RESET_B *102:8 6.05161e-06
22 *969:RESET_B *935:B1 0.000148383
23 *969:RESET_B *105:10 5.57727e-05
24 *969:RESET_B *105:12 0.000142193
25 *969:RESET_B *106:10 5.33005e-05
26 *969:RESET_B *106:12 3.14003e-05
27 *970:RESET_B *903:C 0
28 *982:SET_B *93:8 0.000137018
29 *983:RESET_B *898:A 5.60143e-05
30 *984:RESET_B *111:6 1.12166e-05
31 *985:RESET_B *909:A1 4.90023e-05
32 *985:RESET_B *112:14 0.000194664
33 *993:A *102:8 4.97967e-05
34 *86:46 *924:B 0.000179504
35 *86:46 *100:10 0
36 *86:46 *101:27 0.00010904
37 *86:46 *102:14 0.000112054
38 *86:88 *903:A 0
39 *86:88 *903:B 6.30023e-05
40 *86:88 *903:C 0
41 *86:88 *101:27 4.49587e-05
42 *86:138 *112:8 0.000180486
43 *86:140 *898:A 4.76868e-05
44 *911:A1 *983:RESET_B 7.21891e-05
45 *913:A1 *982:SET_B 0.000664806
46 *913:A2 *982:SET_B 0.000155672
47 *913:A2 *985:RESET_B 5.5764e-05
48 *930:C *86:46 0.000152068
49 *934:B *969:RESET_B 0.000223693
50 *937:A *970:RESET_B 0.000258176
51 *937:C *970:RESET_B 0.000173159
52 *964:CLK *86:21 3.02581e-06
53 *965:CLK *965:RESET_B 0.000223174
54 *965:CLK *970:RESET_B 0
55 *965:D *86:88 0.000177948
56 *966:CLK *966:RESET_B 7.06028e-05
57 *966:CLK *993:A 4.37451e-05
58 *967:CLK *964:RESET_B 7.76132e-05
59 *982:CLK *982:SET_B 5.94205e-05
60 *982:D *982:SET_B 9.58181e-05
61 *986:D *985:RESET_B 4.0698e-05
62 *3:12 *969:RESET_B 0
63 *69:23 *86:46 0
64 *73:35 *969:RESET_B 7.26481e-05
65 *84:31 *963:RESET_B 0.000153647
66 *84:31 *982:SET_B 6.7921e-05
67 *84:33 *963:RESET_B 0.000187995
68 *84:33 *86:21 0.000182891
69 *84:69 *86:138 0.000196946
70 *85:30 *969:RESET_B 5.32819e-05
*RES
1 *992:X *964:RESET_B 23.8357 
2 *964:RESET_B *86:21 3.34821 
3 *86:21 *963:RESET_B 9.25893 
4 *86:21 *86:35 4.5 
5 *86:35 *967:RESET_B 6.14286 
6 *86:35 *86:46 22.2321 
7 *86:46 *966:RESET_B 1.70536 
8 *86:46 *993:A 10.2464 
9 *963:RESET_B *982:SET_B 20.2143 
10 *966:RESET_B *86:88 10.1429 
11 *86:88 *965:RESET_B 6.61607 
12 *86:88 *970:RESET_B 9.48214 
13 *982:SET_B *985:RESET_B 13.9821 
14 *970:RESET_B *969:RESET_B 20.1339 
15 *985:RESET_B *86:138 16.8839 
16 *86:138 *86:140 3.16071 
17 *86:140 *986:SET_B 6.14286 
18 *86:140 *984:RESET_B 4.97321 
19 *86:138 *983:RESET_B 9.78571 
*END

*D_NET *87 0.000995272
*CONN
*I *962:B1 I *D sky130_fd_sc_hd__a21o_2
*I *991:X O *D sky130_fd_sc_hd__dlygate4sd3_1
*CAP
1 *962:B1 0.000489822
2 *991:X 0.000489822
3 *962:B1 *91:12 5.37741e-06
4 *980:CLK *962:B1 1.02504e-05
*RES
1 *991:X *962:B1 33.7786 
*END

*D_NET *88 0.000670334
*CONN
*I *994:A I *D sky130_fd_sc_hd__clkdlybuf4s25_1
*I *986:Q O *D sky130_fd_sc_hd__dfstp_2
*CAP
1 *994:A 0.000335167
2 *986:Q 0.000335167
3 led[3] *994:A 0
*RES
1 *986:Q *994:A 32.1357 
*END

*D_NET *89 0.0169701
*CONN
*I *975:RESET_B I *D sky130_fd_sc_hd__dfrtp_2
*I *978:RESET_B I *D sky130_fd_sc_hd__dfrtp_2
*I *980:RESET_B I *D sky130_fd_sc_hd__dfrtp_2
*I *981:RESET_B I *D sky130_fd_sc_hd__dfrtp_2
*I *976:RESET_B I *D sky130_fd_sc_hd__dfrtp_2
*I *974:RESET_B I *D sky130_fd_sc_hd__dfrtp_2
*I *972:RESET_B I *D sky130_fd_sc_hd__dfrtp_2
*I *977:RESET_B I *D sky130_fd_sc_hd__dfrtp_2
*I *979:RESET_B I *D sky130_fd_sc_hd__dfrtp_2
*I *973:RESET_B I *D sky130_fd_sc_hd__dfrtp_2
*I *971:RESET_B I *D sky130_fd_sc_hd__dfrtp_2
*I *968:RESET_B I *D sky130_fd_sc_hd__dfrtp_2
*I *993:X O *D sky130_fd_sc_hd__buf_4
*CAP
1 *975:RESET_B 0.00035144
2 *978:RESET_B 6.38597e-05
3 *980:RESET_B 0
4 *981:RESET_B 9.52238e-05
5 *976:RESET_B 0.000454198
6 *974:RESET_B 0.000447312
7 *972:RESET_B 0.000118741
8 *977:RESET_B 0.000939474
9 *979:RESET_B 0.000478622
10 *973:RESET_B 0.00153838
11 *971:RESET_B 0.000656633
12 *968:RESET_B 0.00106162
13 *993:X 0.000429611
14 *89:135 0.000551099
15 *89:133 0.00131543
16 *89:98 0.00109813
17 *89:63 0.00100203
18 *89:40 0.00127584
19 *971:RESET_B *896:A 0.00022188
20 *971:RESET_B *901:A 0.000222024
21 *971:RESET_B *901:D_N 1.12669e-05
22 *971:RESET_B *107:8 1.99271e-05
23 *972:RESET_B *108:6 4.83849e-05
24 *975:RESET_B *96:10 9.18201e-05
25 *976:RESET_B *950:A 0.000155674
26 *976:RESET_B *97:10 8.74556e-05
27 *981:RESET_B *991:A 0
28 *89:63 *901:C 3.71887e-05
29 *89:98 *943:B1 0.000136772
30 *89:98 *950:A 5.4959e-05
31 *89:98 *94:10 1.24897e-05
32 *89:133 *902:D 5.33005e-05
33 *89:133 *956:A1 7.74068e-05
34 *89:135 *991:A 0
35 *905:B *89:63 0.00044325
36 *905:B *89:133 2.09722e-05
37 *921:B *968:RESET_B 6.99712e-05
38 *933:C1 *968:RESET_B 0.000248746
39 *949:B *89:98 5.2254e-05
40 *950:B *89:98 0.000123932
41 *956:B1_N *89:133 0.000269431
42 *957:B *89:133 0.000182676
43 *960:A *979:RESET_B 0.000174843
44 *966:CLK *968:RESET_B 0.000445743
45 *975:D *976:RESET_B 0.000226073
46 *976:CLK *976:RESET_B 0.000443023
47 *977:D *89:133 4.83849e-05
48 *978:CLK *89:133 5.71795e-05
49 *978:D *978:RESET_B 9.96553e-05
50 *978:D *89:135 3.2923e-05
51 *980:D *981:RESET_B 0
52 *54:16 *971:RESET_B 0.000203997
53 *54:16 *89:40 2.72654e-05
54 *54:16 *89:63 0.000373725
55 *56:14 *979:RESET_B 0
56 *56:14 *89:63 6.12668e-05
57 *73:25 *971:RESET_B 0.000111353
58 *81:10 *973:RESET_B 0
59 *83:17 *971:RESET_B 0
60 *83:17 *973:RESET_B 0
61 *83:31 *971:RESET_B 0
62 *85:92 *972:RESET_B 2.48941e-05
63 *85:99 *975:RESET_B 0.000120295
*RES
1 *993:X *968:RESET_B 28.675 
2 *968:RESET_B *971:RESET_B 23.8304 
3 *971:RESET_B *89:40 0.473214 
4 *89:40 *973:RESET_B 24.2321 
5 *89:40 *89:63 22.5893 
6 *89:63 *979:RESET_B 13.7321 
7 *89:63 *977:RESET_B 7.05357 
8 *973:RESET_B *972:RESET_B 11.1161 
9 *973:RESET_B *89:98 9.91964 
10 *89:98 *974:RESET_B 10.6429 
11 *89:98 *976:RESET_B 10.3304 
12 *977:RESET_B *89:133 24.7232 
13 *89:133 *89:135 8.625 
14 *89:135 *981:RESET_B 6.14286 
15 *89:135 *980:RESET_B 4.5 
16 *89:133 *978:RESET_B 5.83929 
17 *974:RESET_B *975:RESET_B 6.44643 
*END

*D_NET *90 0.00177269
*CONN
*I *907:B I *D sky130_fd_sc_hd__nand3_2
*I *959:B I *D sky130_fd_sc_hd__and4_2
*I *958:B1 I *D sky130_fd_sc_hd__a21oi_2
*I *979:Q O *D sky130_fd_sc_hd__dfrtp_2
*CAP
1 *907:B 0.000198482
2 *959:B 5.04715e-05
3 *958:B1 0.000185589
4 *979:Q 0
5 *90:8 0.000353051
6 *90:4 0.000315472
7 *907:B *907:C 5.95406e-05
8 *959:B *959:A 5.33005e-05
9 *959:C *959:B 9.00671e-05
10 *960:A *958:B1 3.51971e-05
11 *960:A *90:8 6.21613e-05
12 *961:B *959:B 0.000226274
13 *84:153 *907:B 0.000143085
*RES
1 *979:Q *90:4 9.3 
2 *90:4 *90:8 7.05357 
3 *90:8 *958:B1 16.9964 
4 *90:8 *959:B 15.9786 
5 *90:4 *907:B 13.9607 
*END

*D_NET *91 0.00265836
*CONN
*I *962:A1 I *D sky130_fd_sc_hd__a21o_2
*I *907:A I *D sky130_fd_sc_hd__nand3_2
*I *961:A I *D sky130_fd_sc_hd__xor2_2
*I *980:Q O *D sky130_fd_sc_hd__dfrtp_2
*CAP
1 *962:A1 0
2 *907:A 2.04425e-05
3 *961:A 0.000213051
4 *980:Q 0.000631115
5 *91:12 0.00034892
6 *91:8 0.000746541
7 *907:A *907:C 5.33005e-05
8 *961:B *961:A 5.49489e-05
9 *962:A2 *961:A 5.1829e-05
10 *962:A2 *91:8 2.59355e-05
11 *962:A2 *91:12 0.000146071
12 *962:B1 *91:12 5.37741e-06
13 *980:CLK *91:8 0.000141734
14 *980:CLK *91:12 4.17661e-06
15 *980:D *91:8 2.84026e-05
16 *981:D *91:8 1.21258e-05
17 *57:10 *961:A 0.000148449
18 *84:153 *907:A 2.59355e-05
*RES
1 *980:Q *91:8 20.1214 
2 *91:8 *91:12 6.75 
3 *91:12 *961:A 17.8536 
4 *91:12 *907:A 14.3357 
5 *91:8 *962:A1 9.3 
*END

*D_NET *92 0.0022044
*CONN
*I *991:A I *D sky130_fd_sc_hd__dlygate4sd3_1
*I *907:C I *D sky130_fd_sc_hd__nand3_2
*I *981:Q O *D sky130_fd_sc_hd__dfrtp_2
*CAP
1 *991:A 0.000282458
2 *907:C 0.000531934
3 *981:Q 7.77772e-05
4 *92:6 0.000892169
5 *907:A *907:C 5.33005e-05
6 *907:B *907:C 5.95406e-05
7 *981:D *907:C 9.83971e-05
8 *981:RESET_B *991:A 0
9 *57:10 *907:C 4.58194e-05
10 *84:153 *907:C 0.000163004
11 *89:135 *991:A 0
*RES
1 *981:Q *92:6 10.6571 
2 *92:6 *907:C 20.1571 
3 *92:6 *991:A 23.2821 
*END

*D_NET *93 0.0032789
*CONN
*I *904:D I *D sky130_fd_sc_hd__and4b_2
*I *931:A I *D sky130_fd_sc_hd__and4_2
*I *915:A I *D sky130_fd_sc_hd__and3_2
*I *916:B1 I *D sky130_fd_sc_hd__a21oi_2
*I *963:Q O *D sky130_fd_sc_hd__dfrtp_2
*CAP
1 *904:D 0.000191973
2 *931:A 0
3 *915:A 2.38521e-05
4 *916:B1 0.000204901
5 *963:Q 0.000256338
6 *93:36 0.000398989
7 *93:21 0.000377857
8 *93:8 0.000608228
9 *904:D *904:A_N 4.87953e-05
10 *904:D *904:C 6.4443e-05
11 *93:36 *904:A_N 2.59355e-05
12 *915:B *915:A 1.07719e-05
13 *915:C *915:A 5.33005e-05
14 *916:A1 *916:B1 0.000156857
15 *916:A1 *93:21 0.000195856
16 *916:A2 *916:B1 2.16573e-05
17 *917:B *916:B1 2.07878e-05
18 *932:C *93:36 0.000213397
19 *982:SET_B *93:8 0.000137018
20 *51:12 *93:21 9.56079e-05
21 *51:12 *93:36 9.96553e-05
22 *84:31 *93:8 7.26775e-05
*RES
1 *963:Q *93:8 17.2107 
2 *93:8 *916:B1 17.925 
3 *93:8 *93:21 3.76786 
4 *93:21 *915:A 14.3357 
5 *93:21 *93:36 9.10714 
6 *93:36 *931:A 9.3 
7 *93:36 *904:D 12.7286 
*END

*D_NET *94 0.0055182
*CONN
*I *943:B1 I *D sky130_fd_sc_hd__a21oi_2
*I *944:C I *D sky130_fd_sc_hd__and3_2
*I *901:C I *D sky130_fd_sc_hd__or4b_2
*I *973:Q O *D sky130_fd_sc_hd__dfrtp_2
*CAP
1 *943:B1 0.00082417
2 *944:C 0.000481016
3 *901:C 0.000191826
4 *973:Q 0.00142265
5 *94:10 0.00127132
6 *901:C *901:B 5.61499e-05
7 *94:10 *901:B 0.000209886
8 *94:10 *95:31 0.000209769
9 *946:A *943:B1 1.82051e-05
10 *973:CLK *943:B1 3.4689e-05
11 *973:D *943:B1 1.84776e-05
12 *55:14 *901:C 0.000216336
13 *85:14 *944:C 0.000277178
14 *85:18 *944:C 0.000100074
15 *89:63 *901:C 3.71887e-05
16 *89:98 *943:B1 0.000136772
17 *89:98 *94:10 1.24897e-05
*RES
1 *973:Q *94:10 26.6036 
2 *94:10 *901:C 18.175 
3 *94:10 *944:C 20.4964 
4 *973:Q *943:B1 28.9036 
*END

*D_NET *95 0.00719739
*CONN
*I *951:A1 I *D sky130_fd_sc_hd__a31oi_2
*I *948:A I *D sky130_fd_sc_hd__nand2_2
*I *953:A I *D sky130_fd_sc_hd__and4_2
*I *955:A I *D sky130_fd_sc_hd__and4_2
*I *901:B I *D sky130_fd_sc_hd__or4b_2
*I *947:A I *D sky130_fd_sc_hd__nor2_2
*I *974:Q O *D sky130_fd_sc_hd__dfrtp_2
*CAP
1 *951:A1 9.75472e-05
2 *948:A 0
3 *953:A 0.000183003
4 *955:A 7.18729e-05
5 *901:B 0.000496155
6 *947:A 4.17008e-05
7 *974:Q 0.000219558
8 *95:46 0.00083494
9 *95:31 0.00130952
10 *95:20 0.000383936
11 *95:14 0.000403631
12 *95:10 0.000611806
13 *951:A1 *951:A2 5.65955e-05
14 *953:A *953:B 9.99853e-05
15 *953:A *953:C 0.000143375
16 *901:C *901:B 5.61499e-05
17 *905:A *901:B 0.000162558
18 *953:D *953:A 9.83442e-05
19 *954:B *951:A1 0.000158532
20 *956:A2 *955:A 8.82933e-05
21 *976:CLK *95:10 6.05139e-05
22 *43:8 *953:A 8.25843e-06
23 *55:14 *901:B 0.000143967
24 *81:21 *95:14 0
25 *81:27 *95:14 4.5763e-05
26 *81:27 *95:20 0.000230155
27 *81:34 *951:A1 4.17702e-05
28 *81:34 *95:14 0.000665245
29 *85:10 *901:B 6.45537e-05
30 *94:10 *901:B 0.000209886
31 *94:10 *95:31 0.000209769
*RES
1 *974:Q *95:10 22.3714 
2 *95:10 *95:14 7.53571 
3 *95:14 *95:20 7.21429 
4 *95:20 *947:A 14.3357 
5 *95:20 *95:31 5.28571 
6 *95:31 *901:B 24.1929 
7 *95:31 *95:46 13.25 
8 *95:46 *955:A 19.9429 
9 *95:46 *953:A 13.1214 
10 *95:14 *948:A 9.3 
11 *95:10 *951:A1 12.0321 
*END

*D_NET *96 0.00515892
*CONN
*I *950:A I *D sky130_fd_sc_hd__xnor2_2
*I *951:A2 I *D sky130_fd_sc_hd__a31oi_2
*I *953:C I *D sky130_fd_sc_hd__and4_2
*I *952:B I *D sky130_fd_sc_hd__and2_2
*I *902:B I *D sky130_fd_sc_hd__or4_2
*I *975:Q O *D sky130_fd_sc_hd__dfrtp_2
*CAP
1 *950:A 0.000284708
2 *951:A2 7.76932e-05
3 *953:C 0.000123961
4 *952:B 0.000103029
5 *902:B 4.89429e-05
6 *975:Q 0.000574494
7 *96:16 0.000228155
8 *96:14 0.000434964
9 *96:12 0.000415408
10 *96:10 0.000962098
11 *902:B *902:A 0.000128154
12 *902:B *955:B 0
13 *952:B *952:A 5.75417e-05
14 *953:C *953:B 2.12005e-05
15 *96:12 *97:10 6.4474e-05
16 *96:14 *97:10 1.12578e-05
17 *96:14 *97:14 0.000381879
18 *96:14 *97:16 5.66157e-05
19 *96:16 *902:A 5.59013e-05
20 *96:16 *955:B 0
21 *96:16 *97:16 9.30022e-05
22 *951:A1 *951:A2 5.65955e-05
23 *953:A *953:C 0.000143375
24 *954:B *951:A2 6.8529e-05
25 *955:C *96:14 0
26 *955:C *96:16 0
27 *955:D *952:B 9.58181e-05
28 *956:A2 *96:16 0
29 *975:D *96:10 1.9774e-05
30 *975:RESET_B *96:10 9.18201e-05
31 *976:CLK *950:A 0.000271898
32 *976:RESET_B *950:A 0.000155674
33 *44:12 *902:B 7.6997e-05
34 *81:38 *96:14 0
35 *89:98 *950:A 5.4959e-05
*RES
1 *975:Q *96:10 21.2107 
2 *96:10 *96:12 2.25 
3 *96:12 *96:14 5.89286 
4 *96:14 *96:16 1.94643 
5 *96:16 *902:B 15.4429 
6 *96:16 *952:B 15.9964 
7 *96:14 *953:C 15.5679 
8 *96:12 *951:A2 15.5679 
9 *96:10 *950:A 20.5143 
*END

*D_NET *97 0.00490908
*CONN
*I *951:B1 I *D sky130_fd_sc_hd__a31oi_2
*I *953:B I *D sky130_fd_sc_hd__and4_2
*I *952:A I *D sky130_fd_sc_hd__and2_2
*I *902:A I *D sky130_fd_sc_hd__or4_2
*I *976:Q O *D sky130_fd_sc_hd__dfrtp_2
*CAP
1 *951:B1 0
2 *953:B 8.75835e-05
3 *952:A 0.00011572
4 *902:A 0.000413885
5 *976:Q 0.000808542
6 *97:16 0.000612485
7 *97:14 0.000392541
8 *97:10 0.00103062
9 *902:A *902:D 0.000135028
10 *902:A *957:A 5.36422e-05
11 *902:A *99:10 2.22503e-05
12 *902:B *902:A 0.000128154
13 *905:B *902:A 5.37741e-06
14 *952:B *952:A 5.75417e-05
15 *953:A *953:B 9.99853e-05
16 *953:C *953:B 2.12005e-05
17 *955:D *952:A 5.49544e-05
18 *976:CLK *97:10 3.42509e-05
19 *976:RESET_B *97:10 8.74556e-05
20 *44:12 *902:A 8.47329e-05
21 *96:12 *97:10 6.4474e-05
22 *96:14 *97:10 1.12578e-05
23 *96:14 *97:14 0.000381879
24 *96:14 *97:16 5.66157e-05
25 *96:16 *902:A 5.59013e-05
26 *96:16 *97:16 9.30022e-05
*RES
1 *976:Q *97:10 24.4964 
2 *97:10 *97:14 5.51786 
3 *97:14 *97:16 1.94643 
4 *97:16 *902:A 29.6036 
5 *97:16 *952:A 15.9964 
6 *97:14 *953:B 15.5679 
7 *97:10 *951:B1 13.8 
*END

*D_NET *98 0.00189359
*CONN
*I *955:B I *D sky130_fd_sc_hd__and4_2
*I *902:D I *D sky130_fd_sc_hd__or4_2
*I *956:A1 I *D sky130_fd_sc_hd__o21ba_2
*I *977:Q O *D sky130_fd_sc_hd__dfrtp_2
*CAP
1 *955:B 7.11075e-05
2 *902:D 0.000162254
3 *956:A1 0.000123164
4 *977:Q 0
5 *98:8 0.000334625
6 *98:6 0.000120315
7 *902:D *902:C 5.33005e-05
8 *902:D *99:10 4.08637e-05
9 *902:A *902:D 0.000135028
10 *902:B *955:B 0
11 *905:B *956:A1 7.71403e-05
12 *956:A2 *955:B 0.000144512
13 *956:A2 *956:A1 0.000199737
14 *956:A2 *98:8 9.51563e-05
15 *956:B1_N *956:A1 4.73945e-05
16 *978:CLK *902:D 0.000158288
17 *44:12 *955:B 0
18 *44:12 *98:8 0
19 *89:133 *902:D 5.33005e-05
20 *89:133 *956:A1 7.74068e-05
21 *96:16 *955:B 0
*RES
1 *977:Q *98:6 13.8 
2 *98:6 *98:8 1.33929 
3 *98:8 *956:A1 17.4071 
4 *98:8 *902:D 17.6214 
5 *98:6 *955:B 15.7464 
*END

*D_NET *99 0.00254389
*CONN
*I *957:A I *D sky130_fd_sc_hd__xor2_2
*I *902:C I *D sky130_fd_sc_hd__or4_2
*I *978:Q O *D sky130_fd_sc_hd__dfrtp_2
*CAP
1 *957:A 0.000141561
2 *902:C 1.69531e-05
3 *978:Q 0.000742688
4 *99:10 0.000901202
5 *902:A *957:A 5.36422e-05
6 *902:A *99:10 2.22503e-05
7 *902:D *902:C 5.33005e-05
8 *902:D *99:10 4.08637e-05
9 *957:B *957:A 9.84229e-05
10 *978:CLK *902:C 5.33005e-05
11 *978:CLK *99:10 0.000182598
12 *978:D *99:10 9.52437e-05
13 *44:12 *957:A 0.000141863
*RES
1 *978:Q *99:10 19.7286 
2 *99:10 *902:C 9.83571 
3 *99:10 *957:A 21.4964 
*END

*D_NET *100 0.00602291
*CONN
*I *924:A I *D sky130_fd_sc_hd__and3_2
*I *919:A I *D sky130_fd_sc_hd__or2_2
*I *918:A I *D sky130_fd_sc_hd__nand2_2
*I *904:A_N I *D sky130_fd_sc_hd__and4b_2
*I *931:B I *D sky130_fd_sc_hd__and4_2
*I *964:Q O *D sky130_fd_sc_hd__dfrtp_2
*CAP
1 *924:A 0.000126706
2 *919:A 0
3 *918:A 0.000208468
4 *904:A_N 5.81709e-05
5 *931:B 0
6 *964:Q 0.00035375
7 *100:38 0.000394224
8 *100:36 0.000714312
9 *100:16 0.000531394
10 *100:10 0.00122882
11 *904:A_N *904:C 0.000182419
12 *100:16 *904:C 4.55108e-05
13 *100:16 *103:19 0.000620715
14 *904:D *904:A_N 4.87953e-05
15 *918:B *918:A 0
16 *923:A *918:A 5.65955e-05
17 *923:B *918:A 0.000138522
18 *923:C *918:A 4.73286e-05
19 *924:C *100:10 6.66076e-05
20 *924:C *100:36 3.67452e-05
21 *928:A2 *100:16 9.90431e-05
22 *928:A2 *100:36 7.32272e-05
23 *928:B1 *100:16 4.14279e-05
24 *929:B *100:16 9.90431e-05
25 *930:B *100:10 7.83587e-05
26 *933:A2 *100:16 1.02821e-05
27 *967:D *100:10 0.000264841
28 *48:6 *100:16 0.000314139
29 *61:23 *100:10 9.95963e-05
30 *63:20 *100:38 0
31 *63:29 *924:A 0
32 *63:29 *100:38 0
33 *69:23 *100:36 2.94103e-05
34 *84:33 *100:10 2.85234e-05
35 *86:46 *100:10 0
36 *93:36 *904:A_N 2.59355e-05
*RES
1 *964:Q *100:10 20.8357 
2 *100:10 *100:16 16.5536 
3 *100:16 *931:B 9.3 
4 *100:16 *904:A_N 11.0679 
5 *100:10 *100:36 14.2679 
6 *100:36 *100:38 3.46429 
7 *100:38 *918:A 18.4964 
8 *100:38 *919:A 13.8 
9 *100:36 *924:A 15.675 
*END

*D_NET *101 0.0044472
*CONN
*I *903:B I *D sky130_fd_sc_hd__or4b_2
*I *926:B I *D sky130_fd_sc_hd__nand2_2
*I *924:B I *D sky130_fd_sc_hd__and3_2
*I *925:A I *D sky130_fd_sc_hd__xnor2_2
*I *965:Q O *D sky130_fd_sc_hd__dfrtp_2
*CAP
1 *903:B 0.000216219
2 *926:B 0
3 *924:B 0.000391925
4 *925:A 8.71188e-05
5 *965:Q 0.000318272
6 *101:27 0.000604245
7 *101:25 0.000795064
8 *101:12 0.000771916
9 *903:B *903:A 0
10 *903:B *903:D_N 4.0342e-06
11 *101:27 *903:A 0
12 *101:27 *102:14 0
13 *924:C *924:B 5.26134e-05
14 *925:B *101:25 0.000315987
15 *927:A2 *924:B 9.75173e-05
16 *932:A_N *924:B 9.84729e-05
17 *965:D *101:25 9.61553e-05
18 *69:19 *924:B 0.000179504
19 *69:19 *101:27 2.16482e-05
20 *86:46 *924:B 0.000179504
21 *86:46 *101:27 0.00010904
22 *86:88 *903:B 6.30023e-05
23 *86:88 *101:27 4.49587e-05
*RES
1 *965:Q *101:12 22.3179 
2 *101:12 *925:A 10.675 
3 *101:12 *101:25 11.1964 
4 *101:25 *101:27 4.67857 
5 *101:27 *924:B 23.2464 
6 *101:27 *926:B 13.8 
7 *101:25 *903:B 17.4071 
*END

*D_NET *102 0.00192827
*CONN
*I *903:A I *D sky130_fd_sc_hd__or4b_2
*I *927:A1 I *D sky130_fd_sc_hd__o22a_2
*I *926:A I *D sky130_fd_sc_hd__nand2_2
*I *966:Q O *D sky130_fd_sc_hd__dfrtp_2
*CAP
1 *903:A 0.000247079
2 *927:A1 0.00019192
3 *926:A 0
4 *966:Q 7.6147e-05
5 *102:14 0.000398736
6 *102:8 0.000530042
7 *903:A *903:C 4.1331e-06
8 *903:B *903:A 0
9 *927:B1 *927:A1 0.000185403
10 *966:RESET_B *102:8 6.05161e-06
11 *993:A *102:8 4.97967e-05
12 *69:6 *927:A1 0.000126907
13 *86:46 *102:14 0.000112054
14 *86:88 *903:A 0
15 *101:27 *903:A 0
16 *101:27 *102:14 0
*RES
1 *966:Q *102:8 14.7464 
2 *102:8 *102:14 8.5 
3 *102:14 *926:A 9.3 
4 *102:14 *927:A1 13.55 
5 *102:8 *903:A 18.175 
*END

*D_NET *103 0.00351634
*CONN
*I *904:C I *D sky130_fd_sc_hd__and4b_2
*I *931:D I *D sky130_fd_sc_hd__and4_2
*I *897:A I *D sky130_fd_sc_hd__inv_2
*I *967:Q O *D sky130_fd_sc_hd__dfrtp_2
*CAP
1 *904:C 0.000134665
2 *931:D 0
3 *897:A 0
4 *967:Q 0.000733793
5 *103:19 0.000265368
6 *103:12 0.000864496
7 *904:C *931:C 0.000354305
8 *904:A_N *904:C 0.000182419
9 *904:D *904:C 6.4443e-05
10 *930:C *103:12 0
11 *932:B *103:19 3.08664e-05
12 *933:A2 *103:19 0.000219762
13 *100:16 *904:C 4.55108e-05
14 *100:16 *103:19 0.000620715
*RES
1 *967:Q *103:12 29.7107 
2 *103:12 *897:A 9.3 
3 *103:12 *103:19 5.875 
4 *103:19 *931:D 9.3 
5 *103:19 *904:C 13.9607 
*END

*D_NET *104 0.0029938
*CONN
*I *896:A I *D sky130_fd_sc_hd__inv_2
*I *904:B I *D sky130_fd_sc_hd__and4b_2
*I *931:C I *D sky130_fd_sc_hd__and4_2
*I *968:Q O *D sky130_fd_sc_hd__dfrtp_2
*CAP
1 *896:A 0.000129376
2 *904:B 0
3 *931:C 0.000245193
4 *968:Q 0.000158532
5 *104:12 0.000488189
6 *104:8 0.000530904
7 *904:C *931:C 0.000354305
8 *921:A *896:A 0.000226687
9 *921:A *104:12 0.000124019
10 *971:RESET_B *896:A 0.00022188
11 *65:12 *104:12 8.50484e-05
12 *67:18 *104:12 0.000291143
13 *67:50 *104:12 1.94945e-05
14 *73:25 *896:A 2.37944e-05
15 *73:25 *104:12 1.19409e-05
16 *84:112 *104:8 8.32964e-05
*RES
1 *968:Q *104:8 15.9786 
2 *104:8 *104:12 10.3929 
3 *104:12 *931:C 12.7107 
4 *104:12 *904:B 9.3 
5 *104:8 *896:A 17.8 
*END

*D_NET *105 0.0051346
*CONN
*I *944:A I *D sky130_fd_sc_hd__and3_2
*I *934:A I *D sky130_fd_sc_hd__xor2_2
*I *935:A1 I *D sky130_fd_sc_hd__a21o_2
*I *939:A I *D sky130_fd_sc_hd__and4_2
*I *938:A1 I *D sky130_fd_sc_hd__a31o_2
*I *936:A I *D sky130_fd_sc_hd__nand3_2
*I *903:C I *D sky130_fd_sc_hd__or4b_2
*I *969:Q O *D sky130_fd_sc_hd__dfrtp_2
*CAP
1 *944:A 2.36166e-05
2 *934:A 0
3 *935:A1 0
4 *939:A 0.000412363
5 *938:A1 0.000219447
6 *936:A 2.93866e-05
7 *903:C 0.00011061
8 *969:Q 0.000138344
9 *105:40 0.00114567
10 *105:36 0.000667116
11 *105:14 0.000346649
12 *105:12 0.000557092
13 *105:10 0.00035914
14 *903:C *903:D_N 7.69464e-05
15 *938:A1 *106:43 0.000191481
16 *938:A1 *106:58 5.18792e-05
17 *939:A *939:C 1.87331e-05
18 *939:A *944:B 4.84159e-05
19 *105:12 *935:B1 1.6815e-05
20 *105:14 *903:D_N 3.47641e-06
21 *105:14 *935:B1 5.89167e-05
22 *105:14 *106:12 0.000117719
23 *903:A *903:C 4.1331e-06
24 *937:A *105:14 0
25 *937:B *105:36 2.51343e-06
26 *937:C *936:A 1.84776e-05
27 *940:A *939:A 0.000109467
28 *941:C *939:A 1.47972e-05
29 *969:RESET_B *105:10 5.57727e-05
30 *969:RESET_B *105:12 0.000142193
31 *970:RESET_B *903:C 0
32 *3:12 *903:C 0
33 *85:18 *939:A 0.000136733
34 *85:18 *944:A 5.66971e-05
35 *86:88 *903:C 0
*RES
1 *969:Q *105:10 16.2821 
2 *105:10 *105:12 5.28571 
3 *105:12 *105:14 4.67857 
4 *105:14 *903:C 16.05 
5 *105:14 *936:A 14.3357 
6 *105:12 *105:36 6.26786 
7 *105:36 *105:40 6.30357 
8 *105:40 *938:A1 21.5143 
9 *105:40 *939:A 15.5143 
10 *105:36 *935:A1 9.3 
11 *105:10 *934:A 13.8 
12 *939:A *944:A 19.1357 
*END

*D_NET *106 0.0045876
*CONN
*I *944:B I *D sky130_fd_sc_hd__and3_2
*I *939:B I *D sky130_fd_sc_hd__and4_2
*I *938:A2 I *D sky130_fd_sc_hd__a31o_2
*I *935:B1 I *D sky130_fd_sc_hd__a21o_2
*I *936:B I *D sky130_fd_sc_hd__nand3_2
*I *903:D_N I *D sky130_fd_sc_hd__or4b_2
*I *970:Q O *D sky130_fd_sc_hd__dfrtp_2
*CAP
1 *944:B 0.000215719
2 *939:B 0
3 *938:A2 0
4 *935:B1 5.50892e-05
5 *936:B 0
6 *903:D_N 0.000247535
7 *970:Q 2.13113e-05
8 *106:58 0.00042592
9 *106:43 0.000530072
10 *106:12 0.000377205
11 *106:10 0.000238633
12 *106:6 0.000395055
13 *944:B *945:B 9.13198e-05
14 *944:B *107:34 3.2923e-05
15 *106:58 *938:B1 0.000138432
16 *106:58 *107:34 7.74135e-05
17 *903:B *903:D_N 4.0342e-06
18 *903:C *903:D_N 7.69464e-05
19 *938:A1 *106:43 0.000191481
20 *938:A1 *106:58 5.18792e-05
21 *938:A3 *106:43 6.13118e-05
22 *938:A3 *106:58 9.56386e-05
23 *939:A *944:B 4.84159e-05
24 *969:RESET_B *935:B1 0.000148383
25 *969:RESET_B *106:10 5.33005e-05
26 *969:RESET_B *106:12 3.14003e-05
27 *3:12 *903:D_N 0
28 *54:16 *903:D_N 4.93948e-05
29 *73:35 *903:D_N 2.83284e-06
30 *73:35 *106:12 6.96422e-05
31 *85:18 *944:B 4.4545e-05
32 *85:22 *944:B 4.50762e-05
33 *85:22 *106:58 7.74135e-05
34 *85:30 *106:10 2.38501e-05
35 *85:30 *106:43 0.000388549
36 *85:59 *944:B 7.9951e-05
37 *105:12 *935:B1 1.6815e-05
38 *105:14 *903:D_N 3.47641e-06
39 *105:14 *935:B1 5.89167e-05
40 *105:14 *106:12 0.000117719
*RES
1 *970:Q *106:6 9.72857 
2 *106:6 *106:10 5.44643 
3 *106:10 *106:12 3.16071 
4 *106:12 *903:D_N 18.3536 
5 *106:12 *936:B 13.8 
6 *106:10 *935:B1 15.7464 
7 *106:6 *106:43 7.5625 
8 *106:43 *938:A2 9.3 
9 *106:43 *106:58 8.63393 
10 *106:58 *939:B 13.8 
11 *106:58 *944:B 17.6214 
*END

*D_NET *107 0.00436999
*CONN
*I *945:B I *D sky130_fd_sc_hd__and4_2
*I *939:C I *D sky130_fd_sc_hd__and4_2
*I *938:B1 I *D sky130_fd_sc_hd__a31o_2
*I *901:D_N I *D sky130_fd_sc_hd__or4b_2
*I *971:Q O *D sky130_fd_sc_hd__dfrtp_2
*CAP
1 *945:B 0.000156371
2 *939:C 7.41656e-05
3 *938:B1 7.52999e-05
4 *901:D_N 0.000267309
5 *971:Q 0.00048884
6 *107:34 0.000288537
7 *107:23 0.00021119
8 *107:8 0.000834039
9 *901:D_N *901:A 0.000566475
10 *945:B *901:A 5.81976e-05
11 *945:B *108:29 5.41794e-05
12 *107:23 *901:A 0.000106433
13 *107:34 *901:A 3.61917e-05
14 *938:A3 *938:B1 5.49995e-05
15 *939:A *939:C 1.87331e-05
16 *944:B *945:B 9.13198e-05
17 *944:B *107:34 3.2923e-05
18 *945:C *945:B 9.60939e-05
19 *971:D *901:D_N 7.74135e-05
20 *971:D *107:23 4.90023e-05
21 *971:RESET_B *901:D_N 1.12669e-05
22 *971:RESET_B *107:8 1.99271e-05
23 *54:16 *107:8 0.000259487
24 *73:25 *901:D_N 2.53112e-06
25 *73:60 *901:D_N 2.3942e-05
26 *85:18 *939:C 9.41642e-05
27 *85:22 *107:34 1.03904e-05
28 *85:30 *938:B1 1.98839e-05
29 *85:59 *945:B 7.48356e-05
30 *106:58 *938:B1 0.000138432
31 *106:58 *107:34 7.74135e-05
*RES
1 *971:Q *107:8 20.0857 
2 *107:8 *901:D_N 20.3893 
3 *107:8 *107:23 2.28571 
4 *107:23 *938:B1 15.5679 
5 *107:23 *107:34 1.64286 
6 *107:34 *939:C 15.175 
7 *107:34 *945:B 17.9071 
*END

*D_NET *108 0.0055521
*CONN
*I *942:A I *D sky130_fd_sc_hd__xor2_2
*I *901:A I *D sky130_fd_sc_hd__or4b_2
*I *945:A I *D sky130_fd_sc_hd__and4_2
*I *943:A1 I *D sky130_fd_sc_hd__a21oi_2
*I *972:Q O *D sky130_fd_sc_hd__dfrtp_2
*CAP
1 *942:A 0
2 *901:A 0.000578103
3 *945:A 3.11647e-05
4 *943:A1 0.000348257
5 *972:Q 0.000270611
6 *108:29 0.000938432
7 *108:25 0.000506264
8 *108:6 0.000795967
9 *901:D_N *901:A 0.000566475
10 *905:A *901:A 3.67252e-05
11 *943:A2 *943:A1 9.83388e-05
12 *945:B *901:A 5.81976e-05
13 *945:B *108:29 5.41794e-05
14 *945:C *901:A 9.71197e-05
15 *945:C *945:A 5.33005e-05
16 *945:D *901:A 3.34672e-05
17 *946:A *943:A1 4.93118e-06
18 *946:A *108:25 7.80092e-05
19 *946:A *108:29 5.54817e-06
20 *971:RESET_B *901:A 0.000222024
21 *972:CLK *943:A1 4.82354e-05
22 *972:RESET_B *108:6 4.83849e-05
23 *973:D *108:25 1.70057e-05
24 *81:10 *108:29 0
25 *83:17 *901:A 0
26 *85:59 *108:29 0.000133999
27 *85:70 *108:25 6.10115e-05
28 *85:70 *108:29 6.74651e-05
29 *85:83 *943:A1 3.87671e-05
30 *85:83 *108:25 4.49141e-05
31 *85:92 *943:A1 4.4545e-05
32 *85:92 *108:6 0.000128032
33 *107:23 *901:A 0.000106433
34 *107:34 *901:A 3.61917e-05
*RES
1 *972:Q *108:6 13.1214 
2 *108:6 *943:A1 23.8893 
3 *108:6 *108:25 8.875 
4 *108:25 *108:29 12.2143 
5 *108:29 *945:A 9.83571 
6 *108:29 *901:A 32.3536 
7 *108:25 *942:A 13.8 
*END

*D_NET *109 0.00291163
*CONN
*I *900:A I *D sky130_fd_sc_hd__inv_2
*I *920:A I *D sky130_fd_sc_hd__nor2_2
*I *912:B I *D sky130_fd_sc_hd__or2_2
*I *982:Q O *D sky130_fd_sc_hd__dfstp_2
*CAP
1 *900:A 0
2 *920:A 0.000285762
3 *912:B 0
4 *982:Q 0.00011073
5 *109:27 0.000753564
6 *109:10 0.000578533
7 *109:27 *909:A1 5.50052e-05
8 *109:27 *112:14 1.50223e-05
9 *909:B1_N *109:27 7.27604e-05
10 *920:B *920:A 5.49544e-05
11 *985:D *920:A 9.83442e-05
12 *985:D *109:27 8.67797e-05
13 *986:D *109:10 0.000179617
14 *55:14 *920:A 0.000147588
15 *56:37 *109:27 0.000309187
16 *56:74 *109:27 5.33005e-05
17 *84:10 *920:A 0.000110485
*RES
1 *982:Q *109:10 16.2821 
2 *109:10 *912:B 13.8 
3 *109:10 *109:27 14.2679 
4 *109:27 *920:A 24.8893 
5 *109:27 *900:A 9.3 
*END

*D_NET *110 0.00524699
*CONN
*I *910:B1 I *D sky130_fd_sc_hd__o21ai_2
*I *959:A I *D sky130_fd_sc_hd__and4_2
*I *958:A1 I *D sky130_fd_sc_hd__a21oi_2
*I *899:A I *D sky130_fd_sc_hd__inv_2
*I *914:B I *D sky130_fd_sc_hd__or3_2
*I *983:Q O *D sky130_fd_sc_hd__dfrtp_2
*CAP
1 *910:B1 0
2 *959:A 8.65226e-05
3 *958:A1 6.06019e-05
4 *899:A 3.26816e-05
5 *914:B 0.000225598
6 *983:Q 0.000705245
7 *110:44 0.000297201
8 *110:33 0.000640619
9 *110:18 0.00110874
10 *110:12 0.00113053
11 *110:12 *898:A 3.4846e-06
12 *911:A1 *110:12 7.65336e-06
13 *911:A2 *110:18 4.34677e-05
14 *911:B1 *110:12 3.42301e-05
15 *911:B1 *110:18 1.48543e-05
16 *959:B *959:A 5.33005e-05
17 *959:C *959:A 5.33005e-05
18 *959:D *959:A 3.90086e-05
19 *959:D *110:44 1.06172e-05
20 *960:A *959:A 9.96487e-05
21 *983:D *110:12 1.28239e-05
22 *56:31 *899:A 1.32293e-05
23 *56:31 *110:33 0
24 *56:33 *110:33 0
25 *56:74 *110:18 0.000573633
*RES
1 *983:Q *110:12 26.9429 
2 *110:12 *110:18 12.8571 
3 *110:18 *914:B 17.5679 
4 *110:18 *110:33 12.375 
5 *110:33 *899:A 9.83571 
6 *110:33 *110:44 7.35714 
7 *110:44 *958:A1 14.7464 
8 *110:44 *959:A 16.2821 
9 *110:12 *910:B1 9.3 
*END

*D_NET *111 0.00275786
*CONN
*I *914:A I *D sky130_fd_sc_hd__or3_2
*I *898:A I *D sky130_fd_sc_hd__inv_2
*I *906:A I *D sky130_fd_sc_hd__and2_2
*I *984:Q O *D sky130_fd_sc_hd__dfrtp_2
*CAP
1 *914:A 3.26752e-05
2 *898:A 0.000207668
3 *906:A 0.000727081
4 *984:Q 0.00018456
5 *111:6 0.00108663
6 *906:A *914:C 3.49456e-06
7 *914:A *914:C 6.37506e-05
8 *906:B *906:A 9.12828e-05
9 *906:B *914:A 0.000143633
10 *983:RESET_B *898:A 5.60143e-05
11 *984:CLK *906:A 7.57312e-05
12 *984:D *906:A 2.29536e-05
13 *984:RESET_B *111:6 1.12166e-05
14 *86:140 *898:A 4.76868e-05
15 *110:12 *898:A 3.4846e-06
*RES
1 *984:Q *111:6 11.4786 
2 *111:6 *906:A 19.1214 
3 *111:6 *898:A 22.3714 
4 *906:A *914:A 19.9571 
*END

*D_NET *112 0.00217237
*CONN
*I *909:A1 I *D sky130_fd_sc_hd__a21bo_2
*I *914:C I *D sky130_fd_sc_hd__or3_2
*I *912:A I *D sky130_fd_sc_hd__or2_2
*I *985:Q O *D sky130_fd_sc_hd__dfrtp_2
*CAP
1 *909:A1 0.000127819
2 *914:C 0.000141665
3 *912:A 0
4 *985:Q 0.000114326
5 *112:14 0.000235357
6 *112:8 0.000335837
7 *906:A *914:C 3.49456e-06
8 *906:B *914:C 0.000131887
9 *909:B1_N *909:A1 9.15842e-06
10 *913:A2 *914:C 3.11088e-05
11 *913:A2 *112:14 2.85321e-05
12 *914:A *914:C 6.37506e-05
13 *985:RESET_B *909:A1 4.90023e-05
14 *985:RESET_B *112:14 0.000194664
15 *986:D *914:C 4.17702e-05
16 *986:D *112:14 5.66971e-05
17 *56:37 *909:A1 9.95963e-05
18 *56:37 *112:14 6.96346e-05
19 *84:69 *112:8 0.000187561
20 *86:138 *112:8 0.000180486
21 *109:27 *909:A1 5.50052e-05
22 *109:27 *112:14 1.50223e-05
*RES
1 *985:Q *112:8 17.2107 
2 *112:8 *112:14 7.58929 
3 *112:14 *912:A 9.3 
4 *112:14 *914:C 13.2821 
5 *112:8 *909:A1 16.8893 
*END
