*SPEF "ieee 1481-1999"
*DESIGN "riscv_soc_top"
*DATE "08:56:40 Thursday September 10, 2026"
*VENDOR "The OpenROAD Project"
*PROGRAM "OpenROAD"
*VERSION "dcf36133a369abc8f3c5e5738cd4d82e4903c0e0"
*DESIGN_FLOW "NAME_SCOPE LOCAL" "PIN_CAP NONE"
*DIVIDER /
*DELIMITER :
*BUS_DELIMITER []
*T_UNIT 1 NS
*C_UNIT 1 PF
*R_UNIT 1 OHM
*L_UNIT 1 HENRY

*NAME_MAP
*3 axi_araddr[0]
*4 axi_araddr[10]
*5 axi_araddr[11]
*6 axi_araddr[12]
*7 axi_araddr[13]
*8 axi_araddr[14]
*9 axi_araddr[15]
*10 axi_araddr[16]
*11 axi_araddr[17]
*12 axi_araddr[18]
*13 axi_araddr[19]
*14 axi_araddr[1]
*15 axi_araddr[20]
*16 axi_araddr[21]
*17 axi_araddr[22]
*18 axi_araddr[23]
*19 axi_araddr[24]
*20 axi_araddr[25]
*21 axi_araddr[26]
*22 axi_araddr[27]
*23 axi_araddr[28]
*24 axi_araddr[29]
*25 axi_araddr[2]
*26 axi_araddr[30]
*27 axi_araddr[31]
*28 axi_araddr[3]
*29 axi_araddr[4]
*30 axi_araddr[5]
*31 axi_araddr[6]
*32 axi_araddr[7]
*33 axi_araddr[8]
*34 axi_araddr[9]
*35 axi_arready
*36 axi_arvalid
*37 axi_awaddr[0]
*38 axi_awaddr[10]
*39 axi_awaddr[11]
*40 axi_awaddr[12]
*41 axi_awaddr[13]
*42 axi_awaddr[14]
*43 axi_awaddr[15]
*44 axi_awaddr[16]
*45 axi_awaddr[17]
*46 axi_awaddr[18]
*47 axi_awaddr[19]
*48 axi_awaddr[1]
*49 axi_awaddr[20]
*50 axi_awaddr[21]
*51 axi_awaddr[22]
*52 axi_awaddr[23]
*53 axi_awaddr[24]
*54 axi_awaddr[25]
*55 axi_awaddr[26]
*56 axi_awaddr[27]
*57 axi_awaddr[28]
*58 axi_awaddr[29]
*59 axi_awaddr[2]
*60 axi_awaddr[30]
*61 axi_awaddr[31]
*62 axi_awaddr[3]
*63 axi_awaddr[4]
*64 axi_awaddr[5]
*65 axi_awaddr[6]
*66 axi_awaddr[7]
*67 axi_awaddr[8]
*68 axi_awaddr[9]
*69 axi_awready
*70 axi_awvalid
*71 axi_bready
*72 net82
*73 net
*74 net83
*75 axi_rdata[0]
*76 axi_rdata[10]
*77 axi_rdata[11]
*78 axi_rdata[12]
*79 axi_rdata[13]
*80 axi_rdata[14]
*81 axi_rdata[15]
*82 axi_rdata[16]
*83 axi_rdata[17]
*84 axi_rdata[18]
*85 axi_rdata[19]
*86 axi_rdata[1]
*87 axi_rdata[20]
*88 axi_rdata[21]
*89 axi_rdata[22]
*90 axi_rdata[23]
*91 axi_rdata[24]
*92 axi_rdata[25]
*93 axi_rdata[26]
*94 axi_rdata[27]
*95 axi_rdata[28]
*96 axi_rdata[29]
*97 axi_rdata[2]
*98 axi_rdata[30]
*99 axi_rdata[31]
*100 axi_rdata[3]
*101 axi_rdata[4]
*102 axi_rdata[5]
*103 axi_rdata[6]
*104 axi_rdata[7]
*105 axi_rdata[8]
*106 axi_rdata[9]
*107 axi_rready
*108 net80
*109 net81
*110 net84
*111 axi_wdata[0]
*112 axi_wdata[10]
*113 axi_wdata[11]
*114 axi_wdata[12]
*115 axi_wdata[13]
*116 axi_wdata[14]
*117 axi_wdata[15]
*118 axi_wdata[16]
*119 axi_wdata[17]
*120 axi_wdata[18]
*121 axi_wdata[19]
*122 axi_wdata[1]
*123 axi_wdata[20]
*124 axi_wdata[21]
*125 axi_wdata[22]
*126 axi_wdata[23]
*127 axi_wdata[24]
*128 axi_wdata[25]
*129 axi_wdata[26]
*130 axi_wdata[27]
*131 axi_wdata[28]
*132 axi_wdata[29]
*133 axi_wdata[2]
*134 axi_wdata[30]
*135 axi_wdata[31]
*136 axi_wdata[3]
*137 axi_wdata[4]
*138 axi_wdata[5]
*139 axi_wdata[6]
*140 axi_wdata[7]
*141 axi_wdata[8]
*142 axi_wdata[9]
*143 axi_wready
*144 axi_wstrb[0]
*145 axi_wstrb[1]
*146 axi_wstrb[2]
*147 axi_wstrb[3]
*148 axi_wvalid
*149 clk
*150 ext_interrupt
*151 gpio_in[0]
*152 gpio_in[1]
*153 gpio_in[2]
*154 gpio_in[3]
*155 gpio_in[4]
*156 gpio_in[5]
*157 gpio_in[6]
*158 gpio_in[7]
*159 gpio_out[0]
*160 gpio_out[1]
*161 gpio_out[2]
*162 gpio_out[3]
*163 gpio_out[4]
*164 gpio_out[5]
*165 gpio_out[6]
*166 gpio_out[7]
*167 rst_n
*168 uart_rx
*169 uart_tx
*170 _000_
*171 _001_
*172 _002_
*173 _003_
*174 _004_
*175 _005_
*176 _006_
*177 _007_
*178 _008_
*179 _009_
*180 _010_
*181 _011_
*182 _012_
*183 _013_
*184 _014_
*185 _015_
*186 _016_
*187 _017_
*188 _018_
*189 _019_
*190 _020_
*191 _021_
*192 _022_
*193 _023_
*194 _024_
*195 _025_
*196 _026_
*197 _027_
*198 _028_
*199 _029_
*200 _030_
*201 _031_
*202 _032_
*203 _033_
*204 _034_
*205 _035_
*206 _036_
*207 _037_
*208 _038_
*209 _039_
*210 _040_
*211 _041_
*212 _042_
*213 _043_
*214 _044_
*215 _045_
*216 _046_
*217 _047_
*218 _048_
*219 _049_
*220 _050_
*221 _051_
*222 _052_
*223 _053_
*224 _054_
*225 _055_
*226 _056_
*227 _057_
*228 _058_
*229 _059_
*230 _060_
*231 _061_
*232 _062_
*233 _063_
*234 _064_
*235 _065_
*236 _066_
*237 _067_
*238 _068_
*239 _069_
*240 _070_
*241 _071_
*242 _072_
*243 _073_
*244 _074_
*245 _075_
*246 _076_
*247 clknet_0_clk
*248 clknet_2_0__leaf_clk
*249 clknet_2_1__leaf_clk
*250 clknet_2_2__leaf_clk
*251 clknet_2_3__leaf_clk
*252 counter\[0\]
*253 counter\[10\]
*254 counter\[11\]
*255 counter\[12\]
*256 counter\[13\]
*257 counter\[14\]
*258 counter\[15\]
*259 counter\[16\]
*260 counter\[17\]
*261 counter\[18\]
*262 counter\[19\]
*263 counter\[1\]
*264 counter\[20\]
*265 counter\[21\]
*266 counter\[22\]
*267 counter\[23\]
*268 counter\[24\]
*269 counter\[25\]
*270 counter\[26\]
*271 counter\[27\]
*272 counter\[28\]
*273 counter\[29\]
*274 counter\[2\]
*275 counter\[30\]
*276 counter\[31\]
*277 counter\[3\]
*278 counter\[4\]
*279 counter\[5\]
*280 counter\[6\]
*281 counter\[7\]
*282 counter\[8\]
*283 counter\[9\]
*284 net1
*285 net10
*286 net100
*287 net101
*288 net102
*289 net103
*290 net104
*291 net11
*292 net12
*293 net13
*294 net14
*295 net15
*296 net16
*297 net17
*298 net18
*299 net19
*300 net2
*301 net20
*302 net21
*303 net22
*304 net23
*305 net24
*306 net25
*307 net26
*308 net27
*309 net28
*310 net29
*311 net3
*312 net30
*313 net31
*314 net32
*315 net33
*316 net34
*317 net35
*318 net36
*319 net37
*320 net38
*321 net39
*322 net4
*323 net40
*324 net41
*325 net42
*326 net43
*327 net44
*328 net45
*329 net46
*330 net47
*331 net48
*332 net49
*333 net5
*334 net50
*335 net51
*336 net52
*337 net53
*338 net54
*339 net55
*340 net56
*341 net57
*342 net58
*343 net59
*344 net6
*345 net60
*346 net61
*347 net62
*348 net63
*349 net64
*350 net65
*351 net66
*352 net67
*353 net68
*354 net69
*355 net7
*356 net70
*357 net71
*358 net72
*359 net73
*360 net74
*361 net75
*362 net76
*363 net77
*364 net78
*365 net79
*366 net8
*367 net85
*368 net86
*369 net87
*370 net88
*371 net89
*372 net9
*373 net90
*374 net91
*375 net92
*376 net93
*377 net94
*378 net95
*379 net96
*380 net97
*381 net98
*382 net99
*383 FILLER_0_110
*384 FILLER_0_146
*385 FILLER_0_29
*386 FILLER_0_3
*387 FILLER_0_45
*388 FILLER_0_57
*389 FILLER_0_71
*390 FILLER_0_74
*391 FILLER_0_85
*392 FILLER_0_95
*393 FILLER_10_136
*394 FILLER_10_139
*395 FILLER_10_25
*396 FILLER_10_29
*397 FILLER_10_3
*398 FILLER_10_32
*399 FILLER_10_43
*400 FILLER_10_67
*401 FILLER_10_93
*402 FILLER_11_113
*403 FILLER_11_144
*404 FILLER_11_25
*405 FILLER_11_3
*406 FILLER_11_44
*407 FILLER_11_47
*408 FILLER_11_50
*409 FILLER_11_53
*410 FILLER_11_57
*411 FILLER_11_60
*412 FILLER_11_63
*413 FILLER_11_66
*414 FILLER_11_78
*415 FILLER_12_141
*416 FILLER_12_144
*417 FILLER_12_3
*418 FILLER_12_50
*419 FILLER_12_53
*420 FILLER_12_56
*421 FILLER_12_59
*422 FILLER_12_6
*423 FILLER_12_62
*424 FILLER_12_85
*425 FILLER_13_129
*426 FILLER_13_144
*427 FILLER_13_3
*428 FILLER_13_33
*429 FILLER_13_42
*430 FILLER_13_52
*431 FILLER_13_55
*432 FILLER_13_57
*433 FILLER_13_6
*434 FILLER_13_60
*435 FILLER_13_63
*436 FILLER_13_66
*437 FILLER_13_69
*438 FILLER_13_72
*439 FILLER_13_75
*440 FILLER_13_78
*441 FILLER_13_81
*442 FILLER_13_84
*443 FILLER_13_87
*444 FILLER_13_90
*445 FILLER_13_93
*446 FILLER_14_102
*447 FILLER_14_125
*448 FILLER_14_141
*449 FILLER_14_144
*450 FILLER_14_24
*451 FILLER_14_27
*452 FILLER_14_34
*453 FILLER_14_44
*454 FILLER_14_72
*455 FILLER_14_75
*456 FILLER_14_78
*457 FILLER_14_81
*458 FILLER_14_85
*459 FILLER_14_88
*460 FILLER_14_91
*461 FILLER_14_94
*462 FILLER_15_53
*463 FILLER_15_63
*464 FILLER_15_91
*465 FILLER_15_94
*466 FILLER_16_135
*467 FILLER_16_138
*468 FILLER_16_141
*469 FILLER_16_144
*470 FILLER_16_24
*471 FILLER_16_27
*472 FILLER_16_69
*473 FILLER_17_103
*474 FILLER_17_126
*475 FILLER_17_129
*476 FILLER_17_144
*477 FILLER_17_41
*478 FILLER_17_44
*479 FILLER_17_47
*480 FILLER_17_57
*481 FILLER_17_6
*482 FILLER_17_60
*483 FILLER_17_70
*484 FILLER_17_73
*485 FILLER_18_106
*486 FILLER_18_109
*487 FILLER_18_137
*488 FILLER_18_141
*489 FILLER_18_144
*490 FILLER_18_29
*491 FILLER_18_38
*492 FILLER_18_41
*493 FILLER_18_44
*494 FILLER_18_47
*495 FILLER_18_50
*496 FILLER_19_103
*497 FILLER_19_106
*498 FILLER_19_109
*499 FILLER_19_113
*500 FILLER_19_144
*501 FILLER_19_19
*502 FILLER_19_26
*503 FILLER_19_29
*504 FILLER_19_32
*505 FILLER_19_35
*506 FILLER_19_43
*507 FILLER_19_55
*508 FILLER_19_57
*509 FILLER_19_74
*510 FILLER_1_12
*511 FILLER_1_146
*512 FILLER_1_3
*513 FILLER_1_51
*514 FILLER_1_54
*515 FILLER_1_57
*516 FILLER_1_6
*517 FILLER_1_60
*518 FILLER_1_63
*519 FILLER_1_77
*520 FILLER_1_80
*521 FILLER_1_9
*522 FILLER_1_91
*523 FILLER_20_11
*524 FILLER_20_111
*525 FILLER_20_114
*526 FILLER_20_117
*527 FILLER_20_120
*528 FILLER_20_123
*529 FILLER_20_14
*530 FILLER_20_141
*531 FILLER_20_144
*532 FILLER_20_17
*533 FILLER_20_20
*534 FILLER_20_23
*535 FILLER_20_26
*536 FILLER_20_29
*537 FILLER_20_32
*538 FILLER_20_83
*539 FILLER_20_85
*540 FILLER_20_93
*541 FILLER_20_96
*542 FILLER_21_11
*543 FILLER_21_111
*544 FILLER_21_119
*545 FILLER_21_122
*546 FILLER_21_125
*547 FILLER_21_128
*548 FILLER_21_14
*549 FILLER_21_17
*550 FILLER_21_20
*551 FILLER_21_78
*552 FILLER_21_81
*553 FILLER_22_114
*554 FILLER_22_117
*555 FILLER_22_120
*556 FILLER_22_123
*557 FILLER_22_126
*558 FILLER_22_129
*559 FILLER_22_132
*560 FILLER_22_135
*561 FILLER_22_138
*562 FILLER_22_141
*563 FILLER_22_15
*564 FILLER_22_18
*565 FILLER_22_29
*566 FILLER_22_53
*567 FILLER_22_6
*568 FILLER_22_81
*569 FILLER_22_9
*570 FILLER_23_11
*571 FILLER_23_111
*572 FILLER_23_121
*573 FILLER_23_124
*574 FILLER_23_127
*575 FILLER_23_130
*576 FILLER_23_133
*577 FILLER_23_136
*578 FILLER_23_14
*579 FILLER_23_17
*580 FILLER_23_65
*581 FILLER_23_68
*582 FILLER_24_106
*583 FILLER_24_109
*584 FILLER_24_129
*585 FILLER_24_132
*586 FILLER_24_135
*587 FILLER_24_138
*588 FILLER_24_141
*589 FILLER_24_144
*590 FILLER_24_27
*591 FILLER_24_29
*592 FILLER_24_3
*593 FILLER_24_32
*594 FILLER_24_35
*595 FILLER_24_49
*596 FILLER_24_57
*597 FILLER_24_6
*598 FILLER_24_9
*599 FILLER_2_12
*600 FILLER_2_135
*601 FILLER_2_138
*602 FILLER_2_141
*603 FILLER_2_144
*604 FILLER_2_15
*605 FILLER_2_18
*606 FILLER_2_29
*607 FILLER_2_6
*608 FILLER_2_70
*609 FILLER_2_9
*610 FILLER_3_12
*611 FILLER_3_129
*612 FILLER_3_15
*613 FILLER_3_18
*614 FILLER_3_21
*615 FILLER_3_57
*616 FILLER_3_6
*617 FILLER_3_9
*618 FILLER_4_118
*619 FILLER_4_12
*620 FILLER_4_141
*621 FILLER_4_144
*622 FILLER_4_15
*623 FILLER_4_18
*624 FILLER_4_21
*625 FILLER_4_24
*626 FILLER_4_27
*627 FILLER_4_29
*628 FILLER_4_3
*629 FILLER_4_6
*630 FILLER_4_81
*631 FILLER_4_85
*632 FILLER_4_9
*633 FILLER_5_11
*634 FILLER_5_111
*635 FILLER_5_113
*636 FILLER_5_116
*637 FILLER_5_125
*638 FILLER_5_14
*639 FILLER_5_17
*640 FILLER_5_28
*641 FILLER_5_31
*642 FILLER_5_57
*643 FILLER_5_60
*644 FILLER_5_77
*645 FILLER_5_80
*646 FILLER_6_116
*647 FILLER_6_19
*648 FILLER_6_85
*649 FILLER_7_28
*650 FILLER_7_3
*651 FILLER_7_31
*652 FILLER_7_34
*653 FILLER_7_37
*654 FILLER_7_53
*655 FILLER_7_6
*656 FILLER_8_141
*657 FILLER_8_144
*658 FILLER_8_3
*659 FILLER_8_37
*660 FILLER_8_6
*661 FILLER_8_80
*662 FILLER_8_83
*663 FILLER_9_121
*664 FILLER_9_145
*665 FILLER_9_24
*666 FILLER_9_41
*667 FILLER_9_57
*668 FILLER_9_72
*669 PHY_EDGE_ROW_0_Left_25
*670 PHY_EDGE_ROW_0_Right_0
*671 PHY_EDGE_ROW_10_Left_35
*672 PHY_EDGE_ROW_10_Right_10
*673 PHY_EDGE_ROW_11_Left_36
*674 PHY_EDGE_ROW_11_Right_11
*675 PHY_EDGE_ROW_12_Left_37
*676 PHY_EDGE_ROW_12_Right_12
*677 PHY_EDGE_ROW_13_Left_38
*678 PHY_EDGE_ROW_13_Right_13
*679 PHY_EDGE_ROW_14_Left_39
*680 PHY_EDGE_ROW_14_Right_14
*681 PHY_EDGE_ROW_15_Left_40
*682 PHY_EDGE_ROW_15_Right_15
*683 PHY_EDGE_ROW_16_Left_41
*684 PHY_EDGE_ROW_16_Right_16
*685 PHY_EDGE_ROW_17_Left_42
*686 PHY_EDGE_ROW_17_Right_17
*687 PHY_EDGE_ROW_18_Left_43
*688 PHY_EDGE_ROW_18_Right_18
*689 PHY_EDGE_ROW_19_Left_44
*690 PHY_EDGE_ROW_19_Right_19
*691 PHY_EDGE_ROW_1_Left_26
*692 PHY_EDGE_ROW_1_Right_1
*693 PHY_EDGE_ROW_20_Left_45
*694 PHY_EDGE_ROW_20_Right_20
*695 PHY_EDGE_ROW_21_Left_46
*696 PHY_EDGE_ROW_21_Right_21
*697 PHY_EDGE_ROW_22_Left_47
*698 PHY_EDGE_ROW_22_Right_22
*699 PHY_EDGE_ROW_23_Left_48
*700 PHY_EDGE_ROW_23_Right_23
*701 PHY_EDGE_ROW_24_Left_49
*702 PHY_EDGE_ROW_24_Right_24
*703 PHY_EDGE_ROW_2_Left_27
*704 PHY_EDGE_ROW_2_Right_2
*705 PHY_EDGE_ROW_3_Left_28
*706 PHY_EDGE_ROW_3_Right_3
*707 PHY_EDGE_ROW_4_Left_29
*708 PHY_EDGE_ROW_4_Right_4
*709 PHY_EDGE_ROW_5_Left_30
*710 PHY_EDGE_ROW_5_Right_5
*711 PHY_EDGE_ROW_6_Left_31
*712 PHY_EDGE_ROW_6_Right_6
*713 PHY_EDGE_ROW_7_Left_32
*714 PHY_EDGE_ROW_7_Right_7
*715 PHY_EDGE_ROW_8_Left_33
*716 PHY_EDGE_ROW_8_Right_8
*717 PHY_EDGE_ROW_9_Left_34
*718 PHY_EDGE_ROW_9_Right_9
*719 TAP_TAPCELL_ROW_0_50
*720 TAP_TAPCELL_ROW_0_51
*721 TAP_TAPCELL_ROW_0_52
*722 TAP_TAPCELL_ROW_0_53
*723 TAP_TAPCELL_ROW_0_54
*724 TAP_TAPCELL_ROW_10_77
*725 TAP_TAPCELL_ROW_10_78
*726 TAP_TAPCELL_ROW_10_79
*727 TAP_TAPCELL_ROW_11_80
*728 TAP_TAPCELL_ROW_11_81
*729 TAP_TAPCELL_ROW_12_82
*730 TAP_TAPCELL_ROW_12_83
*731 TAP_TAPCELL_ROW_12_84
*732 TAP_TAPCELL_ROW_13_85
*733 TAP_TAPCELL_ROW_13_86
*734 TAP_TAPCELL_ROW_14_87
*735 TAP_TAPCELL_ROW_14_88
*736 TAP_TAPCELL_ROW_14_89
*737 TAP_TAPCELL_ROW_15_90
*738 TAP_TAPCELL_ROW_15_91
*739 TAP_TAPCELL_ROW_16_92
*740 TAP_TAPCELL_ROW_16_93
*741 TAP_TAPCELL_ROW_16_94
*742 TAP_TAPCELL_ROW_17_95
*743 TAP_TAPCELL_ROW_17_96
*744 TAP_TAPCELL_ROW_18_97
*745 TAP_TAPCELL_ROW_18_98
*746 TAP_TAPCELL_ROW_18_99
*747 TAP_TAPCELL_ROW_19_100
*748 TAP_TAPCELL_ROW_19_101
*749 TAP_TAPCELL_ROW_1_55
*750 TAP_TAPCELL_ROW_1_56
*751 TAP_TAPCELL_ROW_20_102
*752 TAP_TAPCELL_ROW_20_103
*753 TAP_TAPCELL_ROW_20_104
*754 TAP_TAPCELL_ROW_21_105
*755 TAP_TAPCELL_ROW_21_106
*756 TAP_TAPCELL_ROW_22_107
*757 TAP_TAPCELL_ROW_22_108
*758 TAP_TAPCELL_ROW_22_109
*759 TAP_TAPCELL_ROW_23_110
*760 TAP_TAPCELL_ROW_23_111
*761 TAP_TAPCELL_ROW_24_112
*762 TAP_TAPCELL_ROW_24_113
*763 TAP_TAPCELL_ROW_24_114
*764 TAP_TAPCELL_ROW_24_115
*765 TAP_TAPCELL_ROW_24_116
*766 TAP_TAPCELL_ROW_2_57
*767 TAP_TAPCELL_ROW_2_58
*768 TAP_TAPCELL_ROW_2_59
*769 TAP_TAPCELL_ROW_3_60
*770 TAP_TAPCELL_ROW_3_61
*771 TAP_TAPCELL_ROW_4_62
*772 TAP_TAPCELL_ROW_4_63
*773 TAP_TAPCELL_ROW_4_64
*774 TAP_TAPCELL_ROW_5_65
*775 TAP_TAPCELL_ROW_5_66
*776 TAP_TAPCELL_ROW_6_67
*777 TAP_TAPCELL_ROW_6_68
*778 TAP_TAPCELL_ROW_6_69
*779 TAP_TAPCELL_ROW_7_70
*780 TAP_TAPCELL_ROW_7_71
*781 TAP_TAPCELL_ROW_8_72
*782 TAP_TAPCELL_ROW_8_73
*783 TAP_TAPCELL_ROW_8_74
*784 TAP_TAPCELL_ROW_9_75
*785 TAP_TAPCELL_ROW_9_76
*786 _077_
*787 _078_
*788 _079_
*789 _080_
*790 _081_
*791 _082_
*792 _083_
*793 _084_
*794 _085_
*795 _086_
*796 _087_
*797 _088_
*798 _089_
*799 _090_
*800 _091_
*801 _092_
*802 _093_
*803 _094_
*804 _095_
*805 _096_
*806 _097_
*807 _098_
*808 _099_
*809 _100_
*810 _101_
*811 _102_
*812 _103_
*813 _104_
*814 _105_
*815 _106_
*816 _107_
*817 _108_
*818 _109_
*819 _110_
*820 _111_
*821 _112_
*822 _113_
*823 _114_
*824 _115_
*825 _116_
*826 _117_
*827 _118_
*828 _119_
*829 _120_
*830 _121_
*831 _122_
*832 _123_
*833 _124_
*834 _125_
*835 _126_
*836 _127_
*837 _128_
*838 _129_
*839 _130_
*840 _131_
*841 _132_
*842 _133_
*843 _134_
*844 _135_
*845 _136_
*846 _137_
*847 _138_
*848 _139_
*849 _140_
*850 _141_
*851 _142_
*852 _143_
*853 _144_
*854 _145_
*855 _146_
*856 _147_
*857 _148_
*858 _149_
*859 _150_
*860 _151_
*861 _152_
*862 _153_
*863 _154_
*864 _155_
*865 _156_
*866 _157_
*867 _158_
*868 _159_
*869 _160_
*870 _161_
*871 _162_
*872 _163_
*873 _164_
*874 _165_
*875 _166_
*876 _167_
*877 _168_
*878 _169_
*879 _170_
*880 _171_
*881 _172_
*882 _173_
*883 _174_
*884 _175_
*885 _176_
*886 _177_
*887 _178_
*888 _179_
*889 _180_
*890 _181_
*891 _182_
*892 _183_
*893 _184_
*894 _185_
*895 _186_
*896 _187_
*897 _188_
*898 _189_
*899 _190_
*900 _191_
*901 _192_
*902 _193_
*903 _194_
*904 _195_
*905 _196_
*906 _197_
*907 _198_
*908 _199_
*909 _200_
*910 _201_
*911 _202_
*912 _203_
*913 _204_
*914 _205_
*915 _206_
*916 _207_
*917 _208_
*918 _209_
*919 _210_
*920 _211_
*921 _212_
*922 _213_
*923 _214_
*924 _215_
*925 _216_
*926 _217_
*927 _218_
*928 _219_
*929 _220_
*930 _221_
*931 _222_
*932 _223_
*933 _224_
*934 _225_
*935 _226_
*936 _233_
*937 _234_
*938 _235_
*939 clkbuf_0_clk
*940 clkbuf_2_0__f_clk
*941 clkbuf_2_1__f_clk
*942 clkbuf_2_2__f_clk
*943 clkbuf_2_3__f_clk
*944 clkload0
*945 clkload1
*946 clkload2
*947 hold100
*948 hold101
*949 hold102
*950 hold103
*951 hold104
*952 hold85
*953 hold86
*954 hold87
*955 hold88
*956 hold89
*957 hold90
*958 hold91
*959 hold92
*960 hold93
*961 hold94
*962 hold95
*963 hold96
*964 hold97
*965 hold98
*966 hold99
*967 input1
*968 input10
*969 input11
*970 input12
*971 input13
*972 input14
*973 input15
*974 input16
*975 input17
*976 input18
*977 input19
*978 input2
*979 input20
*980 input21
*981 input22
*982 input23
*983 input24
*984 input25
*985 input26
*986 input27
*987 input28
*988 input29
*989 input3
*990 input30
*991 input31
*992 input32
*993 input33
*994 input34
*995 input4
*996 input5
*997 input6
*998 input7
*999 input8
*1000 input9
*1001 max_cap79
*1002 output35
*1003 output36
*1004 output37
*1005 output38
*1006 output39
*1007 output40
*1008 output41
*1009 output42
*1010 output43
*1011 output44
*1012 output45
*1013 output46
*1014 output47
*1015 output48
*1016 output49
*1017 output50
*1018 output51
*1019 output52
*1020 output53
*1021 output54
*1022 output55
*1023 output56
*1024 output57
*1025 output58
*1026 output59
*1027 output60
*1028 output61
*1029 output62
*1030 output63
*1031 output64
*1032 output65
*1033 output66
*1034 output67
*1035 output68
*1036 output69
*1037 output70
*1038 output71
*1039 output72
*1040 output73
*1041 output74
*1042 output75
*1043 output76
*1044 output77
*1045 output78
*1046 riscv_soc_top
*1047 riscv_soc_top_80
*1048 riscv_soc_top_81
*1049 riscv_soc_top_82
*1050 riscv_soc_top_83
*1051 riscv_soc_top_84

*PORTS
axi_araddr[0] I
axi_araddr[10] I
axi_araddr[11] I
axi_araddr[12] I
axi_araddr[13] I
axi_araddr[14] I
axi_araddr[15] I
axi_araddr[16] I
axi_araddr[17] I
axi_araddr[18] I
axi_araddr[19] I
axi_araddr[1] I
axi_araddr[20] I
axi_araddr[21] I
axi_araddr[22] I
axi_araddr[23] I
axi_araddr[24] I
axi_araddr[25] I
axi_araddr[26] I
axi_araddr[27] I
axi_araddr[28] I
axi_araddr[29] I
axi_araddr[2] I
axi_araddr[30] I
axi_araddr[31] I
axi_araddr[3] I
axi_araddr[4] I
axi_araddr[5] I
axi_araddr[6] I
axi_araddr[7] I
axi_araddr[8] I
axi_araddr[9] I
axi_arready O
axi_arvalid I
axi_awaddr[0] I
axi_awaddr[10] I
axi_awaddr[11] I
axi_awaddr[12] I
axi_awaddr[13] I
axi_awaddr[14] I
axi_awaddr[15] I
axi_awaddr[16] I
axi_awaddr[17] I
axi_awaddr[18] I
axi_awaddr[19] I
axi_awaddr[1] I
axi_awaddr[20] I
axi_awaddr[21] I
axi_awaddr[22] I
axi_awaddr[23] I
axi_awaddr[24] I
axi_awaddr[25] I
axi_awaddr[26] I
axi_awaddr[27] I
axi_awaddr[28] I
axi_awaddr[29] I
axi_awaddr[2] I
axi_awaddr[30] I
axi_awaddr[31] I
axi_awaddr[3] I
axi_awaddr[4] I
axi_awaddr[5] I
axi_awaddr[6] I
axi_awaddr[7] I
axi_awaddr[8] I
axi_awaddr[9] I
axi_awready O
axi_awvalid I
axi_bready I
axi_bresp[0] O
axi_bresp[1] O
axi_bvalid O
axi_rdata[0] O
axi_rdata[10] O
axi_rdata[11] O
axi_rdata[12] O
axi_rdata[13] O
axi_rdata[14] O
axi_rdata[15] O
axi_rdata[16] O
axi_rdata[17] O
axi_rdata[18] O
axi_rdata[19] O
axi_rdata[1] O
axi_rdata[20] O
axi_rdata[21] O
axi_rdata[22] O
axi_rdata[23] O
axi_rdata[24] O
axi_rdata[25] O
axi_rdata[26] O
axi_rdata[27] O
axi_rdata[28] O
axi_rdata[29] O
axi_rdata[2] O
axi_rdata[30] O
axi_rdata[31] O
axi_rdata[3] O
axi_rdata[4] O
axi_rdata[5] O
axi_rdata[6] O
axi_rdata[7] O
axi_rdata[8] O
axi_rdata[9] O
axi_rready I
axi_rresp[0] O
axi_rresp[1] O
axi_rvalid O
axi_wdata[0] I
axi_wdata[10] I
axi_wdata[11] I
axi_wdata[12] I
axi_wdata[13] I
axi_wdata[14] I
axi_wdata[15] I
axi_wdata[16] I
axi_wdata[17] I
axi_wdata[18] I
axi_wdata[19] I
axi_wdata[1] I
axi_wdata[20] I
axi_wdata[21] I
axi_wdata[22] I
axi_wdata[23] I
axi_wdata[24] I
axi_wdata[25] I
axi_wdata[26] I
axi_wdata[27] I
axi_wdata[28] I
axi_wdata[29] I
axi_wdata[2] I
axi_wdata[30] I
axi_wdata[31] I
axi_wdata[3] I
axi_wdata[4] I
axi_wdata[5] I
axi_wdata[6] I
axi_wdata[7] I
axi_wdata[8] I
axi_wdata[9] I
axi_wready O
axi_wstrb[0] I
axi_wstrb[1] I
axi_wstrb[2] I
axi_wstrb[3] I
axi_wvalid I
clk I
ext_interrupt I
gpio_in[0] I
gpio_in[1] I
gpio_in[2] I
gpio_in[3] I
gpio_in[4] I
gpio_in[5] I
gpio_in[6] I
gpio_in[7] I
gpio_out[0] O
gpio_out[1] O
gpio_out[2] O
gpio_out[3] O
gpio_out[4] O
gpio_out[5] O
gpio_out[6] O
gpio_out[7] O
rst_n I
uart_rx I
uart_tx O

*D_NET *3 0.00170527
*CONN
*P axi_araddr[0] I
*I *967:A I *D sky130_fd_sc_hd__clkdlybuf4s25_1
*CAP
1 axi_araddr[0] 0.000622671
2 *967:A 0.000622671
3 *967:A axi_rdata[0] 0
4 *967:A axi_rdata[8] 0.000235573
5 *967:A *894:B 0.000136093
6 *967:A *982:A 0
7 *967:A *1034:A 8.8266e-05
*RES
1 axi_araddr[0] *967:A 15.915 
*END

*D_NET *4 0.00287825
*CONN
*P axi_araddr[10] I
*I *978:A I *D sky130_fd_sc_hd__clkdlybuf4s25_1
*CAP
1 axi_araddr[10] 0.000842202
2 *978:A 0.000842202
3 *978:A axi_rdata[10] 0.000634318
4 *978:A gpio_out[2] 8.26522e-05
5 *978:A gpio_out[4] 8.94418e-05
6 *978:A gpio_out[5] 0.000144763
7 *978:A *1039:A 0.000242667
*RES
1 axi_araddr[10] *978:A 18.0901 
*END

*D_NET *5 0.00374324
*CONN
*P axi_araddr[11] I
*I *989:A I *D sky130_fd_sc_hd__clkdlybuf4s25_1
*CAP
1 axi_araddr[11] 0.000998022
2 *989:A 0.000998022
3 *989:A axi_rdata[15] 0.000325091
4 *989:A gpio_out[7] 0.000108436
5 *989:A *799:B 5.39181e-05
6 *989:A *850:D 5.1479e-05
7 *989:A *930:CLK 0.000183745
8 *989:A *933:CLK 0.000179285
9 *989:A *933:D 0
10 *989:A *995:A 0
11 *989:A *1007:A 0.000467945
12 *989:A *1042:A 0
13 *989:A *255:65 1.32017e-05
14 *989:A *255:80 0.000128239
15 *989:A *256:20 0.000235859
*RES
1 axi_araddr[11] *989:A 15.6785 
*END

*D_NET *6 0.00378736
*CONN
*P axi_araddr[12] I
*I *995:A I *D sky130_fd_sc_hd__clkdlybuf4s25_1
*CAP
1 axi_araddr[12] 0.00140175
2 *995:A 0.00140175
3 *995:A axi_rdata[12] 0.000403433
4 *995:A axi_rdata[15] 0.000101386
5 *995:A *852:D 0
6 *995:A *911:RESET_B 9.02855e-05
7 *995:A *996:A 0.000388757
8 *989:A *995:A 0
*RES
1 axi_araddr[12] *995:A 9.39057 
*END

*D_NET *7 0.00296185
*CONN
*P axi_araddr[13] I
*I *996:A I *D sky130_fd_sc_hd__clkdlybuf4s25_1
*CAP
1 axi_araddr[13] 0.000750727
2 *996:A 0.000750727
3 *996:A axi_rdata[12] 0.000400474
4 *996:A axi_rdata[13] 0
5 *996:A gpio_out[2] 4.41742e-05
6 *996:A gpio_out[4] 8.23457e-05
7 *996:A gpio_out[5] 0
8 *996:A *930:RESET_B 0
9 *996:A *1005:A 6.45575e-05
10 *996:A *1039:A 0.000480087
11 *996:A *365:287 0
12 *996:A *365:289 0
13 *995:A *996:A 0.000388757
*RES
1 axi_araddr[13] *996:A 17.6032 
*END

*D_NET *8 0.00167945
*CONN
*P axi_araddr[14] I
*I *997:A I *D sky130_fd_sc_hd__clkdlybuf4s25_1
*CAP
1 axi_araddr[14] 0.000385988
2 *997:A 0.000385988
3 *997:A axi_rdata[14] 9.80839e-05
4 *997:A axi_rresp[0] 0.000280366
5 *997:A gpio_out[6] 0.000145128
6 *997:A *937:A 3.12517e-05
7 *997:A *998:A 0
8 *997:A *1043:A 0.000239674
9 *997:A *1044:A 0.000112971
*RES
1 axi_araddr[14] *997:A 10.0616 
*END

*D_NET *9 0.0028955
*CONN
*P axi_araddr[15] I
*I *998:A I *D sky130_fd_sc_hd__clkdlybuf4s25_1
*CAP
1 axi_araddr[15] 0.000543318
2 *998:A 0.000543318
3 *998:A axi_awready 2.35678e-05
4 *998:A axi_rdata[14] 0.000333182
5 *998:A gpio_out[7] 0.000409705
6 *998:A *802:B 0.000333439
7 *998:A *1003:A 0
8 *998:A *1044:A 0.000708967
9 *997:A *998:A 0
*RES
1 axi_araddr[15] *998:A 16.2214 
*END

*D_NET *10 0.00250666
*CONN
*P axi_araddr[16] I
*I *999:A I *D sky130_fd_sc_hd__clkdlybuf4s25_1
*CAP
1 axi_araddr[16] 0.000686643
2 *999:A 0.000686643
3 *999:A axi_rdata[16] 0.000221659
4 *999:A *803:B 0.000524932
5 *999:A *1011:A 0.000386783
*RES
1 axi_araddr[16] *999:A 19.4737 
*END

*D_NET *11 0.00382075
*CONN
*P axi_araddr[17] I
*I *1000:A I *D sky130_fd_sc_hd__clkdlybuf4s25_1
*CAP
1 axi_araddr[17] 0.00155501
2 *1000:A 0.00155501
3 *1000:A axi_rdata[11] 0
4 *1000:A axi_rdata[16] 0
5 *1000:A axi_rdata[18] 0.000102472
6 *1000:A *860:A 1.88656e-05
7 *1000:A *863:A2 0.000170766
8 *1000:A *912:CLK 0
9 *1000:A *968:A 0.000418624
*RES
1 axi_araddr[17] *1000:A 20.4349 
*END

*D_NET *12 0.00364599
*CONN
*P axi_araddr[18] I
*I *968:A I *D sky130_fd_sc_hd__clkdlybuf4s25_1
*CAP
1 axi_araddr[18] 0.00122783
2 *968:A 0.00122783
3 *968:A axi_rdata[11] 0.000405953
4 *968:A axi_rdata[17] 0.000273836
5 *968:A axi_rdata[18] 9.19172e-05
6 *968:A *863:A2 0
7 *1000:A *968:A 0.000418624
*RES
1 axi_araddr[18] *968:A 18.6644 
*END

*D_NET *13 0.00149999
*CONN
*P axi_araddr[19] I
*I *969:A I *D sky130_fd_sc_hd__clkdlybuf4s25_1
*CAP
1 axi_araddr[19] 0.000690297
2 *969:A 0.000690297
3 *969:A axi_rdata[11] 0
4 *969:A axi_rdata[17] 0
5 *969:A axi_rdata[19] 0
6 *969:A gpio_out[3] 3.72916e-05
7 *969:A *806:B 7.35729e-05
8 *969:A *1040:A 8.53113e-06
*RES
1 axi_araddr[19] *969:A 16.1588 
*END

*D_NET *14 0.00524174
*CONN
*P axi_araddr[1] I
*I *970:A I *D sky130_fd_sc_hd__clkdlybuf4s25_1
*CAP
1 axi_araddr[1] 0.00134611
2 *970:A 0.00134611
3 *970:A axi_rdata[0] 0.000169684
4 *970:A axi_rdata[8] 0.000263556
5 *970:A *787:A 8.38707e-05
6 *970:A *787:B 5.12017e-06
7 *970:A *788:B 4.82863e-05
8 *970:A *796:A 0
9 *970:A *817:B 6.06649e-05
10 *970:A *824:A3 1.17856e-05
11 *970:A *825:A_N 3.75134e-05
12 *970:A *886:A 4.82863e-05
13 *970:A *896:CLK 0.000121351
14 *970:A *896:D 0.000115945
15 *970:A *954:A 0.000137578
16 *970:A *982:A 0
17 *970:A *991:A 0.000395933
18 *970:A *1034:A 0.000331326
19 *970:A *1035:A 0
20 *970:A *205:77 7.32671e-05
21 *970:A *205:88 0.000295335
22 *970:A *252:10 0.000131453
23 *970:A *263:12 8.9257e-05
24 *970:A *274:10 0.000129295
*RES
1 axi_araddr[1] *970:A 41.8 
*END

*D_NET *15 0.00136764
*CONN
*P axi_araddr[20] I
*I *971:A I *D sky130_fd_sc_hd__clkdlybuf4s25_1
*CAP
1 axi_araddr[20] 0.000442505
2 *971:A 0.000442505
3 *971:A *807:B 3.00381e-05
4 *971:A *973:A 0.000452588
5 *971:A *1014:A 0
*RES
1 axi_araddr[20] *971:A 14.6438 
*END

*D_NET *16 0.00289993
*CONN
*P axi_araddr[21] I
*I *972:A I *D sky130_fd_sc_hd__clkdlybuf4s25_1
*CAP
1 axi_araddr[21] 0.000433251
2 *972:A 0.000433251
3 *972:A axi_rdata[20] 0.000494034
4 *972:A axi_rdata[21] 0.000421535
5 *972:A *808:A 2.75145e-05
6 *972:A *808:B 0.000276351
7 *972:A *973:A 0.000495901
8 *972:A *1017:A 0.000318091
*RES
1 axi_araddr[21] *972:A 21.7838 
*END

*D_NET *17 0.00280761
*CONN
*P axi_araddr[22] I
*I *973:A I *D sky130_fd_sc_hd__clkdlybuf4s25_1
*CAP
1 axi_araddr[22] 0.000651935
2 *973:A 0.000651935
3 *973:A axi_rdata[20] 0
4 *973:A *807:B 5.2089e-05
5 *973:A *808:A 4.49585e-05
6 *973:A *951:A 0.000458202
7 *971:A *973:A 0.000452588
8 *972:A *973:A 0.000495901
*RES
1 axi_araddr[22] *973:A 21.4988 
*END

*D_NET *18 0.00290735
*CONN
*P axi_araddr[23] I
*I *974:A I *D sky130_fd_sc_hd__clkdlybuf4s25_1
*CAP
1 axi_araddr[23] 0.000616516
2 *974:A 0.000616516
3 *974:A axi_rdata[22] 0.000149095
4 *974:A axi_rdata[23] 0.000816248
5 *974:A axi_rdata[24] 0.000364123
6 *974:A axi_rdata[25] 0
7 *974:A *811:A 8.63479e-05
8 *974:A *1021:A 0.000258501
*RES
1 axi_araddr[23] *974:A 16.1256 
*END

*D_NET *19 0.00204057
*CONN
*P axi_araddr[24] I
*I *975:A I *D sky130_fd_sc_hd__clkdlybuf4s25_1
*CAP
1 axi_araddr[24] 0.000896362
2 *975:A 0.000896362
3 *975:A axi_bresp[0] 0
4 *975:A axi_rdata[22] 0.000123921
5 *975:A axi_rdata[23] 0
6 *975:A axi_rdata[24] 0.000123921
7 *975:A *976:A 0
*RES
1 axi_araddr[24] *975:A 19.1597 
*END

*D_NET *20 0.00234062
*CONN
*P axi_araddr[25] I
*I *976:A I *D sky130_fd_sc_hd__clkdlybuf4s25_1
*CAP
1 axi_araddr[25] 0.000887681
2 *976:A 0.000887681
3 *976:A axi_rdata[23] 0.000241455
4 *976:A axi_rdata[24] 8.23457e-05
5 *976:A axi_rdata[25] 0.000241455
6 *976:A *1021:A 0
7 *975:A *976:A 0
*RES
1 axi_araddr[25] *976:A 17.846 
*END

*D_NET *21 0.00325513
*CONN
*P axi_araddr[26] I
*I *977:A I *D sky130_fd_sc_hd__clkdlybuf4s25_1
*CAP
1 axi_araddr[26] 0.000764949
2 *977:A 0.000764949
3 *977:A *814:A 0.000132977
4 *977:A *881:B 4.99619e-05
5 *977:A *881:D 5.80958e-05
6 *977:A *883:B 0.000298431
7 *977:A *883:D 4.66108e-05
8 *977:A *979:A 0.000543822
9 *977:A *980:A 0.000307515
10 *977:A *1023:A 8.76743e-05
11 *977:A *1029:A 7.35729e-05
12 *977:A *240:10 0.00012657
*RES
1 axi_araddr[26] *977:A 16.3985 
*END

*D_NET *22 0.00374808
*CONN
*P axi_araddr[27] I
*I *979:A I *D sky130_fd_sc_hd__clkdlybuf4s25_1
*CAP
1 axi_araddr[27] 0.000911439
2 *979:A 0.000911439
3 *979:A axi_rdata[26] 0.000132816
4 *979:A axi_rdata[27] 0.000812059
5 *979:A *815:B 0
6 *979:A *818:B 0
7 *979:A *881:B 6.03407e-05
8 *979:A *881:C 8.71646e-05
9 *979:A *883:A 8.89283e-05
10 *979:A *945:A 0
11 *979:A *984:A 0
12 *979:A *1029:A 5.56116e-05
13 *979:A *241:31 0.000134293
14 *979:A *365:54 1.01661e-05
15 *977:A *979:A 0.000543822
*RES
1 axi_araddr[27] *979:A 11.1853 
*END

*D_NET *23 0.00336726
*CONN
*P axi_araddr[28] I
*I *980:A I *D sky130_fd_sc_hd__clkdlybuf4s25_1
*CAP
1 axi_araddr[28] 0.000647873
2 *980:A 0.000647873
3 *980:A axi_rdata[28] 0.000247172
4 *980:A *814:B 0.000833829
5 *980:A *818:A 7.00889e-06
6 *980:A *984:A 0.000517921
7 *980:A *1023:A 0
8 *980:A *1028:A 0.000158072
9 *977:A *980:A 0.000307515
*RES
1 axi_araddr[28] *980:A 16.0685 
*END

*D_NET *24 0.00447757
*CONN
*P axi_araddr[29] I
*I *981:A I *D sky130_fd_sc_hd__clkdlybuf4s25_1
*CAP
1 axi_araddr[29] 0.00127038
2 *981:A 0.00127038
3 *981:A axi_rdata[29] 0.00066191
4 *981:A axi_rdata[31] 0.000700571
5 *981:A *816:B 2.34083e-05
6 *981:A *888:A 0
7 *981:A *893:B 0
8 *981:A *924:CLK 0.000157968
9 *981:A *924:RESET_B 2.00448e-05
10 *981:A *244:14 0.000347922
11 *981:A *272:12 2.49909e-05
*RES
1 axi_araddr[29] *981:A 17.6763 
*END

*D_NET *25 0.00581256
*CONN
*P axi_araddr[2] I
*I *982:A I *D sky130_fd_sc_hd__clkdlybuf4s25_1
*CAP
1 axi_araddr[2] 0.00157132
2 *982:A 0.00157132
3 *982:A axi_rdata[0] 0
4 *982:A axi_rdata[1] 0.000247081
5 *982:A axi_rdata[3] 0.000247081
6 *982:A axi_rdata[8] 0.000186072
7 *982:A *787:A 7.83382e-05
8 *982:A *787:B 0.000289896
9 *982:A *788:B 0
10 *982:A *892:B 0.000235573
11 *982:A *894:B 0
12 *982:A *899:D 0.00104596
13 *982:A *954:A 0.000122337
14 *982:A *1004:A 0
15 *982:A *1034:A 2.46007e-05
16 *982:A *252:10 0.000192975
17 *967:A *982:A 0
18 *970:A *982:A 0
*RES
1 axi_araddr[2] *982:A 43.12 
*END

*D_NET *26 0.0055113
*CONN
*P axi_araddr[30] I
*I *983:A I *D sky130_fd_sc_hd__clkdlybuf4s25_1
*CAP
1 axi_araddr[30] 0.0014008
2 *983:A 0.0014008
3 *983:A axi_rdata[29] 0.000140515
4 *983:A axi_rdata[31] 0
5 *983:A gpio_out[0] 0.000278371
6 *983:A gpio_out[1] 0.000835061
7 *983:A *817:B 0.000976023
8 *983:A *889:C 0.000235313
9 *983:A *893:A 0.00013377
10 *983:A *899:D 4.12825e-05
11 *983:A *958:A 3.96263e-05
12 *983:A *244:14 2.97339e-05
*RES
1 axi_araddr[30] *983:A 11.4133 
*END

*D_NET *27 0.00370838
*CONN
*P axi_araddr[31] I
*I *984:A I *D sky130_fd_sc_hd__clkdlybuf4s25_1
*CAP
1 axi_araddr[31] 0.00103513
2 *984:A 0.00103513
3 *984:A axi_rdata[27] 2.75145e-05
4 *984:A axi_rdata[28] 0.000503634
5 *984:A *815:B 0.000144942
6 *984:A *891:A 7.67415e-06
7 *984:A *891:B 9.8199e-05
8 *984:A *891:C 7.63168e-05
9 *984:A *893:B 2.7289e-05
10 *984:A *1024:A 0.000198945
11 *984:A *272:16 1.03816e-05
12 *984:A *272:44 2.531e-05
13 *979:A *984:A 0
14 *980:A *984:A 0.000517921
*RES
1 axi_araddr[31] *984:A 15.8475 
*END

*D_NET *28 0.00483451
*CONN
*P axi_araddr[3] I
*I *985:A I *D sky130_fd_sc_hd__clkdlybuf4s25_1
*CAP
1 axi_araddr[3] 0.00102785
2 *985:A 0.00102785
3 *985:A axi_rdata[0] 0.000190838
4 *985:A axi_rdata[1] 0.00042634
5 *985:A axi_rdata[3] 0
6 *985:A *788:B 0
7 *985:A *790:A 0
8 *985:A *790:B 0.00146995
9 *985:A *820:B 5.13112e-05
10 *985:A *887:A 0
11 *985:A *892:B 4.82863e-05
12 *985:A *896:RESET_B 0.000236977
13 *985:A *898:RESET_B 0.000246777
14 *985:A *315:77 0.000108322
*RES
1 axi_araddr[3] *985:A 32.22 
*END

*D_NET *29 0.00283996
*CONN
*P axi_araddr[4] I
*I *986:A I *D sky130_fd_sc_hd__clkdlybuf4s25_1
*CAP
1 axi_araddr[4] 0.000874931
2 *986:A 0.000874931
3 *986:A axi_rdata[4] 0.000127805
4 *986:A *791:B 0.000366942
5 *986:A *826:B 4.99619e-05
6 *986:A *828:B 0.000124473
7 *986:A *1031:A 0.000345359
8 *986:A *248:20 9.47972e-06
9 *986:A *278:14 0
10 *986:A *278:31 6.60737e-05
*RES
1 axi_araddr[4] *986:A 22.41 
*END

*D_NET *30 0.00357111
*CONN
*P axi_araddr[5] I
*I *987:A I *D sky130_fd_sc_hd__clkdlybuf4s25_1
*CAP
1 axi_araddr[5] 0.001087
2 *987:A 0.001087
3 *987:A axi_rdata[5] 0
4 *987:A *793:A 0.000247744
5 *987:A *832:D 2.36693e-05
6 *987:A *841:A1 4.28112e-06
7 *987:A *988:A 0
8 *987:A *994:A 0.00064608
9 *987:A *211:32 2.69217e-05
10 *987:A *215:10 0.000324306
11 *987:A *281:20 0.000124101
*RES
1 axi_araddr[5] *987:A 27.585 
*END

*D_NET *31 0.00416846
*CONN
*P axi_araddr[6] I
*I *988:A I *D sky130_fd_sc_hd__clkdlybuf4s25_1
*CAP
1 axi_araddr[6] 0.000849656
2 *988:A 0.000849656
3 *988:A axi_rdata[5] 0.000562539
4 *988:A *792:B 0.000202641
5 *988:A *793:A 7.89108e-05
6 *988:A *793:B 0.000231411
7 *988:A *794:B 0.000573683
8 *988:A *990:A 0.000435987
9 *988:A *210:18 0.000111293
10 *988:A *248:8 4.66108e-05
11 *988:A *281:12 0.000226074
12 *987:A *988:A 0
*RES
1 axi_araddr[6] *988:A 29.085 
*END

*D_NET *32 0.00489128
*CONN
*P axi_araddr[7] I
*I *990:A I *D sky130_fd_sc_hd__clkdlybuf4s25_1
*CAP
1 axi_araddr[7] 0.000578717
2 *990:A 0.000578717
3 *990:A axi_rdata[7] 0.00113467
4 *990:A *791:A 4.89295e-05
5 *990:A *793:B 3.09164e-05
6 *990:A *794:B 0.000362863
7 *990:A *894:B 0.00056162
8 *990:A *992:A 0.000443149
9 *990:A *1030:A 0.000184234
10 *990:A *1033:A 0.000531478
11 *988:A *990:A 0.000435987
*RES
1 axi_araddr[7] *990:A 29.775 
*END

*D_NET *33 0.00149778
*CONN
*P axi_araddr[8] I
*I *991:A I *D sky130_fd_sc_hd__clkdlybuf4s25_1
*CAP
1 axi_araddr[8] 0.000537164
2 *991:A 0.000537164
3 *991:A axi_rdata[9] 0
4 *991:A *795:B 2.75229e-05
5 *991:A *796:A 0
6 *970:A *991:A 0.000395933
*RES
1 axi_araddr[8] *991:A 15.345 
*END

*D_NET *34 0.00419037
*CONN
*P axi_araddr[9] I
*I *992:A I *D sky130_fd_sc_hd__clkdlybuf4s25_1
*CAP
1 axi_araddr[9] 0.000819265
2 *992:A 0.000819265
3 *992:A axi_rdata[6] 0.00130592
4 *992:A *793:B 0.00035345
5 *992:A *903:RESET_B 0.000354653
6 *992:A *940:A 5.77743e-05
7 *992:A *1032:A 3.68942e-05
8 *990:A *992:A 0.000443149
*RES
1 axi_araddr[9] *992:A 28.3425 
*END

*D_NET *35 0.000931194
*CONN
*P axi_arready O
*I *1002:X O *D sky130_fd_sc_hd__clkdlybuf4s25_1
*CAP
1 axi_arready 0.00041611
2 *1002:X 0.00041611
3 axi_arready axi_bresp[1] 4.78735e-05
4 axi_arready *936:A 5.11015e-05
*RES
1 *1002:X axi_arready 10.0692 
*END

*D_NET *36 0.00133108
*CONN
*P axi_arvalid I
*I *936:A I *D sky130_fd_sc_hd__buf_2
*CAP
1 axi_arvalid 0.000423202
2 *936:A 0.000423202
3 *936:A axi_bresp[1] 0.000147403
4 *936:A *149:14 0.000286168
5 axi_arready *936:A 5.11015e-05
*RES
1 axi_arvalid *936:A 9.55683 
*END

*D_NET *69 0.00111438
*CONN
*P axi_awready O
*I *1003:X O *D sky130_fd_sc_hd__clkdlybuf4s25_1
*CAP
1 axi_awready 0.000393585
2 *1003:X 0.000393585
3 axi_awready axi_rresp[0] 2.07063e-05
4 axi_awready *937:A 0.00028294
5 axi_awready *1003:A 0
6 axi_awready *149:14 0
7 *998:A axi_awready 2.35678e-05
*RES
1 *1003:X axi_awready 7.76663 
*END

*D_NET *70 0.00182051
*CONN
*P axi_awvalid I
*I *937:A I *D sky130_fd_sc_hd__buf_2
*CAP
1 axi_awvalid 0.000430614
2 *937:A 0.000430614
3 *937:A axi_rresp[0] 0.000338909
4 *937:A gpio_out[6] 4.65515e-05
5 *937:A *1003:A 2.75145e-05
6 *937:A *1043:A 0.000232111
7 *937:A *373:8 0
8 axi_awready *937:A 0.00028294
9 *997:A *937:A 3.12517e-05
*RES
1 axi_awvalid *937:A 11.3418 
*END

*D_NET *72 0.000770471
*CONN
*P axi_bresp[0] O
*I *1049:LO O *D sky130_fd_sc_hd__conb_1
*CAP
1 axi_bresp[0] 0.000385235
2 *1049:LO 0.000385235
3 axi_bresp[0] *811:B 0
4 *975:A axi_bresp[0] 0
*RES
1 *1049:LO axi_bresp[0] 5.73233 
*END

*D_NET *73 0.000956795
*CONN
*P axi_bresp[1] O
*I *1046:LO O *D sky130_fd_sc_hd__conb_1
*CAP
1 axi_bresp[1] 0.000380759
2 *1046:LO 0.000380759
3 axi_bresp[1] *149:14 0
4 axi_arready axi_bresp[1] 4.78735e-05
5 *936:A axi_bresp[1] 0.000147403
*RES
1 *1046:LO axi_bresp[1] 6.11837 
*END

*D_NET *74 0.00185232
*CONN
*P axi_bvalid O
*I *1050:HI O *D sky130_fd_sc_hd__conb_1
*CAP
1 axi_bvalid 0.000583504
2 *1050:HI 0.000583504
3 axi_bvalid axi_rdata[1] 5.83121e-06
4 axi_bvalid axi_rdata[30] 2.59926e-05
5 axi_bvalid *820:A 0
6 axi_bvalid *820:B 0.000275553
7 axi_bvalid *894:B 0
8 axi_bvalid *1027:A 0.000347023
9 axi_bvalid *1045:A 3.09164e-05
*RES
1 *1050:HI axi_bvalid 16.065 
*END

*D_NET *75 0.00417877
*CONN
*P axi_rdata[0] O
*I *1004:X O *D sky130_fd_sc_hd__clkdlybuf4s25_1
*CAP
1 axi_rdata[0] 0.000999375
2 *1004:X 0.000999375
3 axi_rdata[0] *788:B 0.000795168
4 axi_rdata[0] *790:B 0.000283888
5 axi_rdata[0] *894:B 0.000163012
6 axi_rdata[0] *941:A 2.16825e-05
7 axi_rdata[0] *1004:A 2.49909e-05
8 axi_rdata[0] *247:31 4.85532e-05
9 axi_rdata[0] *263:51 0.000482199
10 *967:A axi_rdata[0] 0
11 *970:A axi_rdata[0] 0.000169684
12 *982:A axi_rdata[0] 0
13 *985:A axi_rdata[0] 0.000190838
*RES
1 *1004:X axi_rdata[0] 28.095 
*END

*D_NET *76 0.00314522
*CONN
*P axi_rdata[10] O
*I *1005:X O *D sky130_fd_sc_hd__clkdlybuf4s25_1
*CAP
1 axi_rdata[10] 0.000560612
2 *1005:X 0.000560612
3 axi_rdata[10] gpio_out[2] 0.000742216
4 axi_rdata[10] gpio_out[4] 0.000603455
5 axi_rdata[10] gpio_out[5] 4.40073e-05
6 *978:A axi_rdata[10] 0.000634318
*RES
1 *1005:X axi_rdata[10] 15.6284 
*END

*D_NET *77 0.00296967
*CONN
*P axi_rdata[11] O
*I *1006:X O *D sky130_fd_sc_hd__clkdlybuf4s25_1
*CAP
1 axi_rdata[11] 0.000917959
2 *1006:X 0.000917959
3 axi_rdata[11] gpio_out[3] 0
4 axi_rdata[11] *805:A 0.000162404
5 axi_rdata[11] *806:B 0
6 axi_rdata[11] *859:A 3.39151e-05
7 axi_rdata[11] *860:A 0
8 axi_rdata[11] *860:B 4.22535e-05
9 axi_rdata[11] *861:C 0.000176647
10 axi_rdata[11] *861:D 8.8266e-05
11 axi_rdata[11] *915:RESET_B 0.000100308
12 axi_rdata[11] *226:10 0.000124003
13 *968:A axi_rdata[11] 0.000405953
14 *969:A axi_rdata[11] 0
15 *1000:A axi_rdata[11] 0
*RES
1 *1006:X axi_rdata[11] 23.8687 
*END

*D_NET *78 0.00397057
*CONN
*P axi_rdata[12] O
*I *1007:X O *D sky130_fd_sc_hd__clkdlybuf4s25_1
*CAP
1 axi_rdata[12] 0.00135955
2 *1007:X 0.00135955
3 axi_rdata[12] axi_rdata[13] 0.000259434
4 axi_rdata[12] gpio_out[2] 0
5 axi_rdata[12] gpio_out[5] 9.70043e-06
6 axi_rdata[12] *961:A 0.000178439
7 axi_rdata[12] *365:193 0
8 *995:A axi_rdata[12] 0.000403433
9 *996:A axi_rdata[12] 0.000400474
*RES
1 *1007:X axi_rdata[12] 10.9425 
*END

*D_NET *79 0.00450634
*CONN
*P axi_rdata[13] O
*I *1008:X O *D sky130_fd_sc_hd__clkdlybuf4s25_1
*CAP
1 axi_rdata[13] 0.00132472
2 *1008:X 0.00132472
3 axi_rdata[13] gpio_out[4] 0.000350978
4 axi_rdata[13] gpio_out[5] 0.000701309
5 axi_rdata[13] *800:A 0.000159721
6 axi_rdata[13] *1008:A 0.000385464
7 axi_rdata[12] axi_rdata[13] 0.000259434
8 *996:A axi_rdata[13] 0
*RES
1 *1008:X axi_rdata[13] 23.7186 
*END

*D_NET *80 0.000996546
*CONN
*P axi_rdata[14] O
*I *1009:X O *D sky130_fd_sc_hd__clkdlybuf4s25_1
*CAP
1 axi_rdata[14] 0.000200646
2 *1009:X 0.000200646
3 axi_rdata[14] gpio_out[6] 0.000145128
4 axi_rdata[14] *1044:A 1.88597e-05
5 *997:A axi_rdata[14] 9.80839e-05
6 *998:A axi_rdata[14] 0.000333182
*RES
1 *1009:X axi_rdata[14] 6.11837 
*END

*D_NET *81 0.00303786
*CONN
*P axi_rdata[15] O
*I *1010:X O *D sky130_fd_sc_hd__clkdlybuf4s25_1
*CAP
1 axi_rdata[15] 0.00089071
2 *1010:X 0.00089071
3 axi_rdata[15] gpio_out[7] 0.000329954
4 axi_rdata[15] *799:B 0.000234674
5 axi_rdata[15] *802:B 0
6 axi_rdata[15] *933:CLK 0.000120655
7 axi_rdata[15] *1007:A 9.63937e-05
8 axi_rdata[15] *256:20 4.82863e-05
9 *989:A axi_rdata[15] 0.000325091
10 *995:A axi_rdata[15] 0.000101386
*RES
1 *1010:X axi_rdata[15] 17.7134 
*END

*D_NET *82 0.00357184
*CONN
*P axi_rdata[16] O
*I *1011:X O *D sky130_fd_sc_hd__clkdlybuf4s25_1
*CAP
1 axi_rdata[16] 0.00147057
2 *1011:X 0.00147057
3 axi_rdata[16] *1011:A 0.000409031
4 *999:A axi_rdata[16] 0.000221659
5 *1000:A axi_rdata[16] 0
*RES
1 *1011:X axi_rdata[16] 25.2638 
*END

*D_NET *83 0.00364531
*CONN
*P axi_rdata[17] O
*I *1012:X O *D sky130_fd_sc_hd__clkdlybuf4s25_1
*CAP
1 axi_rdata[17] 0.00108548
2 *1012:X 0.00108548
3 axi_rdata[17] axi_rdata[18] 0.000306863
4 axi_rdata[17] axi_rdata[19] 0.000140924
5 axi_rdata[17] *807:A 0
6 axi_rdata[17] *916:CLK 0.000154488
7 axi_rdata[17] *917:D 7.23533e-05
8 axi_rdata[17] *1014:A 0.000191948
9 axi_rdata[17] *1040:A 0
10 axi_rdata[17] *228:45 1.83756e-05
11 axi_rdata[17] *228:73 0.000176331
12 axi_rdata[17] *251:47 0.000139238
13 *968:A axi_rdata[17] 0.000273836
14 *969:A axi_rdata[17] 0
*RES
1 *1012:X axi_rdata[17] 32.9388 
*END

*D_NET *84 0.0034812
*CONN
*P axi_rdata[18] O
*I *1013:X O *D sky130_fd_sc_hd__clkdlybuf4s25_1
*CAP
1 axi_rdata[18] 0.00134518
2 *1013:X 0.00134518
3 axi_rdata[18] gpio_out[3] 0.000284233
4 axi_rdata[18] *805:B 5.36384e-06
5 axi_rdata[17] axi_rdata[18] 0.000306863
6 *968:A axi_rdata[18] 9.19172e-05
7 *1000:A axi_rdata[18] 0.000102472
*RES
1 *1013:X axi_rdata[18] 33.3737 
*END

*D_NET *85 0.00121017
*CONN
*P axi_rdata[19] O
*I *1014:X O *D sky130_fd_sc_hd__clkdlybuf4s25_1
*CAP
1 axi_rdata[19] 0.000534624
2 *1014:X 0.000534624
3 axi_rdata[17] axi_rdata[19] 0.000140924
4 *969:A axi_rdata[19] 0
*RES
1 *1014:X axi_rdata[19] 13.6687 
*END

*D_NET *86 0.00298321
*CONN
*P axi_rdata[1] O
*I *1015:X O *D sky130_fd_sc_hd__clkdlybuf4s25_1
*CAP
1 axi_rdata[1] 0.000672708
2 *1015:X 0.000672708
3 axi_rdata[1] axi_rdata[30] 0.000581981
4 axi_rdata[1] axi_rdata[3] 0
5 axi_rdata[1] *790:A 3.45679e-05
6 axi_rdata[1] *820:B 9.77867e-05
7 axi_rdata[1] *1027:A 0.000132756
8 axi_rdata[1] *1029:A 0.000111448
9 axi_bvalid axi_rdata[1] 5.83121e-06
10 *982:A axi_rdata[1] 0.000247081
11 *985:A axi_rdata[1] 0.00042634
*RES
1 *1015:X axi_rdata[1] 21.63 
*END

*D_NET *87 0.00285482
*CONN
*P axi_rdata[20] O
*I *1016:X O *D sky130_fd_sc_hd__clkdlybuf4s25_1
*CAP
1 axi_rdata[20] 0.000779094
2 *1016:X 0.000779094
3 axi_rdata[20] axi_rdata[21] 0.000469029
4 axi_rdata[20] *808:A 0.000265924
5 axi_rdata[20] *866:A 4.58557e-05
6 axi_rdata[20] *1016:A 0
7 axi_rdata[20] *264:8 2.17886e-05
8 *972:A axi_rdata[20] 0.000494034
9 *973:A axi_rdata[20] 0
*RES
1 *1016:X axi_rdata[20] 21.5438 
*END

*D_NET *88 0.0025023
*CONN
*P axi_rdata[21] O
*I *1017:X O *D sky130_fd_sc_hd__clkdlybuf4s25_1
*CAP
1 axi_rdata[21] 0.00080587
2 *1017:X 0.00080587
3 axi_rdata[20] axi_rdata[21] 0.000469029
4 *972:A axi_rdata[21] 0.000421535
*RES
1 *1017:X axi_rdata[21] 19.1887 
*END

*D_NET *89 0.00248182
*CONN
*P axi_rdata[22] O
*I *1018:X O *D sky130_fd_sc_hd__clkdlybuf4s25_1
*CAP
1 axi_rdata[22] 0.000811815
2 *1018:X 0.000811815
3 axi_rdata[22] axi_rdata[24] 0.000301025
4 axi_rdata[22] *811:A 0.00015639
5 axi_rdata[22] *1021:A 0.000127757
6 *974:A axi_rdata[22] 0.000149095
7 *975:A axi_rdata[22] 0.000123921
*RES
1 *1018:X axi_rdata[22] 13.7354 
*END

*D_NET *90 0.00237884
*CONN
*P axi_rdata[23] O
*I *1019:X O *D sky130_fd_sc_hd__clkdlybuf4s25_1
*CAP
1 axi_rdata[23] 0.000547528
2 *1019:X 0.000547528
3 axi_rdata[23] axi_rdata[25] 6.60704e-05
4 axi_rdata[23] *1021:A 0.000160007
5 *974:A axi_rdata[23] 0.000816248
6 *975:A axi_rdata[23] 0
7 *976:A axi_rdata[23] 0.000241455
*RES
1 *1019:X axi_rdata[23] 14.9123 
*END

*D_NET *91 0.00322865
*CONN
*P axi_rdata[24] O
*I *1020:X O *D sky130_fd_sc_hd__clkdlybuf4s25_1
*CAP
1 axi_rdata[24] 0.000723699
2 *1020:X 0.000723699
3 axi_rdata[24] axi_rdata[25] 0
4 axi_rdata[24] *812:B 0.000242321
5 axi_rdata[24] *1019:A 0.000471294
6 axi_rdata[24] *1021:A 0.000196225
7 axi_rdata[22] axi_rdata[24] 0.000301025
8 *974:A axi_rdata[24] 0.000364123
9 *975:A axi_rdata[24] 0.000123921
10 *976:A axi_rdata[24] 8.23457e-05
*RES
1 *1020:X axi_rdata[24] 16.8387 
*END

*D_NET *92 0.00366139
*CONN
*P axi_rdata[25] O
*I *1021:X O *D sky130_fd_sc_hd__clkdlybuf4s25_1
*CAP
1 axi_rdata[25] 0.000855272
2 *1021:X 0.000855272
3 axi_rdata[25] axi_rdata[26] 0.000540752
4 axi_rdata[25] *810:A 4.70343e-05
5 axi_rdata[25] *811:A 0.000114492
6 axi_rdata[25] *811:B 0.000123751
7 axi_rdata[25] *812:B 0.000817289
8 axi_rdata[25] *1020:A 0
9 axi_rdata[25] *269:10 0
10 axi_rdata[23] axi_rdata[25] 6.60704e-05
11 axi_rdata[24] axi_rdata[25] 0
12 *974:A axi_rdata[25] 0
13 *976:A axi_rdata[25] 0.000241455
*RES
1 *1021:X axi_rdata[25] 19.6517 
*END

*D_NET *93 0.00376415
*CONN
*P axi_rdata[26] O
*I *1022:X O *D sky130_fd_sc_hd__clkdlybuf4s25_1
*CAP
1 axi_rdata[26] 0.000833223
2 *1022:X 0.000833223
3 axi_rdata[26] axi_rdata[27] 0.000869008
4 axi_rdata[26] *881:B 0.000126833
5 axi_rdata[26] *881:C 4.75368e-05
6 axi_rdata[26] *883:A 2.10433e-05
7 axi_rdata[26] *268:25 0.00028743
8 axi_rdata[26] *365:54 7.22848e-05
9 axi_rdata[25] axi_rdata[26] 0.000540752
10 *979:A axi_rdata[26] 0.000132816
*RES
1 *1022:X axi_rdata[26] 11.8955 
*END

*D_NET *94 0.00380613
*CONN
*P axi_rdata[27] O
*I *1023:X O *D sky130_fd_sc_hd__clkdlybuf4s25_1
*CAP
1 axi_rdata[27] 0.000585942
2 *1023:X 0.000585942
3 axi_rdata[27] axi_rdata[28] 0.000119355
4 axi_rdata[27] *814:A 6.97256e-05
5 axi_rdata[27] *881:C 0.000121608
6 axi_rdata[27] *891:C 5.71851e-05
7 axi_rdata[27] *893:B 3.00381e-05
8 axi_rdata[27] *1022:A 5.95448e-05
9 axi_rdata[27] *1023:A 0
10 axi_rdata[27] *1028:A 0.000160836
11 axi_rdata[27] *241:31 2.2142e-05
12 axi_rdata[27] *270:10 1.05827e-05
13 axi_rdata[27] *270:12 0.000126613
14 axi_rdata[27] *271:8 0.000148035
15 axi_rdata[26] axi_rdata[27] 0.000869008
16 *979:A axi_rdata[27] 0.000812059
17 *984:A axi_rdata[27] 2.75145e-05
*RES
1 *1023:X axi_rdata[27] 13.0742 
*END

*D_NET *95 0.00522894
*CONN
*P axi_rdata[28] O
*I *1024:X O *D sky130_fd_sc_hd__clkdlybuf4s25_1
*CAP
1 axi_rdata[28] 0.00088826
2 *1024:X 0.00088826
3 axi_rdata[28] axi_rdata[31] 0.000776473
4 axi_rdata[28] *815:B 0.000579099
5 axi_rdata[28] *894:A 2.38557e-05
6 axi_rdata[28] *1023:A 0
7 axi_rdata[28] *1024:A 0.000842267
8 axi_rdata[28] *1028:A 4.41506e-05
9 axi_rdata[28] *241:37 0.000316415
10 axi_rdata[27] axi_rdata[28] 0.000119355
11 *980:A axi_rdata[28] 0.000247172
12 *984:A axi_rdata[28] 0.000503634
*RES
1 *1024:X axi_rdata[28] 19.1509 
*END

*D_NET *96 0.005278
*CONN
*P axi_rdata[29] O
*I *1025:X O *D sky130_fd_sc_hd__clkdlybuf4s25_1
*CAP
1 axi_rdata[29] 0.00111716
2 *1025:X 0.00111716
3 axi_rdata[29] axi_rdata[30] 0.000332262
4 axi_rdata[29] gpio_out[1] 0.00103776
5 axi_rdata[29] *820:A 0.000348252
6 axi_rdata[29] *821:B 0.000200615
7 axi_rdata[29] *893:A 0
8 axi_rdata[29] *894:A 0
9 axi_rdata[29] *927:D 0
10 axi_rdata[29] *1026:A 4.99619e-05
11 axi_rdata[29] *1036:A 8.57321e-05
12 axi_rdata[29] *1045:A 0.000186669
13 *981:A axi_rdata[29] 0.00066191
14 *983:A axi_rdata[29] 0.000140515
*RES
1 *1025:X axi_rdata[29] 25.2663 
*END

*D_NET *97 0.00333856
*CONN
*P axi_rdata[2] O
*I *1026:X O *D sky130_fd_sc_hd__clkdlybuf4s25_1
*CAP
1 axi_rdata[2] 0.00137291
2 *1026:X 0.00137291
3 axi_rdata[2] axi_rdata[3] 0
4 axi_rdata[2] axi_wready 0.000306979
5 axi_rdata[2] *789:A 1.12803e-05
6 axi_rdata[2] *897:D 9.47454e-05
7 axi_rdata[2] *898:CLK 1.61831e-05
8 axi_rdata[2] *898:D 6.0011e-05
9 axi_rdata[2] *1015:A 0
10 axi_rdata[2] *1029:A 0.000103529
*RES
1 *1026:X axi_rdata[2] 24.765 
*END

*D_NET *98 0.00693538
*CONN
*P axi_rdata[30] O
*I *1027:X O *D sky130_fd_sc_hd__clkdlybuf4s25_1
*CAP
1 axi_rdata[30] 0.00157768
2 *1027:X 0.00157768
3 axi_rdata[30] gpio_out[0] 0.00118542
4 axi_rdata[30] gpio_out[1] 0.000327201
5 axi_rdata[30] *820:A 0.000394699
6 axi_rdata[30] *820:B 6.90876e-05
7 axi_rdata[30] *888:B 0
8 axi_rdata[30] *962:A 0.000111083
9 axi_rdata[30] *993:A 0.000146123
10 axi_rdata[30] *1027:A 0.000606173
11 axi_bvalid axi_rdata[30] 2.59926e-05
12 axi_rdata[1] axi_rdata[30] 0.000581981
13 axi_rdata[29] axi_rdata[30] 0.000332262
*RES
1 *1027:X axi_rdata[30] 36.1241 
*END

*D_NET *99 0.00492863
*CONN
*P axi_rdata[31] O
*I *1028:X O *D sky130_fd_sc_hd__clkdlybuf4s25_1
*CAP
1 axi_rdata[31] 0.000985524
2 *1028:X 0.000985524
3 axi_rdata[31] *889:C 0.000196257
4 axi_rdata[31] *894:A 0.00058839
5 axi_rdata[31] *945:A 3.86439e-05
6 axi_rdata[31] *1028:A 2.75229e-05
7 axi_rdata[31] *244:14 9.11786e-05
8 axi_rdata[31] *272:16 0.000538544
9 axi_rdata[28] axi_rdata[31] 0.000776473
10 *981:A axi_rdata[31] 0.000700571
11 *983:A axi_rdata[31] 0
*RES
1 *1028:X axi_rdata[31] 12.5099 
*END

*D_NET *100 0.00640373
*CONN
*P axi_rdata[3] O
*I *1029:X O *D sky130_fd_sc_hd__clkdlybuf4s25_1
*CAP
1 axi_rdata[3] 0.00163108
2 *1029:X 0.00163108
3 axi_rdata[3] *790:A 0.000456077
4 axi_rdata[3] *815:B 5.08304e-06
5 axi_rdata[3] *818:B 2.74988e-05
6 axi_rdata[3] *821:A 0.000184426
7 axi_rdata[3] *822:B 0.000856723
8 axi_rdata[3] *881:D 0.00039046
9 axi_rdata[3] *887:A 0.000511923
10 axi_rdata[3] *898:RESET_B 0
11 axi_rdata[3] *924:D 0.000247475
12 axi_rdata[3] *945:A 0.000148531
13 axi_rdata[3] *1028:A 8.41703e-06
14 axi_rdata[3] *241:37 4.19967e-05
15 axi_rdata[3] *249:108 1.58707e-05
16 axi_rdata[1] axi_rdata[3] 0
17 axi_rdata[2] axi_rdata[3] 0
18 *982:A axi_rdata[3] 0.000247081
19 *985:A axi_rdata[3] 0
*RES
1 *1029:X axi_rdata[3] 42.165 
*END

*D_NET *101 0.00374151
*CONN
*P axi_rdata[4] O
*I *1030:X O *D sky130_fd_sc_hd__clkdlybuf4s25_1
*CAP
1 axi_rdata[4] 0.00124648
2 *1030:X 0.00124648
3 axi_rdata[4] *791:B 5.16348e-05
4 axi_rdata[4] *1030:A 0.000815528
5 axi_rdata[4] *1033:A 0.000253575
6 *986:A axi_rdata[4] 0.000127805
*RES
1 *1030:X axi_rdata[4] 26.535 
*END

*D_NET *102 0.00505408
*CONN
*P axi_rdata[5] O
*I *1031:X O *D sky130_fd_sc_hd__clkdlybuf4s25_1
*CAP
1 axi_rdata[5] 0.00125111
2 *1031:X 0.00125111
3 axi_rdata[5] gpio_out[0] 0.00147483
4 axi_rdata[5] *793:A 0.000213193
5 axi_rdata[5] *1037:A 0.000301296
6 *987:A axi_rdata[5] 0
7 *988:A axi_rdata[5] 0.000562539
*RES
1 *1031:X axi_rdata[5] 18.9733 
*END

*D_NET *103 0.0039491
*CONN
*P axi_rdata[6] O
*I *1032:X O *D sky130_fd_sc_hd__clkdlybuf4s25_1
*CAP
1 axi_rdata[6] 0.000660221
2 *1032:X 0.000660221
3 axi_rdata[6] axi_rdata[7] 0.000429646
4 axi_rdata[6] axi_rdata[9] 0
5 axi_rdata[6] *1032:A 0.000804933
6 axi_rdata[6] *205:20 8.81607e-05
7 *992:A axi_rdata[6] 0.00130592
*RES
1 *1032:X axi_rdata[6] 25.155 
*END

*D_NET *104 0.00549154
*CONN
*P axi_rdata[7] O
*I *1033:X O *D sky130_fd_sc_hd__clkdlybuf4s25_1
*CAP
1 axi_rdata[7] 0.00146785
2 *1033:X 0.00146785
3 axi_rdata[7] axi_rdata[9] 0.000429646
4 axi_rdata[7] *794:B 0.000500251
5 axi_rdata[7] *894:B 6.16141e-05
6 axi_rdata[6] axi_rdata[7] 0.000429646
7 *990:A axi_rdata[7] 0.00113467
*RES
1 *1033:X axi_rdata[7] 30.375 
*END

*D_NET *105 0.00177813
*CONN
*P axi_rdata[8] O
*I *1034:X O *D sky130_fd_sc_hd__clkdlybuf4s25_1
*CAP
1 axi_rdata[8] 0.00053393
2 *1034:X 0.00053393
3 axi_rdata[8] *894:B 2.50702e-05
4 *967:A axi_rdata[8] 0.000235573
5 *970:A axi_rdata[8] 0.000263556
6 *982:A axi_rdata[8] 0.000186072
*RES
1 *1034:X axi_rdata[8] 14.955 
*END

*D_NET *106 0.00241058
*CONN
*P axi_rdata[9] O
*I *1035:X O *D sky130_fd_sc_hd__clkdlybuf4s25_1
*CAP
1 axi_rdata[9] 0.00067142
2 *1035:X 0.00067142
3 axi_rdata[9] *796:A 0
4 axi_rdata[9] *796:B 0.000380698
5 axi_rdata[9] *824:A1 3.02698e-05
6 axi_rdata[9] *824:A2 1.11025e-05
7 axi_rdata[9] *824:B1 7.03276e-05
8 axi_rdata[9] *1032:A 0.000145699
9 axi_rdata[6] axi_rdata[9] 0
10 axi_rdata[7] axi_rdata[9] 0.000429646
11 *991:A axi_rdata[9] 0
*RES
1 *1035:X axi_rdata[9] 20.805 
*END

*D_NET *108 0.00137314
*CONN
*P axi_rresp[0] O
*I *1047:LO O *D sky130_fd_sc_hd__conb_1
*CAP
1 axi_rresp[0] 0.000366581
2 *1047:LO 0.000366581
3 axi_rresp[0] gpio_out[6] 0
4 axi_awready axi_rresp[0] 2.07063e-05
5 *937:A axi_rresp[0] 0.000338909
6 *997:A axi_rresp[0] 0.000280366
*RES
1 *1047:LO axi_rresp[0] 8.66837 
*END

*D_NET *109 0.000936262
*CONN
*P axi_rresp[1] O
*I *1048:LO O *D sky130_fd_sc_hd__conb_1
*CAP
1 axi_rresp[1] 0.000395567
2 *1048:LO 0.000395567
3 axi_rresp[1] axi_rvalid 0.000145128
*RES
1 *1048:LO axi_rresp[1] 8.34877 
*END

*D_NET *110 0.000810564
*CONN
*P axi_rvalid O
*I *1051:HI O *D sky130_fd_sc_hd__conb_1
*CAP
1 axi_rvalid 0.000332718
2 *1051:HI 0.000332718
3 axi_rresp[1] axi_rvalid 0.000145128
*RES
1 *1051:HI axi_rvalid 7.90223 
*END

*D_NET *143 0.00245722
*CONN
*P axi_wready O
*I *1036:X O *D sky130_fd_sc_hd__clkdlybuf4s25_1
*CAP
1 axi_wready 0.000811284
2 *1036:X 0.000811284
3 axi_wready uart_tx 8.41703e-06
4 axi_wready *898:CLK 7.00889e-06
5 axi_wready *938:A 0.000469013
6 axi_wready *1025:A 1.93834e-05
7 axi_wready *1037:A 2.38557e-05
8 axi_rdata[2] axi_wready 0.000306979
*RES
1 *1036:X axi_wready 13.6419 
*END

*D_NET *148 0.00157638
*CONN
*P axi_wvalid I
*I *938:A I *D sky130_fd_sc_hd__buf_2
*CAP
1 axi_wvalid 0.000405033
2 *938:A 0.000405033
3 *938:A gpio_out[0] 0.000184293
4 *938:A uart_tx 0
5 *938:A *820:A 0
6 *938:A *893:A 6.06593e-05
7 *938:A *1025:A 1.15688e-05
8 *938:A *1037:A 4.07813e-05
9 axi_wready *938:A 0.000469013
*RES
1 axi_wvalid *938:A 6.76673 
*END

*D_NET *149 0.00693878
*CONN
*P clk I
*I *939:A I *D sky130_fd_sc_hd__clkbuf_16
*CAP
1 clk 0.00273411
2 *939:A 7.61252e-05
3 *149:14 0.00281024
4 *149:14 *853:C 0
5 *149:14 *860:A 0
6 *149:14 *863:A2 0
7 *149:14 *907:CLK 8.58997e-05
8 *149:14 *911:RESET_B 0.000363636
9 *149:14 *914:D 1.80267e-05
10 *149:14 *914:RESET_B 0
11 *149:14 *915:CLK 3.14598e-05
12 *149:14 *931:D 0
13 *149:14 *222:10 0
14 *149:14 *247:57 1.33487e-05
15 *149:14 *250:89 0.000193491
16 *149:14 *250:100 0.000224717
17 *149:14 *250:109 6.63721e-05
18 *149:14 *250:150 1.52845e-05
19 *149:14 *255:14 1.19776e-05
20 *149:14 *259:16 7.92125e-06
21 *149:14 *259:22 0
22 axi_awready *149:14 0
23 axi_bresp[1] *149:14 0
24 *936:A *149:14 0.000286168
*RES
1 clk *149:14 29.2711 
2 *149:14 *939:A 2.9125 
*END

*D_NET *159 0.0124223
*CONN
*P gpio_out[0] O
*I *1037:X O *D sky130_fd_sc_hd__clkdlybuf4s25_1
*CAP
1 gpio_out[0] 0.00429855
2 *1037:X 0.00429855
3 gpio_out[0] *900:D 8.7152e-06
4 gpio_out[0] *994:A 0.000153278
5 gpio_out[0] *1037:A 0.000540265
6 axi_rdata[30] gpio_out[0] 0.00118542
7 axi_rdata[5] gpio_out[0] 0.00147483
8 *938:A gpio_out[0] 0.000184293
9 *983:A gpio_out[0] 0.000278371
*RES
1 *1037:X gpio_out[0] 27.3604 
*END

*D_NET *160 0.00455634
*CONN
*P gpio_out[1] O
*I *1038:X O *D sky130_fd_sc_hd__clkdlybuf4s25_1
*CAP
1 gpio_out[1] 0.000733352
2 *1038:X 0.000733352
3 gpio_out[1] *817:B 0.000409828
4 gpio_out[1] *894:A 0
5 gpio_out[1] *1045:A 0.000394092
6 gpio_out[1] *365:10 8.57024e-05
7 axi_rdata[29] gpio_out[1] 0.00103776
8 axi_rdata[30] gpio_out[1] 0.000327201
9 *983:A gpio_out[1] 0.000835061
*RES
1 *1038:X gpio_out[1] 18.1696 
*END

*D_NET *161 0.00246512
*CONN
*P gpio_out[2] O
*I *1039:X O *D sky130_fd_sc_hd__clkdlybuf4s25_1
*CAP
1 gpio_out[2] 0.000359796
2 *1039:X 0.000359796
3 gpio_out[2] gpio_out[4] 0.000235927
4 gpio_out[2] gpio_out[5] 5.42895e-05
5 gpio_out[2] *1039:A 0.000586275
6 axi_rdata[10] gpio_out[2] 0.000742216
7 axi_rdata[12] gpio_out[2] 0
8 *978:A gpio_out[2] 8.26522e-05
9 *996:A gpio_out[2] 4.41742e-05
*RES
1 *1039:X gpio_out[2] 12.8666 
*END

*D_NET *162 0.00129404
*CONN
*P gpio_out[3] O
*I *1040:X O *D sky130_fd_sc_hd__clkdlybuf4s25_1
*CAP
1 gpio_out[3] 0.000486257
2 *1040:X 0.000486257
3 axi_rdata[11] gpio_out[3] 0
4 axi_rdata[18] gpio_out[3] 0.000284233
5 *969:A gpio_out[3] 3.72916e-05
*RES
1 *1040:X gpio_out[3] 13.6687 
*END

*D_NET *163 0.00352954
*CONN
*P gpio_out[4] O
*I *1041:X O *D sky130_fd_sc_hd__clkdlybuf4s25_1
*CAP
1 gpio_out[4] 0.000842321
2 *1041:X 0.000842321
3 gpio_out[4] gpio_out[5] 0.000274626
4 gpio_out[4] *1005:A 0.000122821
5 gpio_out[4] *1041:A 8.53011e-05
6 axi_rdata[10] gpio_out[4] 0.000603455
7 axi_rdata[13] gpio_out[4] 0.000350978
8 gpio_out[2] gpio_out[4] 0.000235927
9 *978:A gpio_out[4] 8.94418e-05
10 *996:A gpio_out[4] 8.23457e-05
*RES
1 *1041:X gpio_out[4] 22.1753 
*END

*D_NET *164 0.00363214
*CONN
*P gpio_out[5] O
*I *1042:X O *D sky130_fd_sc_hd__clkdlybuf4s25_1
*CAP
1 gpio_out[5] 0.00111557
2 *1042:X 0.00111557
3 gpio_out[5] *797:A 1.19028e-05
4 gpio_out[5] *797:B 0.000133472
5 gpio_out[5] *1042:A 2.69217e-05
6 axi_rdata[10] gpio_out[5] 4.40073e-05
7 axi_rdata[12] gpio_out[5] 9.70043e-06
8 axi_rdata[13] gpio_out[5] 0.000701309
9 gpio_out[2] gpio_out[5] 5.42895e-05
10 gpio_out[4] gpio_out[5] 0.000274626
11 *978:A gpio_out[5] 0.000144763
12 *996:A gpio_out[5] 0
*RES
1 *1042:X gpio_out[5] 20.0718 
*END

*D_NET *165 0.00124991
*CONN
*P gpio_out[6] O
*I *1043:X O *D sky130_fd_sc_hd__clkdlybuf4s25_1
*CAP
1 gpio_out[6] 0.00045655
2 *1043:X 0.00045655
3 gpio_out[6] *1043:A 0
4 axi_rdata[14] gpio_out[6] 0.000145128
5 axi_rresp[0] gpio_out[6] 0
6 *937:A gpio_out[6] 4.65515e-05
7 *997:A gpio_out[6] 0.000145128
*RES
1 *1043:X gpio_out[6] 10.9622 
*END

*D_NET *166 0.00305562
*CONN
*P gpio_out[7] O
*I *1044:X O *D sky130_fd_sc_hd__clkdlybuf4s25_1
*CAP
1 gpio_out[7] 0.000794922
2 *1044:X 0.000794922
3 gpio_out[7] *801:B 0.000293719
4 gpio_out[7] *802:B 3.16323e-05
5 gpio_out[7] *934:D 0
6 gpio_out[7] *934:RESET_B 6.23119e-05
7 gpio_out[7] *1009:A 0.000204367
8 gpio_out[7] *365:285 2.56523e-05
9 axi_rdata[15] gpio_out[7] 0.000329954
10 *989:A gpio_out[7] 0.000108436
11 *998:A gpio_out[7] 0.000409705
*RES
1 *1044:X gpio_out[7] 16.076 
*END

*D_NET *167 0.00120911
*CONN
*P rst_n I
*I *993:A I *D sky130_fd_sc_hd__buf_4
*CAP
1 rst_n 0.000299172
2 *993:A 0.000299172
3 *993:A *994:A 0.000319255
4 *993:A *1027:A 0.000145389
5 axi_rdata[30] *993:A 0.000146123
*RES
1 rst_n *993:A 6.75233 
*END

*D_NET *168 0.00989071
*CONN
*P uart_rx I
*I *994:A I *D sky130_fd_sc_hd__clkdlybuf4s25_1
*CAP
1 uart_rx 0.00401955
2 *994:A 0.00401955
3 *994:A uart_tx 0.000386256
4 *994:A *789:B 0.00017859
5 *994:A *792:A 0
6 *994:A *903:D 6.16467e-05
7 *994:A *1033:A 0
8 *994:A *1037:A 0
9 *994:A *281:20 0.000106494
10 gpio_out[0] *994:A 0.000153278
11 *987:A *994:A 0.00064608
12 *993:A *994:A 0.000319255
*RES
1 uart_rx *994:A 18.1647 
*END

*D_NET *169 0.00380248
*CONN
*P uart_tx O
*I *1045:X O *D sky130_fd_sc_hd__clkdlybuf4s25_1
*CAP
1 uart_tx 0.000872435
2 *1045:X 0.000872435
3 uart_tx *820:A 0
4 uart_tx *821:B 0.000113905
5 uart_tx *949:A 0.000336654
6 uart_tx *962:A 0.000307402
7 uart_tx *1001:A 0.000116853
8 uart_tx *1025:A 9.39439e-05
9 uart_tx *1027:A 0.000245977
10 uart_tx *1037:A 6.60395e-05
11 uart_tx *315:10 0.000132947
12 uart_tx *315:12 0.00024922
13 axi_wready uart_tx 8.41703e-06
14 *938:A uart_tx 0
15 *994:A uart_tx 0.000386256
*RES
1 *1045:X uart_tx 19.3604 
*END

*D_NET *170 0.000467129
*CONN
*I *896:D I *D sky130_fd_sc_hd__dfrtp_2
*I *786:Y O *D sky130_fd_sc_hd__inv_2
*CAP
1 *896:D 9.36643e-05
2 *786:Y 9.36643e-05
3 *896:D *252:10 0.000114649
4 *896:D *315:52 4.92062e-05
5 *970:A *896:D 0.000115945
*RES
1 *786:Y *896:D 9.375 
*END

*D_NET *171 0.000374145
*CONN
*I *906:D I *D sky130_fd_sc_hd__dfrtp_2
*I *842:Y O *D sky130_fd_sc_hd__nor2_2
*CAP
1 *906:D 0.000108332
2 *842:Y 0.000108332
3 *906:D *215:19 3.39064e-05
4 *906:D *253:10 0.000123573
*RES
1 *842:Y *906:D 9.465 
*END

*D_NET *172 0.000294541
*CONN
*I *907:D I *D sky130_fd_sc_hd__dfrtp_2
*I *845:Y O *D sky130_fd_sc_hd__nor2_2
*CAP
1 *907:D 3.59204e-05
2 *845:Y 3.59204e-05
3 *907:D *845:B 6.03895e-05
4 *907:D *217:14 0.000162311
*RES
1 *845:Y *907:D 4.685 
*END

*D_NET *173 0.000549295
*CONN
*I *908:D I *D sky130_fd_sc_hd__dfrtp_2
*I *846:X O *D sky130_fd_sc_hd__xor2_2
*CAP
1 *908:D 0.000107595
2 *846:X 0.000107595
3 *908:D *854:A2 0
4 *908:D *250:40 0.000183872
5 *908:D *256:20 9.44519e-05
6 *908:D *257:29 5.57814e-05
*RES
1 *846:X *908:D 10.05 
*END

*D_NET *174 0.000507923
*CONN
*I *909:D I *D sky130_fd_sc_hd__dfrtp_2
*I *849:Y O *D sky130_fd_sc_hd__nor2_2
*CAP
1 *909:D 5.37409e-05
2 *849:Y 5.37409e-05
3 *909:D *935:CLK 4.66108e-05
4 *909:D *935:D 2.75145e-05
5 *909:D *217:42 0.000163992
6 *909:D *257:29 0.000162325
*RES
1 *849:Y *909:D 9.54 
*END

*D_NET *175 0.000249247
*CONN
*I *910:D I *D sky130_fd_sc_hd__dfrtp_2
*I *851:X O *D sky130_fd_sc_hd__xor2_2
*CAP
1 *910:D 0.000115837
2 *851:X 0.000115837
3 *910:D *801:A 1.17409e-05
4 *910:D *848:B 0
5 *910:D *910:CLK 5.83121e-06
6 *910:D *934:D 0
*RES
1 *851:X *910:D 9.03 
*END

*D_NET *176 0.00125003
*CONN
*I *911:D I *D sky130_fd_sc_hd__dfrtp_2
*I *854:X O *D sky130_fd_sc_hd__o21ba_2
*CAP
1 *911:D 0.000456636
2 *854:X 0.000456636
3 *911:D *799:B 2.43251e-05
4 *911:D *852:D 3.64998e-06
5 *911:D *911:RESET_B 0.000308782
*RES
1 *854:X *911:D 14.28 
*END

*D_NET *177 0.000747736
*CONN
*I *912:D I *D sky130_fd_sc_hd__dfrtp_2
*I *856:X O *D sky130_fd_sc_hd__xor2_2
*CAP
1 *912:D 0.00029357
2 *856:X 0.00029357
3 *912:D *804:B 8.97462e-05
4 *912:D *912:CLK 7.08493e-05
*RES
1 *856:X *912:D 12.135 
*END

*D_NET *178 0.000466403
*CONN
*I *913:D I *D sky130_fd_sc_hd__dfrtp_2
*I *857:Y O *D sky130_fd_sc_hd__xnor2_2
*CAP
1 *913:D 0.000186523
2 *857:Y 0.000186523
3 *913:D *912:CLK 3.60024e-06
4 *913:D *259:22 8.97564e-05
*RES
1 *857:Y *913:D 10.575 
*END

*D_NET *179 0.00150403
*CONN
*I *914:D I *D sky130_fd_sc_hd__dfrtp_2
*I *860:Y O *D sky130_fd_sc_hd__nor2_2
*CAP
1 *914:D 0.000448876
2 *860:Y 0.000448876
3 *914:D *803:A 0
4 *914:D *859:D 7.35729e-05
5 *914:D *860:A 4.55103e-05
6 *914:D *912:RESET_B 0.000126679
7 *914:D *259:16 0
8 *914:D *260:10 9.42224e-05
9 *914:D *365:327 0.000248268
10 *149:14 *914:D 1.80267e-05
*RES
1 *860:Y *914:D 16.35 
*END

*D_NET *180 0.00248631
*CONN
*I *915:D I *D sky130_fd_sc_hd__dfrtp_2
*I *863:X O *D sky130_fd_sc_hd__o21ba_2
*CAP
1 *915:D 0.000932245
2 *863:X 0.000932245
3 *915:D *803:A 7.00782e-05
4 *915:D *804:B 0
5 *915:D *805:B 0
6 *915:D *863:A2 2.51875e-06
7 *915:D *863:B1_N 0.000235148
8 *915:D *913:RESET_B 7.81924e-05
9 *915:D *915:CLK 0.000128644
10 *915:D *915:RESET_B 0
11 *915:D *1013:A 0
12 *915:D *250:115 3.91176e-06
13 *915:D *259:16 0.000103329
*RES
1 *863:X *915:D 20.1 
*END

*D_NET *181 0.00154358
*CONN
*I *897:D I *D sky130_fd_sc_hd__dfrtp_2
*I *821:X O *D sky130_fd_sc_hd__and2_2
*CAP
1 *897:D 0.000320478
2 *821:X 0.000320478
3 *897:D *789:A 4.94326e-05
4 *897:D *822:B 1.23596e-05
5 *897:D *897:RESET_B 6.81362e-05
6 *897:D *898:D 0.000374727
7 *897:D *924:D 1.07797e-05
8 *897:D *966:A 0.000122279
9 *897:D *1029:A 0
10 *897:D *249:10 3.09164e-05
11 *897:D *249:16 0.000139245
12 axi_rdata[2] *897:D 9.47454e-05
*RES
1 *821:X *897:D 15.375 
*END

*D_NET *182 0.000323457
*CONN
*I *916:D I *D sky130_fd_sc_hd__dfrtp_2
*I *864:X O *D sky130_fd_sc_hd__xor2_2
*CAP
1 *916:D 7.97326e-05
2 *864:X 7.97326e-05
3 *916:D *807:A 0.000163992
4 *916:D *1014:A 0
*RES
1 *864:X *916:D 9.09 
*END

*D_NET *183 0.000913016
*CONN
*I *917:D I *D sky130_fd_sc_hd__dfrtp_2
*I *867:Y O *D sky130_fd_sc_hd__a21oi_2
*CAP
1 *917:D 0.000237928
2 *867:Y 0.000237928
3 *917:D *867:B1 9.47454e-05
4 *917:D *917:RESET_B 5.57726e-05
5 *917:D *228:41 7.63125e-05
6 *917:D *228:73 7.89767e-05
7 *917:D *251:47 5.89992e-05
8 axi_rdata[17] *917:D 7.23533e-05
*RES
1 *867:Y *917:D 12.1237 
*END

*D_NET *184 0.00185561
*CONN
*I *918:D I *D sky130_fd_sc_hd__dfrtp_2
*I *870:Y O *D sky130_fd_sc_hd__nor2_2
*CAP
1 *918:D 0.000448877
2 *870:Y 0.000448877
3 *918:D *869:A 4.82863e-05
4 *918:D *869:C 6.05595e-05
5 *918:D *870:B 0.00011949
6 *918:D *872:A 3.87723e-05
7 *918:D *872:B 5.97713e-05
8 *918:D *872:C 2.7914e-05
9 *918:D *873:D 2.49909e-05
10 *918:D *918:CLK 0.000119762
11 *918:D *1006:A 0.000150071
12 *918:D *1040:A 0.000160641
13 *918:D *228:16 8.57237e-05
14 *918:D *232:8 6.18754e-05
*RES
1 *870:Y *918:D 18.54 
*END

*D_NET *185 0.00109223
*CONN
*I *919:D I *D sky130_fd_sc_hd__dfrtp_2
*I *876:X O *D sky130_fd_sc_hd__o21ba_2
*CAP
1 *919:D 0.000392591
2 *876:X 0.000392591
3 *919:D *870:A 0
4 *919:D *876:A1 0.000307043
5 *919:D *235:23 0
*RES
1 *876:X *919:D 12.72 
*END

*D_NET *186 0.000497126
*CONN
*I *920:D I *D sky130_fd_sc_hd__dfrtp_2
*I *877:X O *D sky130_fd_sc_hd__xor2_2
*CAP
1 *920:D 0.000119465
2 *877:X 0.000119465
3 *920:D *810:B 0.000116151
4 *920:D *920:RESET_B 0.000142044
*RES
1 *877:X *920:D 9.72 
*END

*D_NET *187 0.000678947
*CONN
*I *921:D I *D sky130_fd_sc_hd__dfrtp_2
*I *880:Y O *D sky130_fd_sc_hd__nor2_2
*CAP
1 *921:D 0.000288621
2 *880:Y 0.000288621
3 *921:D *880:A 0
4 *921:D *918:RESET_B 0
5 *921:D *920:CLK 3.72916e-05
6 *921:D *920:RESET_B 0
7 *921:D *268:25 6.44134e-05
*RES
1 *880:Y *921:D 11.76 
*END

*D_NET *188 0.000631545
*CONN
*I *922:D I *D sky130_fd_sc_hd__dfrtp_2
*I *882:X O *D sky130_fd_sc_hd__o21ba_2
*CAP
1 *922:D 0.000200184
2 *882:X 0.000200184
3 *922:D *882:A1 0.000197269
4 *922:D *922:CLK 3.39064e-05
5 *922:D *268:25 0
*RES
1 *882:X *922:D 10.155 
*END

*D_NET *189 0.000474731
*CONN
*I *923:D I *D sky130_fd_sc_hd__dfrtp_2
*I *884:X O *D sky130_fd_sc_hd__o2bb2a_2
*CAP
1 *923:D 0.00015224
2 *884:X 0.00015224
3 *923:D *879:B 0.000123225
4 *923:D *923:CLK 4.70256e-05
5 *923:D *240:10 0
*RES
1 *884:X *923:D 9.72 
*END

*D_NET *190 0.00329929
*CONN
*I *924:D I *D sky130_fd_sc_hd__dfrtp_2
*I *887:Y O *D sky130_fd_sc_hd__nor2_2
*CAP
1 *924:D 0.000464702
2 *887:Y 0.000464702
3 *924:D *816:B 0.000122331
4 *924:D *822:B 0.000672466
5 *924:D *887:B 4.66108e-05
6 *924:D *924:CLK 6.97118e-05
7 *924:D *966:A 4.21973e-05
8 *924:D *249:10 0.000383215
9 *924:D *249:16 0.00018587
10 *924:D *249:49 0.000126927
11 *924:D *249:60 0.0001665
12 *924:D *249:95 0.000189153
13 *924:D *249:108 0.000106648
14 axi_rdata[3] *924:D 0.000247475
15 *897:D *924:D 1.07797e-05
*RES
1 *887:Y *924:D 23.1 
*END

*D_NET *191 0.000935423
*CONN
*I *925:D I *D sky130_fd_sc_hd__dfrtp_2
*I *890:X O *D sky130_fd_sc_hd__o21ba_2
*CAP
1 *925:D 0.000335232
2 *890:X 0.000335232
3 *925:D *816:B 4.80285e-05
4 *925:D *891:A 0
5 *925:D *929:RESET_B 3.33896e-05
6 *925:D *1029:A 0.000175002
7 *925:D *249:64 8.53856e-06
*RES
1 *890:X *925:D 11.5688 
*END

*D_NET *192 0.00227637
*CONN
*I *898:D I *D sky130_fd_sc_hd__dfrtp_2
*I *822:Y O *D sky130_fd_sc_hd__xnor2_2
*CAP
1 *898:D 0.000366395
2 *822:Y 0.000366395
3 *898:D *887:B 0.000667429
4 *898:D *892:A 0.0002821
5 *898:D *1029:A 6.00618e-05
6 *898:D *249:10 9.92475e-05
7 axi_rdata[2] *898:D 6.0011e-05
8 *897:D *898:D 0.000374727
*RES
1 *822:Y *898:D 18.735 
*END

*D_NET *193 0.00121544
*CONN
*I *926:D I *D sky130_fd_sc_hd__dfrtp_2
*I *892:X O *D sky130_fd_sc_hd__xor2_2
*CAP
1 *926:D 0.000173461
2 *892:X 0.000173461
3 *926:D *816:B 1.03572e-05
4 *926:D *887:B 0.000279855
5 *926:D *892:A 0.000300493
6 *926:D *926:CLK 8.46818e-05
7 *926:D *960:A 0.000193129
*RES
1 *892:X *926:D 12.705 
*END

*D_NET *194 0.000343286
*CONN
*I *927:D I *D sky130_fd_sc_hd__dfrtp_2
*I *893:X O *D sky130_fd_sc_hd__xor2_2
*CAP
1 *927:D 8.85846e-05
2 *893:X 8.85846e-05
3 *927:D *894:A 0.000117825
4 *927:D *927:RESET_B 4.82919e-05
5 axi_rdata[29] *927:D 0
*RES
1 *893:X *927:D 9.03 
*END

*D_NET *195 0.002971
*CONN
*I *899:D I *D sky130_fd_sc_hd__dfrtp_2
*I *825:X O *D sky130_fd_sc_hd__and2b_2
*CAP
1 *899:D 0.00069146
2 *825:X 0.00069146
3 *899:D *825:A_N 0
4 *899:D *954:A 0
5 *899:D *958:A 0.000500828
6 *899:D *1004:A 0
7 *899:D *237:14 0
8 *982:A *899:D 0.00104596
9 *983:A *899:D 4.12825e-05
*RES
1 *825:X *899:D 24.51 
*END

*D_NET *196 0.00106294
*CONN
*I *900:D I *D sky130_fd_sc_hd__dfrtp_2
*I *827:X O *D sky130_fd_sc_hd__xor2_2
*CAP
1 *900:D 0.000459163
2 *827:X 0.000459163
3 *900:D *826:B 0
4 *900:D *900:CLK 7.43984e-05
5 *900:D *1031:A 6.14974e-05
6 *900:D *1037:A 0
7 gpio_out[0] *900:D 8.7152e-06
*RES
1 *827:X *900:D 14.94 
*END

*D_NET *197 0.000573026
*CONN
*I *901:D I *D sky130_fd_sc_hd__dfrtp_2
*I *828:Y O *D sky130_fd_sc_hd__xnor2_2
*CAP
1 *901:D 0.000225947
2 *828:Y 0.000225947
3 *901:D *901:CLK 2.68526e-05
4 *901:D *278:44 9.428e-05
*RES
1 *828:Y *901:D 10.92 
*END

*D_NET *198 0.00112531
*CONN
*I *902:D I *D sky130_fd_sc_hd__dfrtp_2
*I *831:X O *D sky130_fd_sc_hd__and2b_2
*CAP
1 *902:D 0.000340826
2 *831:X 0.000340826
3 *902:D *793:B 2.1022e-05
4 *902:D *834:A1 0.000153685
5 *902:D *840:A 4.33166e-05
6 *902:D *248:8 4.65865e-05
7 *902:D *248:10 0.00010406
8 *902:D *248:74 2.62458e-05
9 *902:D *279:23 4.87403e-05
*RES
1 *831:X *902:D 14.16 
*END

*D_NET *199 0.00262787
*CONN
*I *903:D I *D sky130_fd_sc_hd__dfrtp_2
*I *834:X O *D sky130_fd_sc_hd__o21a_2
*CAP
1 *903:D 0.00053475
2 *834:X 0.00053475
3 *903:D *792:A 0.000135971
4 *903:D *828:A 8.52845e-05
5 *903:D *832:D 3.1063e-05
6 *903:D *834:B1 1.43622e-05
7 *903:D *901:RESET_B 0.000116165
8 *903:D *965:A 0.000258576
9 *903:D *211:32 0.000230022
10 *903:D *215:10 9.20894e-05
11 *903:D *279:23 0.000414482
12 *903:D *281:20 0.000118703
13 *994:A *903:D 6.16467e-05
*RES
1 *834:X *903:D 19.95 
*END

*D_NET *200 0.000241907
*CONN
*I *904:D I *D sky130_fd_sc_hd__dfrtp_2
*I *835:Y O *D sky130_fd_sc_hd__xnor2_2
*CAP
1 *904:D 8.37441e-05
2 *835:Y 8.37441e-05
3 *904:D *904:CLK 4.80058e-05
4 *904:D *282:8 2.64128e-05
*RES
1 *835:Y *904:D 4.685 
*END

*D_NET *201 0.00128117
*CONN
*I *905:D I *D sky130_fd_sc_hd__dfrtp_2
*I *839:X O *D sky130_fd_sc_hd__o21a_2
*CAP
1 *905:D 0.000288926
2 *839:X 0.000288926
3 *905:D *839:A2 8.35157e-05
4 *905:D *839:B1 0.000180997
5 *905:D *842:B 8.06714e-05
6 *905:D *905:CLK 0.000157514
7 *905:D *213:18 4.77769e-05
8 *905:D *215:10 0.000122093
9 *905:D *253:14 3.07509e-05
*RES
1 *839:X *905:D 14.25 
*END

*D_NET *202 0.000879857
*CONN
*I *895:D I *D sky130_fd_sc_hd__dfrtp_2
*I *894:X O *D sky130_fd_sc_hd__xor2_2
*CAP
1 *895:D 0.000228042
2 *894:X 0.000228042
3 *895:D *820:A 8.54281e-05
4 *895:D *893:A 0.000156386
5 *895:D *897:RESET_B 1.83756e-05
6 *895:D *949:A 4.66108e-05
7 *895:D *958:A 3.64998e-06
8 *895:D *364:6 0.000113322
*RES
1 *894:X *895:D 12.405 
*END

*D_NET *203 0.00469648
*CONN
*I *822:B I *D sky130_fd_sc_hd__xnor2_2
*I *821:A I *D sky130_fd_sc_hd__and2_2
*I *819:Y O *D sky130_fd_sc_hd__nand2_2
*CAP
1 *822:B 0.000240136
2 *821:A 4.7415e-05
3 *819:Y 0.000741474
4 *203:18 0.00102902
5 *821:A *789:A 0.000113691
6 *821:A *966:A 6.5913e-05
7 *822:B *966:A 0.000158476
8 *203:18 *795:A 7.65329e-05
9 *203:18 *796:A 0.000135492
10 *203:18 *898:RESET_B 4.70477e-05
11 *203:18 *1034:A 3.03684e-05
12 *203:18 *274:10 0.000199213
13 *203:18 *274:40 8.57242e-05
14 axi_rdata[3] *821:A 0.000184426
15 axi_rdata[3] *822:B 0.000856723
16 *897:D *822:B 1.23596e-05
17 *924:D *822:B 0.000672466
*RES
1 *819:Y *203:18 20.155 
2 *203:18 *821:A 5.745 
3 *203:18 *822:B 13.905 
*END

*D_NET *204 0.00277534
*CONN
*I *821:B I *D sky130_fd_sc_hd__and2_2
*I *820:X O *D sky130_fd_sc_hd__or2_2
*CAP
1 *821:B 0.000972029
2 *820:X 0.000972029
3 *821:B *789:A 0.000113255
4 *821:B *1015:A 0.000102049
5 *821:B *1025:A 0.000142669
6 *821:B *1026:A 2.30292e-05
7 *821:B *1027:A 0.000109776
8 *821:B *1036:A 2.59835e-05
9 axi_rdata[29] *821:B 0.000200615
10 uart_tx *821:B 0.000113905
*RES
1 *820:X *821:B 22.8 
*END

*D_NET *205 0.0104344
*CONN
*I *825:A_N I *D sky130_fd_sc_hd__and2b_2
*I *838:A2 I *D sky130_fd_sc_hd__a31o_2
*I *833:A I *D sky130_fd_sc_hd__nand2_2
*I *840:B I *D sky130_fd_sc_hd__and4_2
*I *829:D I *D sky130_fd_sc_hd__and4_2
*I *830:A3 I *D sky130_fd_sc_hd__a31o_2
*I *827:B I *D sky130_fd_sc_hd__xor2_2
*I *826:B I *D sky130_fd_sc_hd__nand2_2
*I *823:X O *D sky130_fd_sc_hd__and4_2
*CAP
1 *825:A_N 0.000126674
2 *838:A2 0.000359422
3 *833:A 0
4 *840:B 0
5 *829:D 9.58376e-05
6 *830:A3 0.000123335
7 *827:B 0
8 *826:B 0.000106988
9 *823:X 0.000172313
10 *205:88 0.000723686
11 *205:77 0.000332254
12 *205:30 0.000245276
13 *205:28 0.000584981
14 *205:24 0.00102214
15 *205:20 0.000912437
16 *205:14 0.000576466
17 *825:A_N *825:B 4.5783e-05
18 *825:A_N *889:A 0.000159144
19 *825:A_N *237:14 4.40899e-05
20 *825:A_N *247:15 0
21 *826:B *791:B 1.34594e-05
22 *826:B *900:CLK 1.08766e-05
23 *826:B *901:CLK 5.53549e-06
24 *826:B *1037:A 4.18147e-05
25 *826:B *278:31 0.000146568
26 *826:B *278:44 2.30797e-05
27 *829:D *832:A 9.30646e-05
28 *829:D *279:29 0.000232959
29 *830:A3 *797:B 3.50571e-05
30 *830:A3 *830:A1 2.36269e-05
31 *830:A3 *830:A2 5.18362e-05
32 *830:A3 *831:B 1.79174e-05
33 *830:A3 *278:44 2.98644e-05
34 *838:A2 *889:A 0.00047056
35 *838:A2 *954:A 1.16578e-05
36 *838:A2 *283:33 1.46744e-05
37 *205:14 *796:A 0.000197349
38 *205:14 *825:B 0.000158839
39 *205:14 *896:CLK 9.06603e-05
40 *205:14 *1035:A 0.000153053
41 *205:20 *796:A 8.23457e-05
42 *205:20 *840:D 0.000211605
43 *205:20 *215:10 0.000156774
44 *205:24 *832:D 2.52029e-05
45 *205:24 *840:A 0.000417023
46 *205:24 *210:10 8.54923e-05
47 *205:24 *215:10 1.70272e-05
48 *205:24 *279:27 1.87913e-05
49 *205:28 *832:A 0.00026039
50 *205:28 *278:44 4.77757e-05
51 *205:28 *278:51 3.75143e-05
52 *205:30 *278:44 0.000296133
53 *205:77 *796:A 0.000160376
54 *205:77 *825:B 3.84918e-06
55 *205:88 *796:A 0.000294944
56 *205:88 *817:B 6.24871e-05
57 *205:88 *825:B 4.24292e-06
58 *205:88 *889:A 1.07797e-05
59 *205:88 *283:31 0.000244087
60 axi_rdata[6] *205:20 8.81607e-05
61 *899:D *825:A_N 0
62 *900:D *826:B 0
63 *970:A *825:A_N 3.75134e-05
64 *970:A *205:77 7.32671e-05
65 *970:A *205:88 0.000295335
66 *986:A *826:B 4.99619e-05
*RES
1 *823:X *205:14 10.595 
2 *205:14 *205:20 6.435 
3 *205:20 *205:24 8.22 
4 *205:24 *205:28 6.245 
5 *205:28 *205:30 3.42 
6 *205:30 *826:B 6.45 
7 *205:30 *827:B 2 
8 *205:28 *830:A3 6.45 
9 *205:24 *829:D 4.645 
10 *205:20 *840:B 1.6 
11 *205:14 *205:77 4.43 
12 *205:77 *833:A 3.6 
13 *205:77 *205:88 7.5675 
14 *205:88 *838:A2 8.4225 
15 *205:88 *825:A_N 6.8925 
*END

*D_NET *206 0.00373693
*CONN
*I *825:B I *D sky130_fd_sc_hd__and2b_2
*I *824:X O *D sky130_fd_sc_hd__a31o_2
*CAP
1 *825:B 0.000840028
2 *824:X 0.000840028
3 *825:B *795:A 0.000122325
4 *825:B *796:A 0.000349699
5 *825:B *889:A 0.000198753
6 *825:B *904:CLK 0.000153834
7 *825:B *247:15 0.0004336
8 *825:B *283:31 9.49958e-05
9 *825:B *315:52 0.000490951
10 *825:A_N *825:B 4.5783e-05
11 *205:14 *825:B 0.000158839
12 *205:77 *825:B 3.84918e-06
13 *205:88 *825:B 4.24292e-06
*RES
1 *824:X *825:B 27.345 
*END

*D_NET *207 0.000841044
*CONN
*I *828:B I *D sky130_fd_sc_hd__xnor2_2
*I *826:Y O *D sky130_fd_sc_hd__nand2_2
*CAP
1 *828:B 0.000270306
2 *826:Y 0.000270306
3 *828:B *791:B 4.76303e-05
4 *828:B *792:B 0
5 *828:B *828:A 5.53249e-06
6 *828:B *901:CLK 0
7 *828:B *248:14 0
8 *828:B *248:20 0.000122797
9 *828:B *278:44 0
10 *828:B *280:16 0
11 *986:A *828:B 0.000124473
*RES
1 *826:Y *828:B 12.27 
*END

*D_NET *208 0.000833423
*CONN
*I *834:A2 I *D sky130_fd_sc_hd__o21a_2
*I *831:A_N I *D sky130_fd_sc_hd__and2b_2
*I *829:X O *D sky130_fd_sc_hd__and4_2
*CAP
1 *834:A2 0.000115118
2 *831:A_N 3.52008e-05
3 *829:X 0.000105128
4 *208:8 0.000255447
5 *831:A_N *831:B 8.52845e-05
6 *834:A2 *828:A 7.15312e-05
7 *834:A2 *834:A1 2.69217e-05
8 *208:8 *828:A 0.000107022
9 *208:8 *830:B1 3.17692e-05
*RES
1 *829:X *208:8 6 
2 *208:8 *831:A_N 4.395 
3 *208:8 *834:A2 5.685 
*END

*D_NET *209 0.000602158
*CONN
*I *831:B I *D sky130_fd_sc_hd__and2b_2
*I *830:X O *D sky130_fd_sc_hd__a31o_2
*CAP
1 *831:B 0.000249478
2 *830:X 0.000249478
3 *830:A3 *831:B 1.79174e-05
4 *831:A_N *831:B 8.52845e-05
*RES
1 *830:X *831:B 6.755 
*END

*D_NET *210 0.00473944
*CONN
*I *840:C I *D sky130_fd_sc_hd__and4_2
*I *833:B I *D sky130_fd_sc_hd__nand2_2
*I *838:A3 I *D sky130_fd_sc_hd__a31o_2
*I *832:X O *D sky130_fd_sc_hd__and4_2
*CAP
1 *840:C 3.43645e-05
2 *833:B 0.000230261
3 *838:A3 0.000165889
4 *832:X 0.00036146
5 *210:18 0.000627552
6 *210:10 0.000627227
7 *833:B *796:B 2.01934e-05
8 *833:B *835:B 0.000339521
9 *833:B *840:D 0.000155365
10 *833:B *247:17 6.80137e-05
11 *833:B *247:31 4.22597e-05
12 *833:B *282:8 6.07575e-06
13 *833:B *282:10 4.22944e-05
14 *833:B *282:16 2.88357e-05
15 *838:A3 *889:A 4.66108e-05
16 *838:A3 *892:B 4.66108e-05
17 *838:A3 *282:16 0.000356611
18 *838:A3 *365:177 0.00022763
19 *840:C *215:10 3.63576e-05
20 *210:10 *832:D 0.000297026
21 *210:10 *840:A 0.000162796
22 *210:10 *215:10 0.000306859
23 *210:18 *792:B 0.000241701
24 *210:18 *211:26 7.11365e-05
25 *988:A *210:18 0.000111293
26 *205:24 *210:10 8.54923e-05
*RES
1 *832:X *210:10 8.545 
2 *210:10 *210:18 8.995 
3 *210:18 *838:A3 10.745 
4 *210:18 *833:B 11.495 
5 *210:10 *840:C 2.05 
*END

*D_NET *211 0.00386345
*CONN
*I *841:A1 I *D sky130_fd_sc_hd__o21ba_2
*I *839:A1 I *D sky130_fd_sc_hd__o21a_2
*I *834:B1 I *D sky130_fd_sc_hd__o21a_2
*I *835:B I *D sky130_fd_sc_hd__xnor2_2
*I *833:Y O *D sky130_fd_sc_hd__nand2_2
*CAP
1 *841:A1 0.000112809
2 *839:A1 0.00018338
3 *834:B1 3.55641e-05
4 *835:B 0.000421157
5 *833:Y 0.000255775
6 *211:32 0.000493747
7 *211:26 0.000552994
8 *834:B1 *828:A 0.00016031
9 *834:B1 *834:A1 0.000196045
10 *835:B *796:B 0.000123968
11 *835:B *840:D 3.53536e-05
12 *835:B *247:15 8.69333e-05
13 *835:B *247:31 5.37301e-05
14 *835:B *282:8 4.71087e-05
15 *839:A1 *834:A1 9.23804e-06
16 *839:A1 *839:A2 4.66108e-05
17 *839:A1 *944:A 2.61449e-05
18 *839:A1 *248:74 0.000132462
19 *839:A1 *248:108 7.01303e-05
20 *839:A1 *253:14 0
21 *841:A1 *213:18 8.33066e-06
22 *841:A1 *215:10 4.90142e-05
23 *211:32 *797:A 1.19928e-05
24 *211:32 *834:A1 6.44017e-05
25 *833:B *835:B 0.000339521
26 *903:D *834:B1 1.43622e-05
27 *903:D *211:32 0.000230022
28 *987:A *841:A1 4.28112e-06
29 *987:A *211:32 2.69217e-05
30 *210:18 *211:26 7.11365e-05
*RES
1 *833:Y *835:B 13.515 
2 *835:B *211:26 4.465 
3 *211:26 *211:32 5.22 
4 *211:32 *834:B1 3.43 
5 *211:32 *839:A1 9.155 
6 *211:26 *841:A1 7.49 
*END

*D_NET *212 0.00283849
*CONN
*I *840:D I *D sky130_fd_sc_hd__and4_2
*I *836:X O *D sky130_fd_sc_hd__and2_2
*CAP
1 *840:D 0.000651171
2 *836:X 0.000651171
3 *840:D *789:B 0.000132964
4 *840:D *795:A 0.000300594
5 *840:D *796:B 6.90254e-05
6 *840:D *889:B 0.000174279
7 *840:D *215:10 8.41384e-05
8 *840:D *241:43 0.000207023
9 *840:D *247:15 0
10 *840:D *282:16 0
11 *840:D *283:46 0.000165804
12 *833:B *840:D 0.000155365
13 *835:B *840:D 3.53536e-05
14 *205:20 *840:D 0.000211605
*RES
1 *836:X *840:D 21.39 
*END

*D_NET *213 0.00255045
*CONN
*I *841:A2 I *D sky130_fd_sc_hd__o21ba_2
*I *839:A2 I *D sky130_fd_sc_hd__o21a_2
*I *837:Y O *D sky130_fd_sc_hd__nand2_2
*CAP
1 *841:A2 0
2 *839:A2 0.00010667
3 *837:Y 0.000557765
4 *213:18 0.000664435
5 *839:A2 *839:B1 9.55041e-05
6 *839:A2 *841:B1_N 4.90291e-05
7 *839:A2 *905:CLK 0.000398257
8 *839:A2 *944:A 1.08758e-05
9 *213:18 *798:B 0
10 *213:18 *839:B1 9.14049e-05
11 *213:18 *889:C 7.93973e-05
12 *213:18 *905:CLK 2.21074e-05
13 *213:18 *215:10 2.09018e-05
14 *213:18 *215:19 0
15 *213:18 *365:177 0.000109813
16 *213:18 *365:181 8.58067e-05
17 *213:18 *365:193 4.80285e-05
18 *213:18 *365:213 2.42236e-05
19 *839:A1 *839:A2 4.66108e-05
20 *841:A1 *213:18 8.33066e-06
21 *905:D *839:A2 8.35157e-05
22 *905:D *213:18 4.77769e-05
*RES
1 *837:Y *213:18 16.04 
2 *213:18 *839:A2 5.5 
3 *213:18 *841:A2 1.6 
*END

*D_NET *214 0.00169379
*CONN
*I *839:B1 I *D sky130_fd_sc_hd__o21a_2
*I *838:X O *D sky130_fd_sc_hd__a31o_2
*CAP
1 *839:B1 0.000535619
2 *838:X 0.000535619
3 *839:B1 *841:B1_N 8.65961e-05
4 *839:B1 *889:B 8.40269e-05
5 *839:B1 *892:B 8.40269e-05
6 *839:B1 *215:10 0
7 *839:A2 *839:B1 9.55041e-05
8 *905:D *839:B1 0.000180997
9 *213:18 *839:B1 9.14049e-05
*RES
1 *838:X *839:B1 15.465 
*END

*D_NET *215 0.00753552
*CONN
*I *853:B I *D sky130_fd_sc_hd__and3_2
*I *843:B I *D sky130_fd_sc_hd__and2_2
*I *844:B I *D sky130_fd_sc_hd__nor2_2
*I *862:B I *D sky130_fd_sc_hd__and4_2
*I *873:B I *D sky130_fd_sc_hd__and4_2
*I *875:B I *D sky130_fd_sc_hd__and4_2
*I *842:A I *D sky130_fd_sc_hd__nor2_2
*I *840:X O *D sky130_fd_sc_hd__and4_2
*CAP
1 *853:B 0.000190699
2 *843:B 0
3 *844:B 2.1204e-05
4 *862:B 0
5 *873:B 0.000135316
6 *875:B 0
7 *842:A 0
8 *840:X 0.000443211
9 *215:57 4.00849e-05
10 *215:35 0.000472515
11 *215:27 0.000534169
12 *215:23 0.000253739
13 *215:19 0.000700507
14 *215:10 0.00087737
15 *844:B *228:16 0.000162311
16 *844:B *254:71 8.65961e-05
17 *853:B *798:B 8.09021e-06
18 *853:B *853:A 2.65814e-06
19 *853:B *853:C 0.000131873
20 *853:B *931:D 4.39911e-06
21 *853:B *222:10 2.4997e-05
22 *853:B *254:25 7.24691e-05
23 *853:B *254:36 7.20587e-05
24 *873:B *870:A 4.65607e-05
25 *873:B *873:C 0.000117297
26 *873:B *875:C 2.05056e-05
27 *873:B *875:D 2.42236e-05
28 *873:B *946:A 9.37731e-05
29 *873:B *222:39 7.00889e-06
30 *873:B *228:16 2.15594e-05
31 *215:10 *832:D 5.31158e-06
32 *215:10 *840:A 9.40432e-05
33 *215:10 *842:B 9.95272e-05
34 *215:19 *798:B 0.000353101
35 *215:19 *217:14 0.000103192
36 *215:19 *222:10 0.000374902
37 *215:19 *253:10 0
38 *215:19 *255:14 0
39 *215:23 *862:C 4.35432e-05
40 *215:23 *217:14 1.56428e-05
41 *215:23 *254:25 0.000124007
42 *215:27 *862:C 0.000264912
43 *215:27 *228:16 1.60203e-05
44 *215:27 *254:25 3.00399e-05
45 *215:35 *875:A 2.8185e-05
46 *215:35 *946:A 0
47 *215:35 *222:39 2.30292e-05
48 *215:35 *228:16 2.09303e-05
49 *215:35 *254:71 0.00012505
50 *215:57 *862:C 0
51 *215:57 *254:71 5.4155e-06
52 *839:B1 *215:10 0
53 *840:C *215:10 3.63576e-05
54 *840:D *215:10 8.41384e-05
55 *841:A1 *215:10 4.90142e-05
56 *903:D *215:10 9.20894e-05
57 *905:D *215:10 0.000122093
58 *906:D *215:19 3.39064e-05
59 *987:A *215:10 0.000324306
60 *205:20 *215:10 0.000156774
61 *205:24 *215:10 1.70272e-05
62 *210:10 *215:10 0.000306859
63 *213:18 *215:10 2.09018e-05
64 *213:18 *215:19 0
*RES
1 *840:X *215:10 15.855 
2 *215:10 *842:A 3.6 
3 *215:10 *215:19 12.345 
4 *215:19 *215:23 3.83 
5 *215:23 *215:27 3.915 
6 *215:27 *215:35 5.145 
7 *215:35 *875:B 1.6 
8 *215:35 *873:B 8.825 
9 *215:27 *215:57 0.36 
10 *215:57 *862:B 1.6 
11 *215:57 *844:B 3.085 
12 *215:23 *843:B 1.6 
13 *215:19 *853:B 7.815 
*END

*D_NET *216 0.000481752
*CONN
*I *842:B I *D sky130_fd_sc_hd__nor2_2
*I *841:X O *D sky130_fd_sc_hd__o21ba_2
*CAP
1 *842:B 0.000101337
2 *841:X 0.000101337
3 *842:B *253:10 1.43521e-05
4 *842:B *253:12 5.42473e-05
5 *842:B *253:14 3.028e-05
6 *905:D *842:B 8.06714e-05
7 *215:10 *842:B 9.95272e-05
*RES
1 *841:X *842:B 10.11 
*END

*D_NET *217 0.00758438
*CONN
*I *845:A I *D sky130_fd_sc_hd__nor2_2
*I *848:C I *D sky130_fd_sc_hd__and3_2
*I *847:A2 I *D sky130_fd_sc_hd__a21oi_2
*I *846:B I *D sky130_fd_sc_hd__xor2_2
*I *850:D I *D sky130_fd_sc_hd__and4_2
*I *843:X O *D sky130_fd_sc_hd__and2_2
*CAP
1 *845:A 3.55506e-05
2 *848:C 0.000441027
3 *847:A2 0
4 *846:B 0
5 *850:D 0.000257638
6 *843:X 0.000418798
7 *217:42 0.000610938
8 *217:20 0.000293714
9 *217:18 0.000747781
10 *217:14 0.000996143
11 *845:A *845:B 0
12 *848:C *847:B1 5.98345e-05
13 *848:C *848:A 0.000652
14 *848:C *848:B 8.93376e-05
15 *848:C *849:B 0.000316799
16 *848:C *957:A 1.07797e-05
17 *848:C *220:12 2.50602e-05
18 *848:C *255:80 7.3151e-05
19 *850:D *852:C 4.94457e-05
20 *850:D *1007:A 7.23533e-05
21 *850:D *255:50 4.99619e-05
22 *850:D *256:20 0.000136877
23 *850:D *256:28 1.60203e-05
24 *850:D *257:29 0.000247815
25 *217:14 *798:B 0.000183731
26 *217:14 *845:B 3.50706e-05
27 *217:18 *935:D 0.000346707
28 *217:18 *953:A 0.000113088
29 *217:20 *256:20 0.000107898
30 *217:20 *257:29 6.5525e-05
31 *217:42 *847:B1 2.49909e-05
32 *217:42 *910:CLK 0
33 *217:42 *255:80 0.000121372
34 *217:42 *256:20 0.000286027
35 *217:42 *256:68 0.00013521
36 *217:42 *257:29 6.71226e-05
37 *907:D *217:14 0.000162311
38 *909:D *217:42 0.000163992
39 *989:A *850:D 5.1479e-05
40 *215:19 *217:14 0.000103192
41 *215:23 *217:14 1.56428e-05
*RES
1 *843:X *217:14 12.095 
2 *217:14 *217:18 8.66 
3 *217:18 *217:20 1.38 
4 *217:20 *850:D 9.105 
5 *217:20 *846:B 2 
6 *217:18 *217:42 7.745 
7 *217:42 *847:A2 1.6 
8 *217:42 *848:C 16.52 
9 *217:14 *845:A 2.215 
*END

*D_NET *218 0.00205711
*CONN
*I *845:B I *D sky130_fd_sc_hd__nor2_2
*I *844:Y O *D sky130_fd_sc_hd__nor2_2
*CAP
1 *845:B 0.000807159
2 *844:Y 0.000807159
3 *845:B *873:A 5.53249e-06
4 *845:B *247:45 3.39151e-05
5 *845:B *254:12 0.000207896
6 *845:B *254:58 9.99842e-05
7 *845:A *845:B 0
8 *907:D *845:B 6.03895e-05
9 *217:14 *845:B 3.50706e-05
*RES
1 *844:Y *845:B 18.03 
*END

*D_NET *219 0.000893914
*CONN
*I *849:A I *D sky130_fd_sc_hd__nor2_2
*I *847:Y O *D sky130_fd_sc_hd__a21oi_2
*CAP
1 *849:A 9.38492e-05
2 *847:Y 9.38492e-05
3 *849:A *849:B 0.00031848
4 *849:A *935:CLK 2.49909e-05
5 *849:A *935:D 4.82863e-05
6 *849:A *250:32 0.000107634
7 *849:A *250:34 0.000154488
8 *849:A *250:40 5.23362e-05
*RES
1 *847:Y *849:A 11.325 
*END

*D_NET *220 0.00272856
*CONN
*I *849:B I *D sky130_fd_sc_hd__nor2_2
*I *851:B I *D sky130_fd_sc_hd__xor2_2
*I *848:X O *D sky130_fd_sc_hd__and3_2
*CAP
1 *849:B 0.000289529
2 *851:B 3.80561e-05
3 *848:X 0.000176141
4 *220:12 0.000503727
5 *849:B *848:A 1.15688e-05
6 *849:B *957:A 0.000278869
7 *849:B *250:32 1.1561e-05
8 *849:B *257:29 0.000484929
9 *849:B *373:8 8.43862e-05
10 *851:B *373:8 4.70393e-05
11 *220:12 *848:A 3.64998e-06
12 *220:12 *848:B 0.000138762
13 *220:12 *934:D 0
14 *848:C *849:B 0.000316799
15 *848:C *220:12 2.50602e-05
16 *849:A *849:B 0.00031848
*RES
1 *848:X *220:12 8.975 
2 *220:12 *851:B 0.7425 
3 *220:12 *849:B 15.695 
*END

*D_NET *221 0.00121539
*CONN
*I *854:A2 I *D sky130_fd_sc_hd__o21ba_2
*I *850:X O *D sky130_fd_sc_hd__and4_2
*CAP
1 *854:A2 0.000317751
2 *850:X 0.000317751
3 *854:A2 *852:C 0.000161985
4 *854:A2 *852:D 0.000337202
5 *854:A2 *854:B1_N 4.43871e-06
6 *854:A2 *250:40 0
7 *854:A2 *256:20 0
8 *854:A2 *258:18 2.84864e-05
9 *854:A2 *258:20 4.77719e-05
10 *908:D *854:A2 0
*RES
1 *850:X *854:A2 13.155 
*END

*D_NET *222 0.00536228
*CONN
*I *875:C I *D sky130_fd_sc_hd__and4_2
*I *873:C I *D sky130_fd_sc_hd__and4_2
*I *853:C I *D sky130_fd_sc_hd__and3_2
*I *862:C I *D sky130_fd_sc_hd__and4_2
*I *852:X O *D sky130_fd_sc_hd__and4_2
*CAP
1 *875:C 3.60632e-05
2 *873:C 6.37171e-05
3 *853:C 0.00016022
4 *862:C 0.000637165
5 *852:X 0.000654704
6 *222:39 0.000382751
7 *222:10 0.00116912
8 *853:C *250:150 0.000172552
9 *853:C *254:36 0
10 *862:C *862:D 4.47125e-05
11 *862:C *228:16 0.0001249
12 *862:C *254:25 0.000179203
13 *873:C *228:16 7.06865e-05
14 *222:10 *907:CLK 9.95272e-05
15 *222:10 *911:CLK 2.10433e-05
16 *222:10 *911:RESET_B 0
17 *222:10 *250:150 4.4123e-05
18 *222:10 *255:14 7.54579e-05
19 *222:10 *365:193 3.0372e-05
20 *222:39 *228:16 0.000387896
21 *853:B *853:C 0.000131873
22 *853:B *222:10 2.4997e-05
23 *873:B *873:C 0.000117297
24 *873:B *875:C 2.05056e-05
25 *873:B *222:39 7.00889e-06
26 *149:14 *853:C 0
27 *149:14 *222:10 0
28 *215:19 *222:10 0.000374902
29 *215:23 *862:C 4.35432e-05
30 *215:27 *862:C 0.000264912
31 *215:35 *222:39 2.30292e-05
32 *215:57 *862:C 0
*RES
1 *852:X *222:10 15.765 
2 *222:10 *862:C 9.945 
3 *222:10 *853:C 7.53 
4 *862:C *222:39 5.5 
5 *222:39 *873:C 6.92 
6 *222:39 *875:C 2.05 
*END

*D_NET *223 0.00645543
*CONN
*I *859:D I *D sky130_fd_sc_hd__and4_2
*I *858:A3 I *D sky130_fd_sc_hd__a31oi_2
*I *855:B I *D sky130_fd_sc_hd__nand2_2
*I *856:B I *D sky130_fd_sc_hd__xor2_2
*I *854:B1_N I *D sky130_fd_sc_hd__o21ba_2
*I *853:X O *D sky130_fd_sc_hd__and3_2
*CAP
1 *859:D 0.000582728
2 *858:A3 0
3 *855:B 0
4 *856:B 0.000414908
5 *854:B1_N 0.000557132
6 *853:X 0.000204065
7 *223:29 0.000553181
8 *223:25 0.000138273
9 *223:23 0.00077933
10 *223:6 0.000957798
11 *854:B1_N *910:RESET_B 0.000154273
12 *854:B1_N *258:14 6.26665e-05
13 *854:B1_N *258:18 5.10839e-05
14 *856:B *848:A 1.70935e-05
15 *856:B *912:CLK 1.13106e-05
16 *859:D *857:A 0.000332517
17 *859:D *859:B 0.000276543
18 *859:D *859:C 1.61831e-05
19 *859:D *226:10 0.000375467
20 *859:D *250:100 0.000200664
21 *859:D *250:109 1.56455e-05
22 *859:D *260:34 6.0011e-05
23 *223:23 *910:RESET_B 0
24 *223:23 *250:89 0.00024677
25 *223:23 *250:100 0.000149287
26 *223:29 *857:B 2.26717e-05
27 *223:29 *259:33 0.000197822
28 *854:A2 *854:B1_N 4.43871e-06
29 *914:D *859:D 7.35729e-05
*RES
1 *853:X *223:6 3.775 
2 *223:6 *854:B1_N 14.93 
3 *223:6 *223:23 6.695 
4 *223:23 *223:25 2 
5 *223:25 *223:29 2.88 
6 *223:29 *856:B 10.57 
7 *223:29 *855:B 1.6 
8 *223:25 *858:A3 1.6 
9 *223:23 *859:D 17.985 
*END

*D_NET *224 0.000512847
*CONN
*I *857:B I *D sky130_fd_sc_hd__xnor2_2
*I *855:Y O *D sky130_fd_sc_hd__nand2_2
*CAP
1 *857:B 0.00013164
2 *855:Y 0.00013164
3 *857:B *259:22 0.000141606
4 *857:B *259:33 8.52883e-05
5 *223:29 *857:B 2.26717e-05
*RES
1 *855:Y *857:B 9.975 
*END

*D_NET *225 0.00175566
*CONN
*I *860:A I *D sky130_fd_sc_hd__nor2_2
*I *858:Y O *D sky130_fd_sc_hd__a31oi_2
*CAP
1 *860:A 0.000384131
2 *858:Y 0.000384131
3 *860:A *803:A 0
4 *860:A *857:A 0.000179548
5 *860:A *858:A2 3.00381e-05
6 *860:A *860:B 0
7 *860:A *914:RESET_B 3.31282e-05
8 *860:A *226:10 0
9 *860:A *260:10 0.000377308
10 *860:A *260:34 0.000206123
11 *860:A *365:327 9.68787e-05
12 axi_rdata[11] *860:A 0
13 *914:D *860:A 4.55103e-05
14 *1000:A *860:A 1.88656e-05
15 *149:14 *860:A 0
*RES
1 *858:Y *860:A 17.19 
*END

*D_NET *226 0.00433006
*CONN
*I *860:B I *D sky130_fd_sc_hd__nor2_2
*I *863:A2 I *D sky130_fd_sc_hd__o21ba_2
*I *859:X O *D sky130_fd_sc_hd__and4_2
*CAP
1 *860:B 0.000306701
2 *863:A2 0.000793205
3 *859:X 0.000498769
4 *226:10 0.00159868
5 *860:B *806:B 4.82863e-05
6 *863:A2 *804:B 8.7152e-06
7 *226:10 *805:A 3.83041e-05
8 *226:10 *857:A 0
9 *226:10 *861:C 8.40269e-05
10 *226:10 *915:RESET_B 0.000210846
11 *226:10 *1012:A 2.75229e-05
12 *226:10 *260:34 0
13 axi_rdata[11] *860:B 4.22535e-05
14 axi_rdata[11] *226:10 0.000124003
15 *859:D *226:10 0.000375467
16 *860:A *860:B 0
17 *860:A *226:10 0
18 *915:D *863:A2 2.51875e-06
19 *968:A *863:A2 0
20 *1000:A *863:A2 0.000170766
21 *149:14 *863:A2 0
*RES
1 *859:X *226:10 13.9425 
2 *226:10 *863:A2 6.0941 
3 *226:10 *860:B 8.3325 
*END

*D_NET *227 0.00362259
*CONN
*I *874:C I *D sky130_fd_sc_hd__and4_2
*I *872:B I *D sky130_fd_sc_hd__and3_2
*I *862:D I *D sky130_fd_sc_hd__and4_2
*I *861:X O *D sky130_fd_sc_hd__and4_2
*CAP
1 *874:C 0.000127378
2 *872:B 0.000148115
3 *862:D 0.000459692
4 *861:X 0
5 *227:19 0.000633837
6 *227:4 0.000818036
7 *862:D *798:B 0
8 *862:D *914:RESET_B 0
9 *862:D *931:D 0
10 *862:D *931:RESET_B 0.000262528
11 *862:D *1006:A 0
12 *862:D *228:16 8.65961e-05
13 *862:D *254:36 0
14 *872:B *869:A 7.06865e-05
15 *872:B *1040:A 3.67779e-05
16 *872:B *228:16 8.40213e-05
17 *874:C *869:A 0.000313857
18 *874:C *228:30 2.11921e-05
19 *874:C *228:41 3.83041e-05
20 *874:C *230:27 1.61831e-05
21 *874:C *230:33 0.000109101
22 *227:19 *859:A 0.0001249
23 *227:19 *861:D 7.67415e-06
24 *227:19 *1006:A 6.05513e-05
25 *227:19 *228:30 9.86803e-05
26 *862:C *862:D 4.47125e-05
27 *918:D *872:B 5.97713e-05
*RES
1 *861:X *227:4 1.6 
2 *227:4 *862:D 14.075 
3 *227:4 *227:19 4.59 
4 *227:19 *872:B 7.955 
5 *227:19 *874:C 5.785 
*END

*D_NET *228 0.00922159
*CONN
*I *869:B I *D sky130_fd_sc_hd__and3_2
*I *864:B I *D sky130_fd_sc_hd__xor2_2
*I *863:B1_N I *D sky130_fd_sc_hd__o21ba_2
*I *865:A2 I *D sky130_fd_sc_hd__a21oi_2
*I *868:A1 I *D sky130_fd_sc_hd__a21oi_2
*I *867:A1 I *D sky130_fd_sc_hd__a21oi_2
*I *862:X O *D sky130_fd_sc_hd__and4_2
*CAP
1 *869:B 0
2 *864:B 2.68888e-05
3 *863:B1_N 0.00112633
4 *865:A2 0
5 *868:A1 0.000241238
6 *867:A1 0
7 *862:X 0.000416206
8 *228:73 0.00133248
9 *228:45 0.000396771
10 *228:41 0.0004068
11 *228:30 0.000305135
12 *228:16 0.000649333
13 *863:B1_N *804:A 0.000123295
14 *863:B1_N *804:B 0.000140036
15 *863:B1_N *805:B 8.73389e-06
16 *863:B1_N *863:A1 9.01321e-06
17 *863:B1_N *947:A 1.19928e-05
18 *863:B1_N *1012:A 0.000381883
19 *863:B1_N *1013:A 5.39775e-05
20 *868:A1 *809:A 0
21 *868:A1 *867:B1 8.65905e-05
22 *868:A1 *872:A 3.18219e-05
23 *868:A1 *874:B 5.53249e-06
24 *868:A1 *230:18 5.50149e-05
25 *868:A1 *230:27 5.3825e-05
26 *228:16 *869:A 7.30547e-05
27 *228:16 *870:B 0
28 *228:16 *873:D 0.000314452
29 *228:16 *875:A 8.57024e-05
30 *228:16 *946:A 5.12017e-06
31 *228:16 *1040:A 1.08758e-05
32 *228:16 *232:8 0
33 *228:16 *247:45 6.62283e-05
34 *228:16 *247:73 9.12642e-05
35 *228:16 *251:36 2.66939e-05
36 *228:16 *251:47 8.08153e-06
37 *228:16 *254:71 3.90495e-05
38 *228:30 *861:D 4.1015e-05
39 *228:30 *867:A2 4.66108e-05
40 *228:30 *869:C 6.10014e-05
41 *228:30 *1006:A 4.82919e-05
42 *228:30 *1040:A 6.38722e-05
43 *228:30 *230:33 2.30292e-05
44 *228:41 *861:D 7.63125e-05
45 *228:41 *867:B1 8.09021e-06
46 *228:41 *1040:A 7.21296e-06
47 *228:41 *230:33 2.75145e-05
48 *228:45 *867:B1 0.000108761
49 *228:73 *861:D 0.000102184
50 *228:73 *950:A 8.08439e-05
51 *228:73 *1040:A 1.01661e-05
52 *228:73 *262:19 0.000129291
53 axi_rdata[17] *228:45 1.83756e-05
54 axi_rdata[17] *228:73 0.000176331
55 *844:B *228:16 0.000162311
56 *862:C *228:16 0.0001249
57 *862:D *228:16 8.65961e-05
58 *872:B *228:16 8.40213e-05
59 *873:B *228:16 2.15594e-05
60 *873:C *228:16 7.06865e-05
61 *874:C *228:30 2.11921e-05
62 *874:C *228:41 3.83041e-05
63 *915:D *863:B1_N 0.000235148
64 *917:D *228:41 7.63125e-05
65 *917:D *228:73 7.89767e-05
66 *918:D *228:16 8.57237e-05
67 *215:27 *228:16 1.60203e-05
68 *215:35 *228:16 2.09303e-05
69 *222:39 *228:16 0.000387896
70 *227:19 *228:30 9.86803e-05
*RES
1 *862:X *228:16 18.26 
2 *228:16 *228:30 8.815 
3 *228:30 *867:A1 1.6 
4 *228:30 *228:41 4.34 
5 *228:41 *228:45 4.865 
6 *228:45 *868:A1 9.98 
7 *228:45 *865:A2 1.6 
8 *228:41 *228:73 8.48 
9 *228:73 *863:B1_N 17.635 
10 *228:73 *864:B 0.3975 
11 *228:16 *869:B 1.6 
*END

*D_NET *229 0.000867682
*CONN
*I *867:B1 I *D sky130_fd_sc_hd__a21oi_2
*I *865:Y O *D sky130_fd_sc_hd__a21oi_2
*CAP
1 *867:B1 0.000226672
2 *865:Y 0.000226672
3 *867:B1 *251:47 0.000116151
4 *868:A1 *867:B1 8.65905e-05
5 *917:D *867:B1 9.47454e-05
6 *228:41 *867:B1 8.09021e-06
7 *228:45 *867:B1 0.000108761
*RES
1 *865:Y *867:B1 11.1 
*END

*D_NET *230 0.00433991
*CONN
*I *874:D I *D sky130_fd_sc_hd__and4_2
*I *867:A2 I *D sky130_fd_sc_hd__a21oi_2
*I *869:C I *D sky130_fd_sc_hd__and3_2
*I *868:A2 I *D sky130_fd_sc_hd__a21oi_2
*I *866:X O *D sky130_fd_sc_hd__and2_2
*CAP
1 *874:D 0
2 *867:A2 1.36534e-05
3 *869:C 0.00012983
4 *868:A2 0
5 *866:X 0.000675966
6 *230:33 0.000476147
7 *230:27 0.000508921
8 *230:18 0.000852224
9 *867:A2 *861:D 4.66108e-05
10 *869:C *1006:A 0
11 *869:C *1040:A 0.000179015
12 *230:18 *866:B 8.5841e-05
13 *230:18 *871:A 0
14 *230:18 *874:B 0.000164352
15 *230:18 *964:A 2.75229e-05
16 *230:18 *1018:A 0
17 *230:18 *266:12 6.19997e-05
18 *230:18 *266:21 2.75229e-05
19 *230:18 *266:25 6.6564e-05
20 *230:18 *266:31 0.000240391
21 *230:18 *267:33 0.00013298
22 *230:27 *869:A 9.27255e-06
23 *230:27 *874:B 4.66742e-05
24 *230:27 *266:31 9.27255e-06
25 *230:33 *859:A 0
26 *230:33 *861:D 8.23457e-05
27 *230:33 *1040:A 4.9968e-05
28 *868:A1 *230:18 5.50149e-05
29 *868:A1 *230:27 5.3825e-05
30 *874:C *230:27 1.61831e-05
31 *874:C *230:33 0.000109101
32 *918:D *869:C 6.05595e-05
33 *228:30 *867:A2 4.66108e-05
34 *228:30 *869:C 6.10014e-05
35 *228:30 *230:33 2.30292e-05
36 *228:41 *230:33 2.75145e-05
*RES
1 *866:X *230:18 19.01 
2 *230:18 *868:A2 1.6 
3 *230:18 *230:27 2.7 
4 *230:27 *230:33 6.515 
5 *230:33 *869:C 6.705 
6 *230:33 *867:A2 4.05 
7 *230:27 *874:D 1.6 
*END

*D_NET *231 0.00266615
*CONN
*I *870:A I *D sky130_fd_sc_hd__nor2_2
*I *868:Y O *D sky130_fd_sc_hd__a21oi_2
*CAP
1 *870:A 0.000730433
2 *868:Y 0.000730433
3 *870:A *869:A 0.000198945
4 *870:A *872:A 3.83719e-05
5 *870:A *873:A 4.99619e-05
6 *870:A *875:D 0.00043404
7 *870:A *876:B1_N 4.82863e-05
8 *870:A *919:CLK 8.40269e-05
9 *870:A *235:23 7.14699e-05
10 *870:A *266:21 0
11 *870:A *266:25 9.53428e-06
12 *870:A *266:31 0.000224084
13 *873:B *870:A 4.65607e-05
14 *919:D *870:A 0
*RES
1 *868:Y *870:A 20.595 
*END

*D_NET *232 0.000886383
*CONN
*I *876:A2 I *D sky130_fd_sc_hd__o21ba_2
*I *870:B I *D sky130_fd_sc_hd__nor2_2
*I *869:X O *D sky130_fd_sc_hd__and3_2
*CAP
1 *876:A2 4.05861e-05
2 *870:B 0.000115704
3 *869:X 6.84026e-05
4 *232:8 0.000224693
5 *870:B *247:73 0
6 *876:A2 *876:A1 0.0002498
7 *876:A2 *247:73 5.83121e-06
8 *918:D *870:B 0.00011949
9 *918:D *232:8 6.18754e-05
10 *228:16 *870:B 0
11 *228:16 *232:8 0
*RES
1 *869:X *232:8 4.98 
2 *232:8 *870:B 6 
3 *232:8 *876:A2 5.085 
*END

*D_NET *233 0.00148582
*CONN
*I *872:C I *D sky130_fd_sc_hd__and3_2
*I *871:X O *D sky130_fd_sc_hd__and3_2
*CAP
1 *872:C 0.000642639
2 *871:X 0.000642639
3 *872:C *872:A 0.000160635
4 *872:C *918:CLK 1.19928e-05
5 *872:C *920:CLK 0
6 *872:C *266:12 0
7 *872:C *267:33 0
8 *918:D *872:C 2.7914e-05
*RES
1 *871:X *872:C 15.315 
*END

*D_NET *234 0.000833001
*CONN
*I *873:D I *D sky130_fd_sc_hd__and4_2
*I *872:X O *D sky130_fd_sc_hd__and3_2
*CAP
1 *873:D 0.000134976
2 *872:X 0.000134976
3 *873:D *876:B1_N 0.000117832
4 *873:D *946:A 1.89685e-05
5 *873:D *251:10 1.86911e-05
6 *873:D *251:36 6.81159e-05
7 *918:D *873:D 2.49909e-05
8 *228:16 *873:D 0.000314452
*RES
1 *872:X *873:D 11.325 
*END

*D_NET *235 0.00724841
*CONN
*I *879:C I *D sky130_fd_sc_hd__and3_2
*I *884:A1_N I *D sky130_fd_sc_hd__o2bb2a_2
*I *877:B I *D sky130_fd_sc_hd__xor2_2
*I *878:A2 I *D sky130_fd_sc_hd__a21oi_2
*I *885:A1 I *D sky130_fd_sc_hd__a21oi_2
*I *891:B I *D sky130_fd_sc_hd__and4_2
*I *876:B1_N I *D sky130_fd_sc_hd__o21ba_2
*I *873:X O *D sky130_fd_sc_hd__and4_2
*CAP
1 *879:C 0
2 *884:A1_N 4.0895e-05
3 *877:B 0.000233232
4 *878:A2 2.08101e-05
5 *885:A1 4.59917e-05
6 *891:B 0.000727143
7 *876:B1_N 6.82466e-05
8 *873:X 0
9 *235:75 0.000468459
10 *235:67 0.000286829
11 *235:63 0.000185061
12 *235:25 0.00118356
13 *235:23 0.00103753
14 *235:4 0.000541802
15 *876:B1_N *251:10 7.23602e-05
16 *876:B1_N *251:36 4.38051e-05
17 *877:B *878:B1 0.000122331
18 *877:B *879:A 5.05437e-05
19 *877:B *268:76 8.24161e-05
20 *884:A1_N *879:A 4.99619e-05
21 *884:A1_N *879:B 3.77036e-05
22 *884:A1_N *884:A2_N 9.65173e-05
23 *884:A1_N *239:14 6.27114e-05
24 *885:A1 *887:A 7.00889e-06
25 *885:A1 *241:37 0.000124895
26 *891:B *815:B 1.95991e-05
27 *891:B *818:B 0.000324573
28 *891:B *885:B1 1.79483e-05
29 *891:B *889:C 0
30 *891:B *891:A 8.8266e-05
31 *891:B *891:C 3.09774e-05
32 *891:B *894:A 0.000102207
33 *891:B *945:A 4.13992e-05
34 *891:B *1029:A 6.30871e-05
35 *891:B *237:14 0
36 *891:B *241:31 8.36497e-05
37 *891:B *272:16 5.14228e-05
38 *235:23 *875:D 0
39 *235:23 *919:CLK 2.30292e-05
40 *235:25 *884:A2_N 0
41 *235:25 *885:B1 7.9642e-06
42 *235:25 *237:8 0
43 *235:25 *237:14 0
44 *235:25 *241:37 0
45 *235:63 *239:14 8.8266e-05
46 *235:67 *879:B 3.00381e-05
47 *235:67 *884:A2_N 0
48 *235:67 *239:14 2.05056e-05
49 *235:75 *876:A1 1.19928e-05
50 *235:75 *879:A 0.000132006
51 *235:75 *923:CLK 8.09021e-06
52 *235:75 *251:74 8.23457e-05
53 *235:75 *267:12 9.54399e-05
54 *870:A *876:B1_N 4.82863e-05
55 *870:A *235:23 7.14699e-05
56 *873:D *876:B1_N 0.000117832
57 *919:D *235:23 0
58 *984:A *891:B 9.8199e-05
*RES
1 *873:X *235:4 1.6 
2 *235:4 *876:B1_N 7.43 
3 *235:4 *235:23 8.3 
4 *235:23 *235:25 6.735 
5 *235:25 *891:B 10.3951 
6 *235:25 *885:A1 4.74 
7 *235:23 *235:63 4.52 
8 *235:63 *235:67 0.81 
9 *235:67 *235:75 9.16 
10 *235:75 *878:A2 1.96 
11 *235:75 *877:B 4.1175 
12 *235:67 *884:A1_N 3.1975 
13 *235:63 *879:C 1.6 
*END

*D_NET *236 0.00171635
*CONN
*I *875:D I *D sky130_fd_sc_hd__and4_2
*I *874:X O *D sky130_fd_sc_hd__and4_2
*CAP
1 *875:D 0.000297011
2 *874:X 0.000297011
3 *875:D *946:A 0.000189886
4 *875:D *251:10 0.000112123
5 *875:D *251:36 0.000245893
6 *875:D *251:47 0.000116165
7 *870:A *875:D 0.00043404
8 *873:B *875:D 2.42236e-05
9 *235:23 *875:D 0
*RES
1 *874:X *875:D 15.15 
*END

*D_NET *237 0.00603745
*CONN
*I *881:D I *D sky130_fd_sc_hd__and4_2
*I *889:A I *D sky130_fd_sc_hd__and3_2
*I *886:B I *D sky130_fd_sc_hd__and3_2
*I *875:X O *D sky130_fd_sc_hd__and4_2
*CAP
1 *881:D 0.000637121
2 *889:A 0.000254889
3 *886:B 0.000217408
4 *875:X 0.000235071
5 *237:14 0.000902283
6 *237:8 0.00130218
7 *881:D *1029:A 0.000427094
8 *886:B *886:A 0.000109386
9 *886:B *886:C 9.60582e-07
10 *889:A *838:A1 2.66418e-05
11 *889:A *838:B1 0.00015639
12 *889:A *892:B 0.000106246
13 *889:A *283:33 0.000196381
14 *237:8 *247:45 0
15 *237:14 *885:B1 0
16 *237:14 *886:A 8.69098e-05
17 *237:14 *958:A 0
18 *237:14 *247:15 0
19 *237:14 *247:45 0
20 axi_rdata[3] *881:D 0.00039046
21 *825:A_N *889:A 0.000159144
22 *825:A_N *237:14 4.40899e-05
23 *825:B *889:A 0.000198753
24 *838:A2 *889:A 0.00047056
25 *838:A3 *889:A 4.66108e-05
26 *891:B *237:14 0
27 *899:D *237:14 0
28 *977:A *881:D 5.80958e-05
29 *205:88 *889:A 1.07797e-05
30 *235:25 *237:8 0
31 *235:25 *237:14 0
*RES
1 *875:X *237:8 7.53 
2 *237:8 *237:14 8.69 
3 *237:14 *886:B 4.12 
4 *237:14 *889:A 13.625 
5 *237:8 *881:D 15.465 
*END

*D_NET *238 0.000338463
*CONN
*I *880:A I *D sky130_fd_sc_hd__nor2_2
*I *878:Y O *D sky130_fd_sc_hd__a21oi_2
*CAP
1 *880:A 8.11562e-05
2 *878:Y 8.11562e-05
3 *880:A *880:B 5.55049e-05
4 *880:A *918:RESET_B 7.23533e-05
5 *880:A *920:CLK 4.82919e-05
6 *880:A *267:33 0
7 *921:D *880:A 0
*RES
1 *878:Y *880:A 9.03 
*END

*D_NET *239 0.0023353
*CONN
*I *880:B I *D sky130_fd_sc_hd__nor2_2
*I *882:A2 I *D sky130_fd_sc_hd__o21ba_2
*I *879:X O *D sky130_fd_sc_hd__and3_2
*CAP
1 *880:B 0.000253915
2 *882:A2 1.36534e-05
3 *879:X 0.000338721
4 *239:14 0.000606288
5 *880:B *878:B1 0.000180689
6 *880:B *918:RESET_B 0.000155701
7 *880:B *920:CLK 0.000125711
8 *880:B *923:CLK 8.08153e-06
9 *880:B *251:76 5.93844e-05
10 *880:B *267:33 6.28843e-05
11 *882:A2 *882:A1 4.66108e-05
12 *882:A2 *251:89 4.66108e-05
13 *239:14 *878:B1 0.000105371
14 *239:14 *879:A 4.82863e-05
15 *239:14 *923:CLK 5.64037e-05
16 *880:A *880:B 5.55049e-05
17 *884:A1_N *239:14 6.27114e-05
18 *235:63 *239:14 8.8266e-05
19 *235:67 *239:14 2.05056e-05
*RES
1 *879:X *239:14 8.4 
2 *239:14 *882:A2 4.05 
3 *239:14 *880:B 10.065 
*END

*D_NET *240 0.0012145
*CONN
*I *882:B1_N I *D sky130_fd_sc_hd__o21ba_2
*I *884:B1 I *D sky130_fd_sc_hd__o2bb2a_2
*I *881:X O *D sky130_fd_sc_hd__and4_2
*CAP
1 *882:B1_N 8.66067e-05
2 *884:B1 0
3 *881:X 0.000295904
4 *240:10 0.000382511
5 *882:B1_N *878:B1 2.63122e-05
6 *882:B1_N *881:B 0
7 *882:B1_N *882:A1 4.82919e-05
8 *882:B1_N *918:RESET_B 2.7881e-05
9 *882:B1_N *922:CLK 8.44281e-05
10 *882:B1_N *251:89 4.82919e-05
11 *882:B1_N *268:25 0
12 *882:B1_N *365:79 3.67779e-05
13 *240:10 *878:B1 1.22762e-05
14 *240:10 *881:B 0
15 *240:10 *884:A2_N 0
16 *240:10 *945:A 3.86529e-05
17 *923:D *240:10 0
18 *977:A *240:10 0.00012657
*RES
1 *881:X *240:10 8.16 
2 *240:10 *884:B1 3.6 
3 *240:10 *882:B1_N 6.195 
*END

*D_NET *241 0.00815598
*CONN
*I *884:A2_N I *D sky130_fd_sc_hd__o2bb2a_2
*I *885:A2 I *D sky130_fd_sc_hd__a21oi_2
*I *886:C I *D sky130_fd_sc_hd__and3_2
*I *889:B I *D sky130_fd_sc_hd__and3_2
*I *891:C I *D sky130_fd_sc_hd__and4_2
*I *883:X O *D sky130_fd_sc_hd__and4_2
*CAP
1 *884:A2_N 0.000292266
2 *885:A2 0
3 *886:C 4.73578e-05
4 *889:B 0.000344793
5 *891:C 0.000196714
6 *883:X 0
7 *241:43 0.000953889
8 *241:37 0.000886764
9 *241:31 0.00120023
10 *241:6 0.00077965
11 *884:A2_N *813:B 0.00011648
12 *884:A2_N *879:B 0.000160635
13 *884:A2_N *923:CLK 0.000162318
14 *884:A2_N *269:18 0
15 *889:B *892:B 0.00014125
16 *889:B *243:12 0.00020352
17 *889:B *282:16 8.09021e-06
18 *891:C *891:A 4.66108e-05
19 *891:C *893:B 2.75229e-05
20 *891:C *1028:A 0.000162503
21 *891:C *272:16 1.91597e-05
22 *891:C *272:44 1.4174e-05
23 *891:C *365:54 0.000275349
24 *241:31 *814:A 3.82018e-05
25 *241:31 *818:B 0
26 *241:31 *881:C 6.20564e-05
27 *241:31 *883:A 9.97912e-05
28 *241:31 *365:54 7.18176e-05
29 *241:37 *887:A 0.000135084
30 *241:37 *945:A 0
31 *241:37 *1024:A 4.99619e-05
32 *241:43 *247:8 9.66106e-05
33 *241:43 *247:15 0
34 *241:43 *247:45 0
35 *241:43 *282:29 9.72092e-05
36 *241:43 *283:46 1.52945e-05
37 *241:43 *365:213 0
38 axi_rdata[27] *891:C 5.71851e-05
39 axi_rdata[27] *241:31 2.2142e-05
40 axi_rdata[28] *241:37 0.000316415
41 axi_rdata[3] *241:37 4.19967e-05
42 *839:B1 *889:B 8.40269e-05
43 *840:D *889:B 0.000174279
44 *840:D *241:43 0.000207023
45 *884:A1_N *884:A2_N 9.65173e-05
46 *885:A1 *241:37 0.000124895
47 *886:B *886:C 9.60582e-07
48 *891:B *891:C 3.09774e-05
49 *891:B *241:31 8.36497e-05
50 *979:A *241:31 0.000134293
51 *984:A *891:C 7.63168e-05
52 *235:25 *884:A2_N 0
53 *235:25 *241:37 0
54 *235:67 *884:A2_N 0
55 *240:10 *884:A2_N 0
*RES
1 *883:X *241:6 3.6 
2 *241:6 *891:C 9.33 
3 *241:6 *241:31 3.14257 
4 *241:31 *241:37 9.5525 
5 *241:37 *241:43 12.575 
6 *241:43 *889:B 9.3 
7 *241:43 *886:C 4.05 
8 *241:37 *885:A2 1.6 
9 *241:31 *884:A2_N 10.2075 
*END

*D_NET *242 0.00356667
*CONN
*I *887:A I *D sky130_fd_sc_hd__nor2_2
*I *885:Y O *D sky130_fd_sc_hd__a21oi_2
*CAP
1 *887:A 0.00123428
2 *885:Y 0.00123428
3 *887:A *786:A 0.000114551
4 *887:A *788:B 0
5 *887:A *815:B 6.08134e-05
6 *887:A *818:B 6.71803e-06
7 *887:A *823:D 3.45588e-05
8 *887:A *885:B1 0
9 *887:A *886:A 0
10 *887:A *896:RESET_B 5.14953e-05
11 *887:A *898:RESET_B 1.43521e-05
12 *887:A *1024:A 5.83121e-06
13 *887:A *1028:A 1.93834e-05
14 *887:A *249:16 9.02174e-05
15 *887:A *315:77 4.61658e-05
16 axi_rdata[3] *887:A 0.000511923
17 *885:A1 *887:A 7.00889e-06
18 *985:A *887:A 0
19 *241:37 *887:A 0.000135084
*RES
1 *885:Y *887:A 30.15 
*END

*D_NET *243 0.00673589
*CONN
*I *890:A2 I *D sky130_fd_sc_hd__o21ba_2
*I *887:B I *D sky130_fd_sc_hd__nor2_2
*I *886:X O *D sky130_fd_sc_hd__and3_2
*CAP
1 *890:A2 0.000156909
2 *887:B 0.000348597
3 *886:X 0.000780772
4 *243:12 0.00128628
5 *887:B *816:B 0.000135524
6 *887:B *822:A 0.000650617
7 *887:B *892:A 1.79165e-05
8 *887:B *966:A 8.40269e-05
9 *887:B *1029:A 7.08131e-05
10 *890:A2 *890:B1_N 4.41506e-05
11 *890:A2 *927:CLK 0.000133243
12 *243:12 *790:B 0.000271308
13 *243:12 *890:B1_N 3.83194e-05
14 *243:12 *892:A 0.00030615
15 *243:12 *892:B 0.00112576
16 *243:12 *282:16 2.78732e-05
17 *243:12 *282:29 6.02202e-05
18 *889:B *243:12 0.00020352
19 *898:D *887:B 0.000667429
20 *924:D *887:B 4.66108e-05
21 *926:D *887:B 0.000279855
*RES
1 *886:X *243:12 21.74 
2 *243:12 *887:B 18.23 
3 *243:12 *890:A2 4.495 
*END

*D_NET *244 0.00631529
*CONN
*I *891:D I *D sky130_fd_sc_hd__and4_2
*I *889:C I *D sky130_fd_sc_hd__and3_2
*I *888:X O *D sky130_fd_sc_hd__and2_2
*CAP
1 *891:D 0.000169235
2 *889:C 0.00166471
3 *888:X 0.000559686
4 *244:14 0.00239363
5 *889:C *798:B 0
6 *889:C *817:B 0
7 *889:C *894:A 0.000248444
8 *891:D *891:A 0.000119309
9 *891:D *1029:A 0
10 *891:D *365:54 1.16729e-05
11 *244:14 *888:A 4.82919e-05
12 *244:14 *893:A 9.66021e-05
13 *244:14 *894:A 5.05066e-06
14 *244:14 *365:54 1.88656e-05
15 axi_rdata[31] *889:C 0.000196257
16 axi_rdata[31] *244:14 9.11786e-05
17 *891:B *889:C 0
18 *981:A *244:14 0.000347922
19 *983:A *889:C 0.000235313
20 *983:A *244:14 2.97339e-05
21 *213:18 *889:C 7.93973e-05
*RES
1 *888:X *244:14 12.6436 
2 *244:14 *889:C 9.16343 
3 *244:14 *891:D 6.5675 
*END

*D_NET *245 0.00381085
*CONN
*I *890:B1_N I *D sky130_fd_sc_hd__o21ba_2
*I *892:B I *D sky130_fd_sc_hd__xor2_2
*I *889:X O *D sky130_fd_sc_hd__and3_2
*CAP
1 *890:B1_N 9.15567e-05
2 *892:B 0.000604191
3 *889:X 0.000512634
4 *890:B1_N *892:A 0.000113927
5 *890:B1_N *927:CLK 0.000197264
6 *892:B *838:A1 2.66418e-05
7 *892:B *838:B1 0.000158066
8 *892:B *954:A 1.33285e-05
9 *892:B *283:33 0.000223022
10 *838:A3 *892:B 4.66108e-05
11 *839:B1 *892:B 8.40269e-05
12 *889:A *892:B 0.000106246
13 *889:B *892:B 0.00014125
14 *890:A2 *890:B1_N 4.41506e-05
15 *982:A *892:B 0.000235573
16 *985:A *892:B 4.82863e-05
17 *243:12 *890:B1_N 3.83194e-05
18 *243:12 *892:B 0.00112576
*RES
1 *889:X *892:B 16.5175 
2 *892:B *890:B1_N 4.0675 
*END

*D_NET *246 0.000745445
*CONN
*I *893:B I *D sky130_fd_sc_hd__xor2_2
*I *891:X O *D sky130_fd_sc_hd__and4_2
*CAP
1 *893:B 0.000163876
2 *891:X 0.000163876
3 *893:B *894:A 7.88936e-05
4 *893:B *1024:A 1.83756e-05
5 *893:B *272:44 0.000235573
6 axi_rdata[27] *893:B 3.00381e-05
7 *891:C *893:B 2.75229e-05
8 *981:A *893:B 0
9 *984:A *893:B 2.7289e-05
*RES
1 *891:X *893:B 9.665 
*END

*D_NET *247 0.0075389
*CONN
*I *943:A I *D sky130_fd_sc_hd__clkbuf_16
*I *942:A I *D sky130_fd_sc_hd__clkbuf_16
*I *941:A I *D sky130_fd_sc_hd__clkbuf_16
*I *940:A I *D sky130_fd_sc_hd__clkbuf_16
*I *939:X O *D sky130_fd_sc_hd__clkbuf_16
*CAP
1 *943:A 0.000109808
2 *942:A 0.000101444
3 *941:A 0.000118846
4 *940:A 0.000119685
5 *939:X 8.09124e-05
6 *247:73 0.000301054
7 *247:57 0.000905984
8 *247:45 0.00150929
9 *247:31 0.000490692
10 *247:17 0.000203098
11 *247:15 0.000912884
12 *247:8 0.00105204
13 *941:A *1004:A 2.49909e-05
14 *942:A *250:150 1.71443e-05
15 *943:A *876:A1 4.40605e-05
16 *943:A *251:8 4.66108e-05
17 *247:15 *789:B 0.000128398
18 *247:15 *283:46 0.000188436
19 *247:45 *873:A 0
20 *247:45 *254:58 0
21 *247:57 *250:150 2.80262e-05
22 *247:73 *876:A1 3.57457e-05
23 axi_rdata[0] *941:A 2.16825e-05
24 axi_rdata[0] *247:31 4.85532e-05
25 *825:A_N *247:15 0
26 *825:B *247:15 0.0004336
27 *833:B *247:17 6.80137e-05
28 *833:B *247:31 4.22597e-05
29 *835:B *247:15 8.69333e-05
30 *835:B *247:31 5.37301e-05
31 *840:D *247:15 0
32 *845:B *247:45 3.39151e-05
33 *870:B *247:73 0
34 *876:A2 *247:73 5.83121e-06
35 *992:A *940:A 5.77743e-05
36 *149:14 *247:57 1.33487e-05
37 *228:16 *247:45 6.62283e-05
38 *228:16 *247:73 9.12642e-05
39 *237:8 *247:45 0
40 *237:14 *247:15 0
41 *237:14 *247:45 0
42 *241:43 *247:8 9.66106e-05
43 *241:43 *247:15 0
44 *241:43 *247:45 0
*RES
1 *939:X *247:8 5.085 
2 *247:8 *247:15 13.58 
3 *247:15 *247:17 1.3125 
4 *247:17 *940:A 3.5275 
5 *247:15 *247:31 5.4525 
6 *247:31 *941:A 3.5275 
7 *247:8 *247:45 8.3925 
8 *247:45 *247:57 5.31995 
9 *247:57 *942:A 3.05875 
10 *247:45 *247:73 5.03 
11 *247:73 *943:A 3.4825 
*END

*D_NET *248 0.00855595
*CONN
*I *906:CLK I *D sky130_fd_sc_hd__dfrtp_2
*I *932:CLK I *D sky130_fd_sc_hd__dfrtp_2
*I *930:CLK I *D sky130_fd_sc_hd__dfrtp_2
*I *905:CLK I *D sky130_fd_sc_hd__dfrtp_2
*I *944:A I *D sky130_fd_sc_hd__inv_4
*I *902:CLK I *D sky130_fd_sc_hd__dfrtp_2
*I *903:CLK I *D sky130_fd_sc_hd__dfrtp_2
*I *900:CLK I *D sky130_fd_sc_hd__dfrtp_2
*I *901:CLK I *D sky130_fd_sc_hd__dfrtp_2
*I *940:X O *D sky130_fd_sc_hd__clkbuf_16
*CAP
1 *906:CLK 3.02564e-05
2 *932:CLK 0
3 *930:CLK 0.000108018
4 *905:CLK 0.000302406
5 *944:A 0.000100243
6 *902:CLK 0
7 *903:CLK 0.000116333
8 *900:CLK 0.00019632
9 *901:CLK 0.000197099
10 *940:X 7.68365e-05
11 *248:112 0.00057836
12 *248:108 0.000819952
13 *248:78 0.000421364
14 *248:74 0.000571066
15 *248:20 0.000620929
16 *248:14 0.000506695
17 *248:10 0.000321629
18 *248:8 0.000468611
19 *900:CLK *791:B 0
20 *900:CLK *1037:A 0
21 *900:CLK *278:14 0.000131942
22 *901:CLK *278:31 0.000109418
23 *901:CLK *278:44 4.18603e-06
24 *903:CLK *792:A 4.71207e-05
25 *930:CLK *930:D 4.99619e-05
26 *930:CLK *933:D 0
27 *248:8 *793:B 0.000228863
28 *248:10 *280:16 0.000231334
29 *248:14 *792:B 9.02927e-05
30 *248:14 *900:RESET_B 0.000178049
31 *248:14 *280:16 5.13551e-05
32 *248:20 *791:B 0.000232403
33 *248:20 *278:31 4.77757e-05
34 *248:112 *932:D 0.000242453
35 *826:B *900:CLK 1.08766e-05
36 *826:B *901:CLK 5.53549e-06
37 *828:B *901:CLK 0
38 *828:B *248:14 0
39 *828:B *248:20 0.000122797
40 *839:A1 *944:A 2.61449e-05
41 *839:A1 *248:74 0.000132462
42 *839:A1 *248:108 7.01303e-05
43 *839:A2 *905:CLK 0.000398257
44 *839:A2 *944:A 1.08758e-05
45 *900:D *900:CLK 7.43984e-05
46 *901:D *901:CLK 2.68526e-05
47 *902:D *248:8 4.65865e-05
48 *902:D *248:10 0.00010406
49 *902:D *248:74 2.62458e-05
50 *905:D *905:CLK 0.000157514
51 *986:A *248:20 9.47972e-06
52 *988:A *248:8 4.66108e-05
53 *989:A *930:CLK 0.000183745
54 *213:18 *905:CLK 2.21074e-05
*RES
1 *940:X *248:8 5.775 
2 *248:8 *248:10 3.93 
3 *248:10 *248:14 5.675 
4 *248:14 *248:20 6.4775 
5 *248:20 *901:CLK 7.3725 
6 *248:20 *900:CLK 7.1175 
7 *248:14 *903:CLK 3.55 
8 *248:10 *902:CLK 3.6 
9 *248:8 *248:74 3.93 
10 *248:74 *248:78 2.36 
11 *248:78 *944:A 3.1 
12 *248:78 *905:CLK 7.825 
13 *248:74 *248:108 6.695 
14 *248:108 *248:112 7.71 
15 *248:112 *930:CLK 8.195 
16 *248:112 *932:CLK 1.6 
17 *248:108 *906:CLK 2.05 
*END

*D_NET *249 0.0142724
*CONN
*I *928:CLK I *D sky130_fd_sc_hd__dfrtp_2
*I *895:CLK I *D sky130_fd_sc_hd__dfrtp_2
*I *898:CLK I *D sky130_fd_sc_hd__dfrtp_2
*I *945:A I *D sky130_fd_sc_hd__clkbuf_4
*I *924:CLK I *D sky130_fd_sc_hd__dfrtp_2
*I *927:CLK I *D sky130_fd_sc_hd__dfrtp_2
*I *925:CLK I *D sky130_fd_sc_hd__dfrtp_2
*I *929:CLK I *D sky130_fd_sc_hd__dfrtp_2
*I *904:CLK I *D sky130_fd_sc_hd__dfrtp_2
*I *926:CLK I *D sky130_fd_sc_hd__dfrtp_2
*I *897:CLK I *D sky130_fd_sc_hd__dfrtp_2
*I *899:CLK I *D sky130_fd_sc_hd__dfrtp_2
*I *896:CLK I *D sky130_fd_sc_hd__dfrtp_2
*I *941:X O *D sky130_fd_sc_hd__clkbuf_16
*CAP
1 *928:CLK 0
2 *895:CLK 6.8895e-05
3 *898:CLK 0.000263012
4 *945:A 0.000797598
5 *924:CLK 7.69249e-05
6 *927:CLK 0.000323405
7 *925:CLK 0
8 *929:CLK 0
9 *904:CLK 0.000201578
10 *926:CLK 5.36338e-05
11 *897:CLK 0
12 *899:CLK 4.57693e-05
13 *896:CLK 0.000241811
14 *941:X 0.000149578
15 *249:141 0.000389717
16 *249:137 0.000159582
17 *249:108 0.000964919
18 *249:95 0.000496107
19 *249:66 0.000603623
20 *249:64 0.000462893
21 *249:60 0.000199458
22 *249:49 0.00014884
23 *249:16 0.00102093
24 *249:10 0.000865456
25 *249:8 0.000218816
26 *895:CLK *820:A 0.000189887
27 *895:CLK *958:A 0.000210536
28 *896:CLK *823:D 3.79854e-05
29 *896:CLK *824:A3 9.10613e-05
30 *896:CLK *1035:A 1.21329e-05
31 *896:CLK *263:12 7.03276e-05
32 *896:CLK *263:14 4.66108e-05
33 *898:CLK *789:B 0
34 *898:CLK *890:A1 0.000133453
35 *898:CLK *894:B 0
36 *898:CLK *1029:A 0
37 *898:CLK *1038:A 0.000357842
38 *898:CLK *365:10 9.68818e-05
39 *899:CLK *823:D 2.75229e-05
40 *904:CLK *796:A 8.9257e-05
41 *904:CLK *905:RESET_B 0.000106519
42 *904:CLK *282:8 8.35118e-05
43 *904:CLK *283:31 6.29106e-05
44 *924:CLK *816:B 5.6361e-05
45 *926:CLK *822:A 8.247e-05
46 *926:CLK *960:A 3.93531e-05
47 *927:CLK *927:RESET_B 0.0001249
48 *945:A *813:B 0.000199833
49 *945:A *1029:A 0
50 *249:10 *892:A 0.000177835
51 *249:16 *823:D 6.42132e-05
52 *249:49 *892:A 0.000133329
53 *249:60 *892:A 0.000174204
54 *249:64 *929:RESET_B 6.04372e-05
55 *249:66 *905:RESET_B 0.000163201
56 *249:66 *929:D 9.15873e-05
57 *249:66 *929:RESET_B 0.000109043
58 *249:95 *816:B 0
59 *249:95 *892:A 0.000153205
60 *249:108 *816:B 0
61 *249:108 *1029:A 0
62 *249:137 *928:D 4.41506e-05
63 *249:141 *890:A1 0.000173793
64 *249:141 *1038:A 0.000165965
65 axi_rdata[2] *898:CLK 1.61831e-05
66 axi_rdata[31] *945:A 3.86439e-05
67 axi_rdata[3] *945:A 0.000148531
68 axi_rdata[3] *249:108 1.58707e-05
69 axi_wready *898:CLK 7.00889e-06
70 *825:B *904:CLK 0.000153834
71 *887:A *249:16 9.02174e-05
72 *890:A2 *927:CLK 0.000133243
73 *890:B1_N *927:CLK 0.000197264
74 *891:B *945:A 4.13992e-05
75 *897:D *249:10 3.09164e-05
76 *897:D *249:16 0.000139245
77 *898:D *249:10 9.92475e-05
78 *904:D *904:CLK 4.80058e-05
79 *924:D *924:CLK 6.97118e-05
80 *924:D *249:10 0.000383215
81 *924:D *249:16 0.00018587
82 *924:D *249:49 0.000126927
83 *924:D *249:60 0.0001665
84 *924:D *249:95 0.000189153
85 *924:D *249:108 0.000106648
86 *925:D *249:64 8.53856e-06
87 *926:D *926:CLK 8.46818e-05
88 *970:A *896:CLK 0.000121351
89 *979:A *945:A 0
90 *981:A *924:CLK 0.000157968
91 *205:14 *896:CLK 9.06603e-05
92 *240:10 *945:A 3.86529e-05
93 *241:37 *945:A 0
*RES
1 *941:X *249:8 4.05 
2 *249:8 *249:10 4.695 
3 *249:10 *249:16 11.33 
4 *249:16 *896:CLK 10.85 
5 *249:16 *899:CLK 2.77 
6 *249:10 *897:CLK 3.6 
7 *249:8 *249:49 1.635 
8 *249:49 *926:CLK 5.085 
9 *249:49 *249:60 2.145 
10 *249:60 *249:64 3.14 
11 *249:64 *249:66 7.35 
12 *249:66 *904:CLK 10.475 
13 *249:66 *929:CLK 1.6 
14 *249:64 *925:CLK 1.6 
15 *249:60 *249:95 2.4 
16 *249:95 *927:CLK 9.24 
17 *249:95 *249:108 1.89 
18 *249:108 *924:CLK 6.12 
19 *249:108 *945:A 14.67 
20 *941:X *249:137 3.085 
21 *249:137 *249:141 4.145 
22 *249:141 *898:CLK 10.275 
23 *249:141 *895:CLK 6.12 
24 *249:137 *928:CLK 1.6 
*END

*D_NET *250 0.0100821
*CONN
*I *911:CLK I *D sky130_fd_sc_hd__dfrtp_2
*I *907:CLK I *D sky130_fd_sc_hd__dfrtp_2
*I *915:CLK I *D sky130_fd_sc_hd__dfrtp_2
*I *913:CLK I *D sky130_fd_sc_hd__dfrtp_2
*I *912:CLK I *D sky130_fd_sc_hd__dfrtp_2
*I *914:CLK I *D sky130_fd_sc_hd__dfrtp_2
*I *931:CLK I *D sky130_fd_sc_hd__dfrtp_2
*I *909:CLK I *D sky130_fd_sc_hd__dfrtp_2
*I *935:CLK I *D sky130_fd_sc_hd__dfrtp_2
*I *908:CLK I *D sky130_fd_sc_hd__dfrtp_2
*I *933:CLK I *D sky130_fd_sc_hd__dfrtp_2
*I *934:CLK I *D sky130_fd_sc_hd__dfrtp_2
*I *910:CLK I *D sky130_fd_sc_hd__dfrtp_2
*I *942:X O *D sky130_fd_sc_hd__clkbuf_16
*CAP
1 *911:CLK 1.54507e-06
2 *907:CLK 0.000108852
3 *915:CLK 0.000225751
4 *913:CLK 0
5 *912:CLK 0.000175412
6 *914:CLK 0
7 *931:CLK 0.00013127
8 *909:CLK 2.51931e-05
9 *935:CLK 0.000233789
10 *908:CLK 0
11 *933:CLK 0.000158912
12 *934:CLK 0
13 *910:CLK 0.000184841
14 *942:X 0.000254963
15 *250:150 0.000399837
16 *250:115 0.000553363
17 *250:109 0.000671714
18 *250:100 0.000169953
19 *250:89 0.000341232
20 *250:85 0.000567244
21 *250:40 0.000448228
22 *250:34 0.000603383
23 *250:32 0.000182472
24 *250:10 0.000403424
25 *250:6 0.000380762
26 *909:CLK *909:RESET_B 4.66108e-05
27 *910:CLK *801:A 7.82218e-05
28 *910:CLK *848:B 0
29 *910:CLK *934:D 0
30 *910:CLK *255:80 9.50342e-06
31 *910:CLK *256:68 0
32 *912:CLK *804:B 7.08493e-05
33 *912:CLK *1013:A 2.54824e-05
34 *912:CLK *259:22 0
35 *915:CLK *913:RESET_B 4.31698e-05
36 *915:CLK *260:34 8.23457e-05
37 *933:CLK *799:B 7.9642e-06
38 *933:CLK *1007:A 2.76356e-05
39 *933:CLK *255:50 5.95616e-05
40 *933:CLK *255:65 2.36212e-05
41 *933:CLK *256:20 4.21973e-05
42 *935:CLK *935:D 9.43554e-05
43 *250:6 *847:B1 5.78112e-05
44 *250:6 *848:A 1.08758e-05
45 *250:10 *848:A 3.66286e-05
46 *250:10 *255:80 0.000267846
47 *250:40 *256:20 2.49909e-05
48 *250:40 *257:29 6.53388e-05
49 *250:115 *856:A 6.7317e-05
50 axi_rdata[15] *933:CLK 0.000120655
51 *849:A *935:CLK 2.49909e-05
52 *849:A *250:32 0.000107634
53 *849:A *250:34 0.000154488
54 *849:A *250:40 5.23362e-05
55 *849:B *250:32 1.1561e-05
56 *853:C *250:150 0.000172552
57 *854:A2 *250:40 0
58 *856:B *912:CLK 1.13106e-05
59 *859:D *250:100 0.000200664
60 *859:D *250:109 1.56455e-05
61 *908:D *250:40 0.000183872
62 *909:D *935:CLK 4.66108e-05
63 *910:D *910:CLK 5.83121e-06
64 *912:D *912:CLK 7.08493e-05
65 *913:D *912:CLK 3.60024e-06
66 *915:D *915:CLK 0.000128644
67 *915:D *250:115 3.91176e-06
68 *942:A *250:150 1.71443e-05
69 *989:A *933:CLK 0.000179285
70 *1000:A *912:CLK 0
71 *149:14 *907:CLK 8.58997e-05
72 *149:14 *915:CLK 3.14598e-05
73 *149:14 *250:89 0.000193491
74 *149:14 *250:100 0.000224717
75 *149:14 *250:109 6.63721e-05
76 *149:14 *250:150 1.52845e-05
77 *217:42 *910:CLK 0
78 *222:10 *907:CLK 9.95272e-05
79 *222:10 *911:CLK 2.10433e-05
80 *222:10 *250:150 4.4123e-05
81 *223:23 *250:89 0.00024677
82 *223:23 *250:100 0.000149287
83 *247:57 *250:150 2.80262e-05
*RES
1 *942:X *250:6 3.085 
2 *250:6 *250:10 3.57 
3 *250:10 *910:CLK 8.885 
4 *250:10 *934:CLK 1.6 
5 *250:6 *250:32 3.635 
6 *250:32 *250:34 1.89 
7 *250:34 *250:40 7.58 
8 *250:40 *933:CLK 9.575 
9 *250:40 *908:CLK 1.6 
10 *250:34 *935:CLK 7.17 
11 *250:32 *909:CLK 4.05 
12 *942:X *250:85 3.43 
13 *250:85 *250:89 5.675 
14 *250:89 *931:CLK 5.43 
15 *250:89 *250:100 4.185 
16 *250:100 *914:CLK 3.6 
17 *250:100 *250:109 1.38 
18 *250:109 *250:115 6.515 
19 *250:115 *912:CLK 9.14 
20 *250:115 *913:CLK 1.6 
21 *250:109 *915:CLK 8.115 
22 *250:85 *250:150 6.7025 
23 *250:150 *907:CLK 6.3225 
24 *250:150 *911:CLK 3.8325 
*END

*D_NET *251 0.00794874
*CONN
*I *920:CLK I *D sky130_fd_sc_hd__dfrtp_2
*I *921:CLK I *D sky130_fd_sc_hd__dfrtp_2
*I *922:CLK I *D sky130_fd_sc_hd__dfrtp_2
*I *923:CLK I *D sky130_fd_sc_hd__dfrtp_2
*I *916:CLK I *D sky130_fd_sc_hd__dfrtp_2
*I *917:CLK I *D sky130_fd_sc_hd__dfrtp_2
*I *918:CLK I *D sky130_fd_sc_hd__dfrtp_2
*I *919:CLK I *D sky130_fd_sc_hd__dfrtp_2
*I *946:A I *D sky130_fd_sc_hd__inv_4
*I *943:X O *D sky130_fd_sc_hd__clkbuf_16
*CAP
1 *920:CLK 0.000313569
2 *921:CLK 1.14982e-05
3 *922:CLK 0.000100083
4 *923:CLK 0.000161808
5 *916:CLK 0.000147082
6 *917:CLK 0
7 *918:CLK 3.84222e-05
8 *919:CLK 5.46372e-05
9 *946:A 0.000185069
10 *943:X 0.000439706
11 *251:89 0.000206694
12 *251:76 0.00033049
13 *251:74 0.000413444
14 *251:47 0.000436564
15 *251:36 0.000409767
16 *251:10 0.000279367
17 *251:8 0.000534922
18 *916:CLK *807:A 0
19 *916:CLK *1014:A 4.82919e-05
20 *916:CLK *264:12 0
21 *918:CLK *872:A 4.66826e-05
22 *920:CLK *879:A 2.07184e-05
23 *920:CLK *918:RESET_B 4.01778e-05
24 *920:CLK *267:12 1.1561e-05
25 *920:CLK *267:33 0.000160658
26 *921:CLK *810:A 2.75229e-05
27 *921:CLK *882:A1 2.16917e-05
28 *922:CLK *918:RESET_B 0
29 *922:CLK *268:25 0
30 *923:CLK *878:B1 0
31 *923:CLK *879:A 0.000159964
32 *251:8 *876:A1 0.000175841
33 *251:47 *869:A 0
34 *251:47 *872:A 0
35 *251:47 *1040:A 0
36 *251:47 *264:12 0
37 *251:74 *876:A1 5.83121e-06
38 *251:74 *879:A 4.66108e-05
39 *251:74 *267:33 1.33285e-05
40 *251:76 *879:A 0.000150453
41 *251:89 *810:A 0.000191802
42 *251:89 *882:A1 9.77147e-05
43 *251:89 *919:RESET_B 3.87808e-05
44 *251:89 *267:12 5.83121e-06
45 axi_rdata[17] *916:CLK 0.000154488
46 axi_rdata[17] *251:47 0.000139238
47 *867:B1 *251:47 0.000116151
48 *870:A *919:CLK 8.40269e-05
49 *872:C *918:CLK 1.19928e-05
50 *872:C *920:CLK 0
51 *873:B *946:A 9.37731e-05
52 *873:D *946:A 1.89685e-05
53 *873:D *251:10 1.86911e-05
54 *873:D *251:36 6.81159e-05
55 *875:D *946:A 0.000189886
56 *875:D *251:10 0.000112123
57 *875:D *251:36 0.000245893
58 *875:D *251:47 0.000116165
59 *876:B1_N *251:10 7.23602e-05
60 *876:B1_N *251:36 4.38051e-05
61 *880:A *920:CLK 4.82919e-05
62 *880:B *920:CLK 0.000125711
63 *880:B *923:CLK 8.08153e-06
64 *880:B *251:76 5.93844e-05
65 *882:A2 *251:89 4.66108e-05
66 *882:B1_N *922:CLK 8.44281e-05
67 *882:B1_N *251:89 4.82919e-05
68 *884:A2_N *923:CLK 0.000162318
69 *917:D *251:47 5.89992e-05
70 *918:D *918:CLK 0.000119762
71 *921:D *920:CLK 3.72916e-05
72 *922:D *922:CLK 3.39064e-05
73 *923:D *923:CLK 4.70256e-05
74 *943:A *251:8 4.66108e-05
75 *215:35 *946:A 0
76 *228:16 *946:A 5.12017e-06
77 *228:16 *251:36 2.66939e-05
78 *228:16 *251:47 8.08153e-06
79 *235:23 *919:CLK 2.30292e-05
80 *235:75 *923:CLK 8.09021e-06
81 *235:75 *251:74 8.23457e-05
82 *239:14 *923:CLK 5.64037e-05
*RES
1 *943:X *251:8 8.88 
2 *251:8 *251:10 1.38 
3 *251:10 *946:A 7.44 
4 *251:10 *919:CLK 4.74 
5 *251:8 *251:36 2.91 
6 *251:36 *918:CLK 4.74 
7 *251:36 *251:47 6.225 
8 *251:47 *917:CLK 3.6 
9 *251:47 *916:CLK 6.63 
10 *943:X *251:74 4.395 
11 *251:74 *251:76 1.89 
12 *251:76 *923:CLK 7.785 
13 *251:76 *251:89 5.21 
14 *251:89 *922:CLK 7.745 
15 *251:89 *921:CLK 2.05 
16 *251:74 *920:CLK 10.245 
*END

*D_NET *252 0.00788164
*CONN
*I *820:A I *D sky130_fd_sc_hd__or2_2
*I *959:A I *D sky130_fd_sc_hd__dlygate4sd3_1
*I *823:A I *D sky130_fd_sc_hd__and4_2
*I *819:A I *D sky130_fd_sc_hd__nand2_2
*I *824:A1 I *D sky130_fd_sc_hd__a31o_2
*I *787:A I *D sky130_fd_sc_hd__xor2_2
*I *896:Q O *D sky130_fd_sc_hd__dfrtp_2
*CAP
1 *820:A 0.00119154
2 *959:A 0
3 *823:A 0
4 *819:A 3.50099e-05
5 *824:A1 0.000192296
6 *787:A 6.79286e-05
7 *896:Q 0
8 *252:56 0.00136625
9 *252:25 0.000420953
10 *252:23 0.000214697
11 *252:10 0.000594073
12 *252:4 0.000679802
13 *787:A *787:B 9.50342e-06
14 *819:A *819:B 5.19006e-06
15 *819:A *823:D 0
16 *820:A *820:B 0.00034103
17 *820:A *893:A 0
18 *820:A *958:A 0.000188335
19 *820:A *1027:A 3.23663e-05
20 *820:A *1045:A 0
21 *824:A1 *824:A2 0.000137612
22 *824:A1 *1032:A 0.000154658
23 *824:A1 *263:14 2.61093e-05
24 *252:10 *896:RESET_B 4.1235e-05
25 *252:10 *958:A 9.68926e-05
26 *252:23 *823:D 4.82863e-05
27 *252:25 *823:D 0.000159747
28 *252:25 *263:14 6.77467e-05
29 *252:56 *786:A 2.49909e-05
30 *252:56 *958:A 0.000135563
31 axi_bvalid *820:A 0
32 axi_rdata[29] *820:A 0.000348252
33 axi_rdata[30] *820:A 0.000394699
34 axi_rdata[9] *824:A1 3.02698e-05
35 uart_tx *820:A 0
36 *895:CLK *820:A 0.000189887
37 *895:D *820:A 8.54281e-05
38 *896:D *252:10 0.000114649
39 *938:A *820:A 0
40 *970:A *787:A 8.38707e-05
41 *970:A *252:10 0.000131453
42 *982:A *787:A 7.83382e-05
43 *982:A *252:10 0.000192975
*RES
1 *896:Q *252:4 1.6 
2 *252:4 *252:10 11.72 
3 *252:10 *787:A 5.49 
4 *252:10 *252:23 2.45 
5 *252:23 *252:25 3.21 
6 *252:25 *824:A1 9.875 
7 *252:25 *819:A 2.215 
8 *252:23 *823:A 1.6 
9 *252:4 *252:56 3.21 
10 *252:56 *959:A 1.6 
11 *252:56 *820:A 27.965 
*END

*D_NET *253 0.00633801
*CONN
*I *952:A I *D sky130_fd_sc_hd__dlygate4sd3_1
*I *841:B1_N I *D sky130_fd_sc_hd__o21ba_2
*I *797:A I *D sky130_fd_sc_hd__xor2_2
*I *840:A I *D sky130_fd_sc_hd__and4_2
*I *906:Q O *D sky130_fd_sc_hd__dfrtp_2
*CAP
1 *952:A 0
2 *841:B1_N 3.8206e-05
3 *797:A 0.000780987
4 *840:A 0.000244311
5 *906:Q 0.000549555
6 *253:14 0.00114248
7 *253:12 0.000233653
8 *253:10 0.000627816
9 *797:A *797:B 0.000392808
10 *797:A *834:A1 0.00041938
11 *840:A *834:A1 0.000300968
12 *840:A *965:A 0.000292011
13 *840:A *279:23 6.90254e-05
14 *253:10 *906:RESET_B 0.000116899
15 gpio_out[5] *797:A 1.19028e-05
16 *839:A1 *253:14 0
17 *839:A2 *841:B1_N 4.90291e-05
18 *839:B1 *841:B1_N 8.65961e-05
19 *842:B *253:10 1.43521e-05
20 *842:B *253:12 5.42473e-05
21 *842:B *253:14 3.028e-05
22 *902:D *840:A 4.33166e-05
23 *905:D *253:14 3.07509e-05
24 *906:D *253:10 0.000123573
25 *205:24 *840:A 0.000417023
26 *210:10 *840:A 0.000162796
27 *211:32 *797:A 1.19928e-05
28 *215:10 *840:A 9.40432e-05
29 *215:19 *253:10 0
*RES
1 *906:Q *253:10 10.515 
2 *253:10 *253:12 1.635 
3 *253:12 *253:14 2.145 
4 *253:14 *840:A 12.45 
5 *253:14 *797:A 16.77 
6 *253:12 *841:B1_N 4.755 
7 *253:10 *952:A 3.6 
*END

*D_NET *254 0.00420514
*CONN
*I *873:A I *D sky130_fd_sc_hd__and4_2
*I *875:A I *D sky130_fd_sc_hd__and4_2
*I *844:A I *D sky130_fd_sc_hd__nor2_2
*I *862:A I *D sky130_fd_sc_hd__and4_2
*I *956:A I *D sky130_fd_sc_hd__dlygate4sd3_1
*I *853:A I *D sky130_fd_sc_hd__and3_2
*I *798:A I *D sky130_fd_sc_hd__xor2_2
*I *843:A I *D sky130_fd_sc_hd__and2_2
*I *907:Q O *D sky130_fd_sc_hd__dfrtp_2
*CAP
1 *873:A 0.000260536
2 *875:A 2.07334e-05
3 *844:A 0
4 *862:A 0
5 *956:A 0.000251211
6 *853:A 3.38906e-05
7 *798:A 0
8 *843:A 0
9 *907:Q 0
10 *254:71 8.16044e-05
11 *254:60 6.0871e-05
12 *254:58 0.000386963
13 *254:36 0.000415479
14 *254:25 0.000224714
15 *254:12 0.000359414
16 *254:4 0.000391504
17 *853:A *931:D 8.65905e-05
18 *873:A *931:RESET_B 0
19 *956:A *876:A1 0
20 *956:A *931:D 0.000201508
21 *254:12 *798:B 7.16263e-05
22 *254:12 *931:RESET_B 0
23 *254:25 *798:B 0.000135973
24 *254:36 *798:B 8.7152e-06
25 *254:58 *931:RESET_B 0
26 *844:B *254:71 8.65961e-05
27 *845:B *873:A 5.53249e-06
28 *845:B *254:12 0.000207896
29 *845:B *254:58 9.99842e-05
30 *853:B *853:A 2.65814e-06
31 *853:B *254:25 7.24691e-05
32 *853:B *254:36 7.20587e-05
33 *853:C *254:36 0
34 *862:C *254:25 0.000179203
35 *862:D *254:36 0
36 *870:A *873:A 4.99619e-05
37 *215:23 *254:25 0.000124007
38 *215:27 *254:25 3.00399e-05
39 *215:35 *875:A 2.8185e-05
40 *215:35 *254:71 0.00012505
41 *215:57 *254:71 5.4155e-06
42 *228:16 *875:A 8.57024e-05
43 *228:16 *254:71 3.90495e-05
44 *247:45 *873:A 0
45 *247:45 *254:58 0
*RES
1 *907:Q *254:4 1.6 
2 *254:4 *254:12 9.355 
3 *254:12 *843:A 1.6 
4 *254:12 *254:25 5.48 
5 *254:25 *798:A 3.6 
6 *254:25 *254:36 4.655 
7 *254:36 *853:A 2.395 
8 *254:36 *956:A 5.86 
9 *254:4 *254:58 4.43 
10 *254:58 *254:60 2 
11 *254:60 *862:A 1.6 
12 *254:60 *254:71 2.205 
13 *254:71 *844:A 1.6 
14 *254:71 *875:A 2.395 
15 *254:58 *873:A 7.23 
*END

*D_NET *255 0.00678274
*CONN
*I *848:A I *D sky130_fd_sc_hd__and3_2
*I *847:A1 I *D sky130_fd_sc_hd__a21oi_2
*I *846:A I *D sky130_fd_sc_hd__xor2_2
*I *799:A I *D sky130_fd_sc_hd__xor2_2
*I *961:A I *D sky130_fd_sc_hd__dlygate4sd3_1
*I *852:A I *D sky130_fd_sc_hd__and4_2
*I *850:A I *D sky130_fd_sc_hd__and4_2
*I *908:Q O *D sky130_fd_sc_hd__dfrtp_2
*CAP
1 *848:A 0.000439943
2 *847:A1 0
3 *846:A 1.92508e-05
4 *799:A 4.75505e-05
5 *961:A 9.58537e-05
6 *852:A 0
7 *850:A 0.000341117
8 *908:Q 0.000221976
9 *255:80 0.00083848
10 *255:65 0.000562541
11 *255:50 0.000411971
12 *255:16 0.000216495
13 *255:14 0.000412876
14 *799:A *799:B 0.000101369
15 *799:A *1007:A 0.000163199
16 *846:A *802:A 4.99619e-05
17 *848:A *847:B1 2.47044e-05
18 *848:A *848:B 3.54025e-05
19 *850:A *852:B 0.000226143
20 *850:A *256:28 8.8266e-05
21 *255:14 *365:193 0.000187537
22 *255:16 *852:B 8.696e-05
23 *255:16 *852:C 2.30292e-05
24 *255:16 *852:D 1.34503e-05
25 *255:50 *1042:A 1.02346e-05
26 *255:50 *256:28 4.82919e-05
27 *255:50 *365:287 0
28 *255:65 *799:B 0.000113821
29 *255:65 *1010:A 9.37893e-05
30 *255:65 *365:287 0
31 *255:80 *934:D 0
32 *255:80 *934:RESET_B 0
33 *255:80 *256:20 0.000164382
34 *255:80 *365:285 0
35 *255:80 *365:287 0
36 axi_rdata[12] *961:A 0.000178439
37 *848:C *848:A 0.000652
38 *848:C *255:80 7.3151e-05
39 *849:B *848:A 1.15688e-05
40 *850:D *255:50 4.99619e-05
41 *856:B *848:A 1.70935e-05
42 *910:CLK *255:80 9.50342e-06
43 *933:CLK *255:50 5.95616e-05
44 *933:CLK *255:65 2.36212e-05
45 *989:A *255:65 1.32017e-05
46 *989:A *255:80 0.000128239
47 *149:14 *255:14 1.19776e-05
48 *215:19 *255:14 0
49 *217:42 *255:80 0.000121372
50 *220:12 *848:A 3.64998e-06
51 *222:10 *255:14 7.54579e-05
52 *250:6 *848:A 1.08758e-05
53 *250:10 *848:A 3.66286e-05
54 *250:10 *255:80 0.000267846
*RES
1 *908:Q *255:14 9.86 
2 *255:14 *255:16 1.83 
3 *255:16 *850:A 4.465 
4 *255:16 *852:A 1.6 
5 *255:14 *961:A 7.745 
6 *850:A *255:50 7.155 
7 *255:50 *799:A 5.445 
8 *255:50 *255:65 3.195 
9 *255:65 *846:A 4.05 
10 *255:65 *255:80 10.745 
11 *255:80 *847:A1 1.6 
12 *255:80 *848:A 15.62 
*END

*D_NET *256 0.00879549
*CONN
*I *848:B I *D sky130_fd_sc_hd__and3_2
*I *847:B1 I *D sky130_fd_sc_hd__a21oi_2
*I *852:B I *D sky130_fd_sc_hd__and4_2
*I *850:B I *D sky130_fd_sc_hd__and4_2
*I *955:A I *D sky130_fd_sc_hd__dlygate4sd3_1
*I *800:A I *D sky130_fd_sc_hd__xor2_2
*I *909:Q O *D sky130_fd_sc_hd__dfrtp_2
*CAP
1 *848:B 0.000337333
2 *847:B1 0.000217773
3 *852:B 4.42566e-05
4 *850:B 0
5 *955:A 0
6 *800:A 0.000386324
7 *909:Q 0.000430838
8 *256:68 0.000682316
9 *256:28 0.00073809
10 *256:20 0.000783832
11 *256:6 0.000945857
12 *800:A *1008:A 0.000265218
13 *848:B *934:D 0
14 *848:B *957:A 0.00024612
15 *848:B *257:29 7.06865e-05
16 *852:B *852:C 0.000263382
17 *852:B *257:29 4.82919e-05
18 *256:6 *909:RESET_B 0.000116502
19 *256:6 *365:283 2.40185e-05
20 *256:20 *257:29 0.000200146
21 *256:28 *933:D 0
22 *256:28 *1007:A 0.000361628
23 *256:28 *257:29 4.82863e-05
24 *256:68 *909:RESET_B 7.3151e-05
25 *256:68 *257:29 0.000179015
26 axi_rdata[13] *800:A 0.000159721
27 axi_rdata[15] *256:20 4.82863e-05
28 *848:A *847:B1 2.47044e-05
29 *848:A *848:B 3.54025e-05
30 *848:C *847:B1 5.98345e-05
31 *848:C *848:B 8.93376e-05
32 *850:A *852:B 0.000226143
33 *850:A *256:28 8.8266e-05
34 *850:D *256:20 0.000136877
35 *850:D *256:28 1.60203e-05
36 *854:A2 *256:20 0
37 *908:D *256:20 9.44519e-05
38 *910:CLK *848:B 0
39 *910:CLK *256:68 0
40 *910:D *848:B 0
41 *933:CLK *256:20 4.21973e-05
42 *989:A *256:20 0.000235859
43 *217:20 *256:20 0.000107898
44 *217:42 *847:B1 2.49909e-05
45 *217:42 *256:20 0.000286027
46 *217:42 *256:68 0.00013521
47 *220:12 *848:B 0.000138762
48 *250:6 *847:B1 5.78112e-05
49 *250:40 *256:20 2.49909e-05
50 *255:16 *852:B 8.696e-05
51 *255:50 *256:28 4.82919e-05
52 *255:80 *256:20 0.000164382
*RES
1 *909:Q *256:6 6.535 
2 *256:6 *256:20 18.365 
3 *256:20 *256:28 11.62 
4 *256:28 *800:A 9.805 
5 *256:28 *955:A 1.6 
6 *256:20 *850:B 1.6 
7 *256:20 *852:B 4.465 
8 *256:6 *256:68 4.94 
9 *256:68 *847:B1 6.84 
10 *256:68 *848:B 10.38 
*END

*D_NET *257 0.00570565
*CONN
*I *957:A I *D sky130_fd_sc_hd__dlygate4sd3_1
*I *852:C I *D sky130_fd_sc_hd__and4_2
*I *850:C I *D sky130_fd_sc_hd__and4_2
*I *801:A I *D sky130_fd_sc_hd__xor2_2
*I *910:Q O *D sky130_fd_sc_hd__dfrtp_2
*CAP
1 *957:A 0.000219552
2 *852:C 9.35825e-05
3 *850:C 0
4 *801:A 0.000386291
5 *910:Q 0.000342333
6 *257:29 0.000450859
7 *257:23 0.000576829
8 *257:6 0.000728623
9 *852:C *852:D 1.16578e-05
10 *957:A *373:8 4.82919e-05
11 *257:6 *910:RESET_B 2.2214e-05
12 *257:29 *1007:A 6.57949e-06
13 *848:B *957:A 0.00024612
14 *848:B *257:29 7.06865e-05
15 *848:C *957:A 1.07797e-05
16 *849:B *957:A 0.000278869
17 *849:B *257:29 0.000484929
18 *850:D *852:C 4.94457e-05
19 *850:D *257:29 0.000247815
20 *852:B *852:C 0.000263382
21 *852:B *257:29 4.82919e-05
22 *854:A2 *852:C 0.000161985
23 *908:D *257:29 5.57814e-05
24 *909:D *257:29 0.000162325
25 *910:CLK *801:A 7.82218e-05
26 *910:D *801:A 1.17409e-05
27 *217:20 *257:29 6.5525e-05
28 *217:42 *257:29 6.71226e-05
29 *250:40 *257:29 6.53388e-05
30 *255:16 *852:C 2.30292e-05
31 *256:20 *257:29 0.000200146
32 *256:28 *257:29 4.82863e-05
33 *256:68 *257:29 0.000179015
*RES
1 *910:Q *257:6 5.155 
2 *257:6 *801:A 6.685 
3 *257:6 *257:23 2 
4 *257:23 *257:29 14.12 
5 *257:29 *850:C 1.6 
6 *257:29 *852:C 4.825 
7 *257:23 *957:A 9.03 
*END

*D_NET *258 0.00390858
*CONN
*I *953:A I *D sky130_fd_sc_hd__dlygate4sd3_1
*I *852:D I *D sky130_fd_sc_hd__and4_2
*I *854:A1 I *D sky130_fd_sc_hd__o21ba_2
*I *802:A I *D sky130_fd_sc_hd__xor2_2
*I *911:Q O *D sky130_fd_sc_hd__dfrtp_2
*CAP
1 *953:A 8.90625e-05
2 *852:D 0.000221906
3 *854:A1 0
4 *802:A 0.000541514
5 *911:Q 0.000285293
6 *258:20 0.000581972
7 *258:18 0.000378748
8 *258:14 0.00049074
9 *802:A *799:B 0.000414358
10 *802:A *1010:A 4.82863e-05
11 *852:D *799:B 3.93101e-05
12 *852:D *911:RESET_B 0
13 *852:D *365:193 0
14 *258:14 *909:RESET_B 3.41128e-05
15 *258:20 *799:B 6.42574e-05
16 *846:A *802:A 4.99619e-05
17 *852:C *852:D 1.16578e-05
18 *854:A2 *852:D 0.000337202
19 *854:A2 *258:18 2.84864e-05
20 *854:A2 *258:20 4.77719e-05
21 *854:B1_N *258:14 6.26665e-05
22 *854:B1_N *258:18 5.10839e-05
23 *911:D *852:D 3.64998e-06
24 *995:A *852:D 0
25 *217:18 *953:A 0.000113088
26 *255:16 *852:D 1.34503e-05
*RES
1 *911:Q *258:14 7.62 
2 *258:14 *258:18 4.145 
3 *258:18 *258:20 1.14 
4 *258:20 *802:A 10.705 
5 *258:20 *854:A1 1.6 
6 *258:18 *852:D 10.265 
7 *258:14 *953:A 5.43 
*END

*D_NET *259 0.0049886
*CONN
*I *803:A I *D sky130_fd_sc_hd__xor2_2
*I *856:A I *D sky130_fd_sc_hd__xor2_2
*I *858:A1 I *D sky130_fd_sc_hd__a31oi_2
*I *859:A I *D sky130_fd_sc_hd__and4_2
*I *861:A I *D sky130_fd_sc_hd__and4_2
*I *855:A I *D sky130_fd_sc_hd__nand2_2
*I *912:Q O *D sky130_fd_sc_hd__dfrtp_2
*CAP
1 *803:A 0.000210011
2 *856:A 0.000231294
3 *858:A1 0
4 *859:A 0.000243267
5 *861:A 0
6 *855:A 0
7 *912:Q 0.000109447
8 *259:37 0.000427766
9 *259:33 0.000356555
10 *259:22 0.000413996
11 *259:16 0.000769903
12 *259:8 0.000616127
13 *859:A *858:B1 0.00012657
14 *859:A *861:C 9.27255e-06
15 *859:A *861:D 8.31082e-05
16 *859:A *914:RESET_B 0
17 *859:A *1006:A 5.4003e-05
18 *859:A *1040:A 0
19 *259:8 *805:B 9.66106e-05
20 *259:33 *858:A2 4.82919e-05
21 *259:37 *858:A2 0.000108137
22 *259:37 *858:B1 0.000162311
23 axi_rdata[11] *859:A 3.39151e-05
24 *857:B *259:22 0.000141606
25 *857:B *259:33 8.52883e-05
26 *860:A *803:A 0
27 *912:CLK *259:22 0
28 *913:D *259:22 8.97564e-05
29 *914:D *803:A 0
30 *914:D *259:16 0
31 *915:D *803:A 7.00782e-05
32 *915:D *259:16 0.000103329
33 *149:14 *259:16 7.92125e-06
34 *149:14 *259:22 0
35 *223:29 *259:33 0.000197822
36 *227:19 *859:A 0.0001249
37 *230:33 *859:A 0
38 *250:115 *856:A 6.7317e-05
*RES
1 *912:Q *259:8 5.085 
2 *259:8 *259:16 4.9125 
3 *259:16 *259:22 6.7625 
4 *259:22 *855:A 1.6 
5 *259:22 *259:33 3.675 
6 *259:33 *259:37 3.57 
7 *259:37 *861:A 1.6 
8 *259:37 *859:A 10.955 
9 *259:33 *858:A1 1.6 
10 *259:16 *856:A 7.0575 
11 *259:8 *803:A 7.02 
*END

*D_NET *260 0.0049002
*CONN
*I *858:A2 I *D sky130_fd_sc_hd__a31oi_2
*I *859:B I *D sky130_fd_sc_hd__and4_2
*I *861:B I *D sky130_fd_sc_hd__and4_2
*I *947:A I *D sky130_fd_sc_hd__dlygate4sd3_1
*I *804:A I *D sky130_fd_sc_hd__xor2_2
*I *913:Q O *D sky130_fd_sc_hd__dfrtp_2
*CAP
1 *858:A2 0.000176469
2 *859:B 0.000189241
3 *861:B 0.000213468
4 *947:A 5.93406e-05
5 *804:A 7.13241e-05
6 *913:Q 0
7 *260:34 0.000472292
8 *260:10 0.000249156
9 *260:4 0.000364544
10 *804:A *863:A1 0.000311288
11 *858:A2 *858:B1 0.000238919
12 *859:B *859:C 9.52646e-05
13 *861:B *861:C 2.66935e-05
14 *861:B *914:RESET_B 2.66935e-05
15 *947:A *863:A1 0.000338716
16 *947:A *1012:A 0.000313857
17 *260:10 *912:RESET_B 0.00013521
18 *260:10 *365:327 7.47215e-05
19 *260:34 *857:A 9.37731e-05
20 *260:34 *861:C 0
21 *260:34 *914:RESET_B 3.09233e-05
22 *260:34 *915:RESET_B 0
23 *859:D *859:B 0.000276543
24 *859:D *260:34 6.0011e-05
25 *860:A *858:A2 3.00381e-05
26 *860:A *260:10 0.000377308
27 *860:A *260:34 0.000206123
28 *863:B1_N *804:A 0.000123295
29 *863:B1_N *947:A 1.19928e-05
30 *914:D *260:10 9.42224e-05
31 *915:CLK *260:34 8.23457e-05
32 *226:10 *260:34 0
33 *259:33 *858:A2 4.82919e-05
34 *259:37 *858:A2 0.000108137
*RES
1 *913:Q *260:4 1.6 
2 *260:4 *260:10 8.44 
3 *260:10 *804:A 4.465 
4 *260:10 *947:A 4.81 
5 *260:4 *260:34 8.68 
6 *260:34 *861:B 6.47 
7 *260:34 *859:B 5.53 
8 *861:B *858:A2 7.445 
*END

*D_NET *261 0.00244428
*CONN
*I *858:B1 I *D sky130_fd_sc_hd__a31oi_2
*I *805:A I *D sky130_fd_sc_hd__xor2_2
*I *861:C I *D sky130_fd_sc_hd__and4_2
*I *859:C I *D sky130_fd_sc_hd__and4_2
*I *914:Q O *D sky130_fd_sc_hd__dfrtp_2
*CAP
1 *858:B1 6.65994e-05
2 *805:A 0.000187031
3 *861:C 0.000263499
4 *859:C 0.000136726
5 *914:Q 0.000136726
6 *261:16 0.000383931
7 *805:A *806:B 0
8 *805:A *1012:A 0
9 *861:C *861:D 4.99619e-05
10 *861:C *914:RESET_B 0
11 *861:C *915:RESET_B 8.32056e-05
12 axi_rdata[11] *805:A 0.000162404
13 axi_rdata[11] *861:C 0.000176647
14 *858:A2 *858:B1 0.000238919
15 *859:A *858:B1 0.00012657
16 *859:A *861:C 9.27255e-06
17 *859:B *859:C 9.52646e-05
18 *859:D *859:C 1.61831e-05
19 *861:B *861:C 2.66935e-05
20 *226:10 *805:A 3.83041e-05
21 *226:10 *861:C 8.40269e-05
22 *259:37 *858:B1 0.000162311
23 *260:34 *861:C 0
*RES
1 *914:Q *859:C 5.03 
2 *914:Q *261:16 1.6 
3 *261:16 *861:C 9.335 
4 *261:16 *805:A 9.47 
5 *861:C *858:B1 6.08 
*END

*D_NET *262 0.00278662
*CONN
*I *950:A I *D sky130_fd_sc_hd__dlygate4sd3_1
*I *806:A I *D sky130_fd_sc_hd__xor2_2
*I *861:D I *D sky130_fd_sc_hd__and4_2
*I *915:Q O *D sky130_fd_sc_hd__dfrtp_2
*CAP
1 *950:A 3.52882e-05
2 *806:A 0.000158081
3 *861:D 0.000292666
4 *915:Q 0
5 *262:19 0.00027011
6 *262:6 0.000369406
7 *861:D *1006:A 0.000201508
8 *861:D *1040:A 0.000316806
9 *950:A *1040:A 0.000133763
10 *262:19 *1040:A 0.000221373
11 axi_rdata[11] *861:D 8.8266e-05
12 *859:A *861:D 8.31082e-05
13 *861:C *861:D 4.99619e-05
14 *867:A2 *861:D 4.66108e-05
15 *227:19 *861:D 7.67415e-06
16 *228:30 *861:D 4.1015e-05
17 *228:41 *861:D 7.63125e-05
18 *228:73 *861:D 0.000102184
19 *228:73 *950:A 8.08439e-05
20 *228:73 *262:19 0.000129291
21 *230:33 *861:D 8.23457e-05
*RES
1 *915:Q *262:6 3.6 
2 *262:6 *861:D 12.21 
3 *262:6 *262:19 2.655 
4 *262:19 *806:A 5.79 
5 *262:19 *950:A 5.235 
*END

*D_NET *263 0.00782635
*CONN
*I *820:B I *D sky130_fd_sc_hd__or2_2
*I *788:A I *D sky130_fd_sc_hd__xor2_2
*I *823:B I *D sky130_fd_sc_hd__and4_2
*I *819:B I *D sky130_fd_sc_hd__nand2_2
*I *824:A2 I *D sky130_fd_sc_hd__a31o_2
*I *897:Q O *D sky130_fd_sc_hd__dfrtp_2
*CAP
1 *820:B 0.00104277
2 *788:A 3.57729e-05
3 *823:B 0
4 *819:B 1.8374e-05
5 *824:A2 0.000152923
6 *897:Q 0
7 *263:51 0.00141805
8 *263:14 0.000283789
9 *263:12 0.000353716
10 *263:4 0.000580735
11 *820:B *790:A 9.1063e-05
12 *820:B *1027:A 0.000461717
13 *820:B *1029:A 0.00011577
14 *820:B *1045:A 7.23533e-05
15 *824:A2 *824:A3 8.49205e-05
16 *824:A2 *824:B1 0.000176379
17 *824:A2 *1032:A 1.10951e-05
18 *824:A2 *315:52 3.5678e-06
19 *263:12 *824:A3 1.0397e-05
20 *263:12 *315:52 0.000175075
21 *263:14 *823:D 4.92062e-05
22 *263:14 *824:B1 0.000264583
23 *263:51 *786:A 5.14194e-05
24 *263:51 *790:B 0.000482199
25 *263:51 *315:52 0.000119554
26 axi_bvalid *820:B 0.000275553
27 axi_rdata[0] *263:51 0.000482199
28 axi_rdata[1] *820:B 9.77867e-05
29 axi_rdata[30] *820:B 6.90876e-05
30 axi_rdata[9] *824:A2 1.11025e-05
31 *819:A *819:B 5.19006e-06
32 *820:A *820:B 0.00034103
33 *824:A1 *824:A2 0.000137612
34 *824:A1 *263:14 2.61093e-05
35 *896:CLK *263:12 7.03276e-05
36 *896:CLK *263:14 4.66108e-05
37 *970:A *263:12 8.9257e-05
38 *985:A *820:B 5.13112e-05
39 *252:25 *263:14 6.77467e-05
*RES
1 *897:Q *263:4 1.6 
2 *263:4 *263:12 7.645 
3 *263:12 *263:14 3.21 
4 *263:14 *824:A2 9.275 
5 *263:14 *819:B 1.96 
6 *263:12 *823:B 1.6 
7 *263:4 *263:51 12.235 
8 *263:51 *788:A 2.05 
9 *263:51 *820:B 27.345 
*END

*D_NET *264 0.00516283
*CONN
*I *951:A I *D sky130_fd_sc_hd__dlygate4sd3_1
*I *866:A I *D sky130_fd_sc_hd__and2_2
*I *807:A I *D sky130_fd_sc_hd__xor2_2
*I *865:A1 I *D sky130_fd_sc_hd__a21oi_2
*I *872:A I *D sky130_fd_sc_hd__and3_2
*I *916:Q O *D sky130_fd_sc_hd__dfrtp_2
*CAP
1 *951:A 0.000169968
2 *866:A 0.000374706
3 *807:A 0.000346224
4 *865:A1 0
5 *872:A 0.000347641
6 *916:Q 0
7 *264:12 0.000608628
8 *264:8 0.000921135
9 *264:4 0.000858597
10 *807:A *808:A 0
11 *807:A *864:A 5.05521e-05
12 *807:A *916:RESET_B 0
13 *807:A *1014:A 0
14 *866:A *809:B 0
15 *872:A *874:B 1.93834e-05
16 *951:A *864:A 0.000296679
17 *951:A *1016:A 0.000163199
18 *264:12 *809:A 0
19 *264:12 *865:B1 0
20 *264:12 *874:B 0
21 *264:12 *916:RESET_B 0
22 axi_rdata[17] *807:A 0
23 axi_rdata[20] *866:A 4.58557e-05
24 axi_rdata[20] *264:8 2.17886e-05
25 *868:A1 *872:A 3.18219e-05
26 *870:A *872:A 3.83719e-05
27 *872:C *872:A 0.000160635
28 *916:CLK *807:A 0
29 *916:CLK *264:12 0
30 *916:D *807:A 0.000163992
31 *918:CLK *872:A 4.66826e-05
32 *918:D *872:A 3.87723e-05
33 *973:A *951:A 0.000458202
34 *251:47 *872:A 0
35 *251:47 *264:12 0
*RES
1 *916:Q *264:4 1.6 
2 *264:4 *264:8 7.28 
3 *264:8 *264:12 4.125 
4 *264:12 *872:A 10.08 
5 *264:12 *865:A1 3.6 
6 *264:8 *807:A 7.305 
7 *264:4 *866:A 10.445 
8 *807:A *951:A 9.29 
*END

*D_NET *265 0.00251615
*CONN
*I *866:B I *D sky130_fd_sc_hd__and2_2
*I *808:A I *D sky130_fd_sc_hd__xor2_2
*I *964:A I *D sky130_fd_sc_hd__dlygate4sd3_1
*I *871:A I *D sky130_fd_sc_hd__and3_2
*I *917:Q O *D sky130_fd_sc_hd__dfrtp_2
*CAP
1 *866:B 8.6259e-05
2 *808:A 0.000476631
3 *964:A 0.000235543
4 *871:A 0.000205071
5 *917:Q 0.000495661
6 *265:6 0.000373385
7 *808:A *807:B 1.08758e-05
8 *808:A *808:B 0
9 *808:A *865:B1 2.66586e-05
10 *808:A *916:RESET_B 0
11 *808:A *1016:A 0
12 *871:A *809:A 5.63318e-05
13 *871:A *865:B1 0
14 *871:A *267:33 1.22676e-05
15 *964:A *865:B1 3.74161e-05
16 *265:6 *865:B1 4.82863e-05
17 axi_rdata[20] *808:A 0.000265924
18 *807:A *808:A 0
19 *972:A *808:A 2.75145e-05
20 *973:A *808:A 4.49585e-05
21 *230:18 *866:B 8.5841e-05
22 *230:18 *871:A 0
23 *230:18 *964:A 2.75229e-05
*RES
1 *917:Q *265:6 2.05 
2 *265:6 *871:A 9.275 
3 *265:6 *964:A 4.12 
4 *917:Q *808:A 15.39 
5 *964:A *866:B 5.03 
*END

*D_NET *266 0.00303168
*CONN
*I *809:A I *D sky130_fd_sc_hd__xor2_2
*I *868:B1 I *D sky130_fd_sc_hd__a21oi_2
*I *874:A I *D sky130_fd_sc_hd__and4_2
*I *869:A I *D sky130_fd_sc_hd__and3_2
*I *871:B I *D sky130_fd_sc_hd__and3_2
*I *918:Q O *D sky130_fd_sc_hd__dfrtp_2
*CAP
1 *809:A 0.000132887
2 *868:B1 0
3 *874:A 0
4 *869:A 0.00028601
5 *871:B 0
6 *918:Q 0.000152664
7 *266:31 0.000339529
8 *266:25 0.000128378
9 *266:21 0.000242595
10 *266:12 0.000187513
11 *809:A *874:B 0
12 *809:A *267:33 0
13 *869:A *874:B 4.92062e-05
14 *869:A *1040:A 2.37321e-05
15 *266:12 *267:33 7.23533e-05
16 *266:31 *874:B 7.00889e-06
17 *868:A1 *809:A 0
18 *870:A *869:A 0.000198945
19 *870:A *266:21 0
20 *870:A *266:25 9.53428e-06
21 *870:A *266:31 0.000224084
22 *871:A *809:A 5.63318e-05
23 *872:B *869:A 7.06865e-05
24 *872:C *266:12 0
25 *874:C *869:A 0.000313857
26 *918:D *869:A 4.82863e-05
27 *228:16 *869:A 7.30547e-05
28 *230:18 *266:12 6.19997e-05
29 *230:18 *266:21 2.75229e-05
30 *230:18 *266:25 6.6564e-05
31 *230:18 *266:31 0.000240391
32 *230:27 *869:A 9.27255e-06
33 *230:27 *266:31 9.27255e-06
34 *251:47 *869:A 0
35 *264:12 *809:A 0
*RES
1 *918:Q *266:12 7.955 
2 *266:12 *871:B 1.6 
3 *266:12 *266:21 0.81 
4 *266:21 *266:25 1.5 
5 *266:25 *266:31 2.985 
6 *266:31 *869:A 12.095 
7 *266:31 *874:A 1.6 
8 *266:25 *868:B1 1.6 
9 *266:21 *809:A 8 
*END

*D_NET *267 0.0073589
*CONN
*I *810:A I *D sky130_fd_sc_hd__xor2_2
*I *871:C I *D sky130_fd_sc_hd__and3_2
*I *874:B I *D sky130_fd_sc_hd__and4_2
*I *876:A1 I *D sky130_fd_sc_hd__o21ba_2
*I *919:Q O *D sky130_fd_sc_hd__dfrtp_2
*CAP
1 *810:A 0.000950444
2 *871:C 0
3 *874:B 0.000411521
4 *876:A1 0.000636226
5 *919:Q 0
6 *267:33 0.000805719
7 *267:12 0.0011667
8 *267:4 0.00108672
9 *810:A *882:A1 0.000104059
10 *267:12 *879:A 0.000136884
11 *267:12 *919:RESET_B 2.04648e-05
12 *267:33 *879:A 8.40269e-05
13 axi_rdata[25] *810:A 4.70343e-05
14 *809:A *874:B 0
15 *809:A *267:33 0
16 *868:A1 *874:B 5.53249e-06
17 *869:A *874:B 4.92062e-05
18 *871:A *267:33 1.22676e-05
19 *872:A *874:B 1.93834e-05
20 *872:C *267:33 0
21 *876:A2 *876:A1 0.0002498
22 *880:A *267:33 0
23 *880:B *267:33 6.28843e-05
24 *919:D *876:A1 0.000307043
25 *920:CLK *267:12 1.1561e-05
26 *920:CLK *267:33 0.000160658
27 *921:CLK *810:A 2.75229e-05
28 *943:A *876:A1 4.40605e-05
29 *956:A *876:A1 0
30 *230:18 *874:B 0.000164352
31 *230:18 *267:33 0.00013298
32 *230:27 *874:B 4.66742e-05
33 *235:75 *876:A1 1.19928e-05
34 *235:75 *267:12 9.54399e-05
35 *247:73 *876:A1 3.57457e-05
36 *251:8 *876:A1 0.000175841
37 *251:74 *876:A1 5.83121e-06
38 *251:74 *267:33 1.33285e-05
39 *251:89 *810:A 0.000191802
40 *251:89 *267:12 5.83121e-06
41 *264:12 *874:B 0
42 *266:12 *267:33 7.23533e-05
43 *266:31 *874:B 7.00889e-06
*RES
1 *919:Q *267:4 1.6 
2 *267:4 *267:12 6.685 
3 *267:12 *876:A1 13.81 
4 *267:12 *267:33 11.41 
5 *267:33 *874:B 11.12 
6 *267:33 *871:C 1.6 
7 *267:4 *810:A 17.435 
*END

*D_NET *268 0.00609608
*CONN
*I *878:A1 I *D sky130_fd_sc_hd__a21oi_2
*I *879:A I *D sky130_fd_sc_hd__and3_2
*I *811:A I *D sky130_fd_sc_hd__xor2_2
*I *881:A I *D sky130_fd_sc_hd__and4_2
*I *883:A I *D sky130_fd_sc_hd__and4_2
*I *877:A I *D sky130_fd_sc_hd__xor2_2
*I *920:Q O *D sky130_fd_sc_hd__dfrtp_2
*CAP
1 *878:A1 0
2 *879:A 0.000168263
3 *811:A 0.000153218
4 *881:A 0
5 *883:A 0.000146913
6 *877:A 0.000227022
7 *920:Q 0.000660403
8 *268:76 0.00028689
9 *268:25 0.000412801
10 *268:14 0.000881469
11 *883:A *818:B 2.17235e-05
12 *883:A *881:C 0.000211044
13 *883:A *1022:A 9.5799e-06
14 *883:A *1023:A 4.55864e-06
15 *883:A *365:54 1.92979e-05
16 *268:14 *810:B 0.000169844
17 *268:14 *920:RESET_B 0
18 *268:25 *881:B 2.09942e-05
19 *268:25 *920:RESET_B 0.000198286
20 *268:25 *365:54 0.000152363
21 *268:25 *365:64 0.000240036
22 *268:25 *365:107 0.000108329
23 *268:76 *878:B1 0.000122331
24 axi_rdata[22] *811:A 0.00015639
25 axi_rdata[25] *811:A 0.000114492
26 axi_rdata[26] *883:A 2.10433e-05
27 axi_rdata[26] *268:25 0.00028743
28 *877:B *879:A 5.05437e-05
29 *877:B *268:76 8.24161e-05
30 *882:B1_N *268:25 0
31 *884:A1_N *879:A 4.99619e-05
32 *920:CLK *879:A 2.07184e-05
33 *921:D *268:25 6.44134e-05
34 *922:CLK *268:25 0
35 *922:D *268:25 0
36 *923:CLK *879:A 0.000159964
37 *974:A *811:A 8.63479e-05
38 *979:A *883:A 8.89283e-05
39 *235:75 *879:A 0.000132006
40 *239:14 *879:A 4.82863e-05
41 *241:31 *883:A 9.97912e-05
42 *251:74 *879:A 4.66108e-05
43 *251:76 *879:A 0.000150453
44 *267:12 *879:A 0.000136884
45 *267:33 *879:A 8.40269e-05
*RES
1 *920:Q *268:14 12.62 
2 *268:14 *877:A 3.085 
3 *268:14 *268:25 10.265 
4 *268:25 *883:A 5.56913 
5 *268:25 *881:A 3.6 
6 *920:Q *811:A 10.515 
7 *877:A *268:76 4.12 
8 *268:76 *879:A 11.465 
9 *268:76 *878:A1 1.6 
*END

*D_NET *269 0.00503169
*CONN
*I *883:B I *D sky130_fd_sc_hd__and4_2
*I *812:A I *D sky130_fd_sc_hd__xor2_2
*I *881:B I *D sky130_fd_sc_hd__and4_2
*I *878:B1 I *D sky130_fd_sc_hd__a21oi_2
*I *879:B I *D sky130_fd_sc_hd__and3_2
*I *921:Q O *D sky130_fd_sc_hd__dfrtp_2
*CAP
1 *883:B 0.000125012
2 *812:A 7.19412e-05
3 *881:B 0.000315067
4 *878:B1 0.000191276
5 *879:B 0.000147245
6 *921:Q 0.000119641
7 *269:18 0.000464512
8 *269:12 0.000586135
9 *269:10 0.000461672
10 *878:B1 *918:RESET_B 0.000211921
11 *878:B1 *365:79 7.23533e-05
12 *883:B *814:A 0.000118081
13 *269:10 *812:B 0
14 *269:10 *270:10 0
15 *269:12 *884:B2 0.000122714
16 *269:12 *270:8 0.000115484
17 *269:12 *365:79 8.73018e-05
18 *269:18 *884:B2 0.000228875
19 *269:18 *365:79 0.000114984
20 axi_rdata[25] *269:10 0
21 axi_rdata[26] *881:B 0.000126833
22 *877:B *878:B1 0.000122331
23 *880:B *878:B1 0.000180689
24 *882:B1_N *878:B1 2.63122e-05
25 *882:B1_N *881:B 0
26 *884:A1_N *879:B 3.77036e-05
27 *884:A2_N *879:B 0.000160635
28 *884:A2_N *269:18 0
29 *923:CLK *878:B1 0
30 *923:D *879:B 0.000123225
31 *977:A *881:B 4.99619e-05
32 *977:A *883:B 0.000298431
33 *979:A *881:B 6.03407e-05
34 *235:67 *879:B 3.00381e-05
35 *239:14 *878:B1 0.000105371
36 *240:10 *878:B1 1.22762e-05
37 *240:10 *881:B 0
38 *268:25 *881:B 2.09942e-05
39 *268:76 *878:B1 0.000122331
*RES
1 *921:Q *269:10 7.235 
2 *269:10 *269:12 5.625 
3 *269:12 *269:18 3.675 
4 *269:18 *879:B 4.825 
5 *269:18 *878:B1 11.18 
6 *269:12 *881:B 9.47 
7 *269:10 *812:A 2.755 
8 *881:B *883:B 6.065 
*END

*D_NET *270 0.00447168
*CONN
*I *882:A1 I *D sky130_fd_sc_hd__o21ba_2
*I *813:A I *D sky130_fd_sc_hd__xor2_2
*I *883:C I *D sky130_fd_sc_hd__and4_2
*I *881:C I *D sky130_fd_sc_hd__and4_2
*I *922:Q O *D sky130_fd_sc_hd__dfrtp_2
*CAP
1 *882:A1 0.000446847
2 *813:A 0.000222298
3 *883:C 0
4 *881:C 0.000219257
5 *922:Q 0.000188376
6 *270:12 0.000274741
7 *270:10 0.000435985
8 *270:8 0.000793426
9 *813:A *813:B 7.67254e-05
10 *813:A *1022:A 2.75229e-05
11 *881:C *818:B 8.88816e-05
12 *881:C *1022:A 0.000123282
13 *882:A1 *919:RESET_B 0.00012929
14 *882:A1 *365:107 0
15 *270:10 *884:B2 3.51667e-05
16 *270:10 *271:8 2.01541e-05
17 *270:10 *365:64 0
18 *270:10 *365:107 0
19 *270:12 *1022:A 9.20028e-05
20 axi_rdata[26] *881:C 4.75368e-05
21 axi_rdata[27] *881:C 0.000121608
22 axi_rdata[27] *270:10 1.05827e-05
23 axi_rdata[27] *270:12 0.000126613
24 *810:A *882:A1 0.000104059
25 *882:A2 *882:A1 4.66108e-05
26 *882:B1_N *882:A1 4.82919e-05
27 *883:A *881:C 0.000211044
28 *921:CLK *882:A1 2.16917e-05
29 *922:D *882:A1 0.000197269
30 *979:A *881:C 8.71646e-05
31 *241:31 *881:C 6.20564e-05
32 *251:89 *882:A1 9.77147e-05
33 *269:10 *270:10 0
34 *269:12 *270:8 0.000115484
*RES
1 *922:Q *270:8 6.12 
2 *270:8 *270:10 2.655 
3 *270:10 *270:12 1.635 
4 *270:12 *881:C 7.60913 
5 *270:12 *883:C 3.6 
6 *270:10 *813:A 7.5 
7 *270:8 *882:A1 11.955 
*END

*D_NET *271 0.00255842
*CONN
*I *884:B2 I *D sky130_fd_sc_hd__o2bb2a_2
*I *883:D I *D sky130_fd_sc_hd__and4_2
*I *814:A I *D sky130_fd_sc_hd__xor2_2
*I *923:Q O *D sky130_fd_sc_hd__dfrtp_2
*CAP
1 *884:B2 0.000393176
2 *883:D 3.69588e-05
3 *814:A 0.000190699
4 *923:Q 0
5 *271:8 0.000290817
6 *271:6 0.000456335
7 *814:A *1023:A 8.65961e-05
8 *814:A *365:54 1.64319e-05
9 *884:B2 *365:64 2.96342e-05
10 *271:8 *365:54 3.98253e-05
11 *271:8 *365:64 5.74095e-05
12 axi_rdata[27] *814:A 6.97256e-05
13 axi_rdata[27] *271:8 0.000148035
14 *883:B *814:A 0.000118081
15 *977:A *814:A 0.000132977
16 *977:A *883:D 4.66108e-05
17 *241:31 *814:A 3.82018e-05
18 *269:12 *884:B2 0.000122714
19 *269:18 *884:B2 0.000228875
20 *270:10 *884:B2 3.51667e-05
21 *270:10 *271:8 2.01541e-05
*RES
1 *923:Q *271:6 3.6 
2 *271:6 *271:8 2.145 
3 *271:8 *814:A 8.04 
4 *271:8 *883:D 4.05 
5 *271:6 *884:B2 9.06 
*END

*D_NET *272 0.0062676
*CONN
*I *815:A I *D sky130_fd_sc_hd__xor2_2
*I *888:A I *D sky130_fd_sc_hd__and2_2
*I *885:B1 I *D sky130_fd_sc_hd__a21oi_2
*I *886:A I *D sky130_fd_sc_hd__and3_2
*I *924:Q O *D sky130_fd_sc_hd__dfrtp_2
*CAP
1 *815:A 0
2 *888:A 0.000142638
3 *885:B1 0.000144047
4 *886:A 0.000391398
5 *924:Q 6.34992e-05
6 *272:44 0.000727086
7 *272:16 0.00122666
8 *272:12 0.00133916
9 *885:B1 *894:A 2.10433e-05
10 *885:B1 *958:A 2.84137e-05
11 *886:A *788:B 0.000363106
12 *886:A *958:A 4.26188e-05
13 *888:A *818:A 7.99613e-05
14 *272:12 *891:A 0.00011055
15 *272:12 *924:RESET_B 2.75145e-05
16 *272:12 *365:54 0.000109206
17 *272:16 *891:A 0.00016063
18 *272:44 *1024:A 5.17287e-05
19 axi_rdata[31] *272:16 0.000538544
20 *886:B *886:A 0.000109386
21 *887:A *885:B1 0
22 *887:A *886:A 0
23 *891:B *885:B1 1.79483e-05
24 *891:B *272:16 5.14228e-05
25 *891:C *272:16 1.91597e-05
26 *891:C *272:44 1.4174e-05
27 *893:B *272:44 0.000235573
28 *970:A *886:A 4.82863e-05
29 *981:A *888:A 0
30 *981:A *272:12 2.49909e-05
31 *984:A *272:16 1.03816e-05
32 *984:A *272:44 2.531e-05
33 *235:25 *885:B1 7.9642e-06
34 *237:14 *885:B1 0
35 *237:14 *886:A 8.69098e-05
36 *244:14 *888:A 4.82919e-05
*RES
1 *924:Q *272:12 7.43 
2 *272:12 *272:16 11.075 
3 *272:16 *886:A 12.255 
4 *272:16 *885:B1 6.255 
5 *272:12 *272:44 7.725 
6 *272:44 *888:A 7.94 
7 *272:44 *815:A 1.6 
*END

*D_NET *273 0.00427106
*CONN
*I *888:B I *D sky130_fd_sc_hd__and2_2
*I *949:A I *D sky130_fd_sc_hd__dlygate4sd3_1
*I *816:A I *D sky130_fd_sc_hd__xor2_2
*I *925:Q O *D sky130_fd_sc_hd__dfrtp_2
*CAP
1 *888:B 0.000198074
2 *949:A 0.000677979
3 *816:A 0.00045399
4 *925:Q 0.000123284
5 *273:22 0.00120676
6 *816:A *816:B 5.2207e-05
7 *888:B *817:B 1.70437e-05
8 *888:B *818:A 0.000115177
9 *888:B *893:A 0
10 *888:B *962:A 0.000111567
11 *949:A *817:B 6.87052e-05
12 *949:A *894:A 5.05521e-05
13 *949:A *894:B 2.96334e-05
14 *949:A *897:RESET_B 0.000113415
15 *949:A *962:A 0.000669406
16 axi_rdata[30] *888:B 0
17 uart_tx *949:A 0.000336654
18 *895:D *949:A 4.66108e-05
*RES
1 *925:Q *816:A 4.955 
2 *816:A *273:22 8.19 
3 *273:22 *949:A 18.285 
4 *273:22 *888:B 7.53 
*END

*D_NET *274 0.00569457
*CONN
*I *966:A I *D sky130_fd_sc_hd__dlygate4sd3_1
*I *789:A I *D sky130_fd_sc_hd__xor2_2
*I *824:A3 I *D sky130_fd_sc_hd__a31o_2
*I *823:C I *D sky130_fd_sc_hd__and4_2
*I *898:Q O *D sky130_fd_sc_hd__dfrtp_2
*CAP
1 *966:A 0.000316009
2 *789:A 0.000140321
3 *824:A3 0.000327328
4 *823:C 0
5 *898:Q 0
6 *274:40 0.000713894
7 *274:10 0.000925423
8 *274:4 0.00085566
9 *789:A *1015:A 0.00011577
10 *824:A3 *1035:A 0.000122879
11 *824:A3 *315:52 0.000456125
12 *966:A *1038:A 4.82863e-05
13 *274:10 *1034:A 8.40213e-05
14 *274:10 *1035:A 0.000133469
15 *274:40 *898:RESET_B 8.24372e-05
16 axi_rdata[2] *789:A 1.12803e-05
17 *821:A *789:A 0.000113691
18 *821:A *966:A 6.5913e-05
19 *821:B *789:A 0.000113255
20 *822:B *966:A 0.000158476
21 *824:A2 *824:A3 8.49205e-05
22 *887:B *966:A 8.40269e-05
23 *896:CLK *824:A3 9.10613e-05
24 *897:D *789:A 4.94326e-05
25 *897:D *966:A 0.000122279
26 *924:D *966:A 4.21973e-05
27 *970:A *824:A3 1.17856e-05
28 *970:A *274:10 0.000129295
29 *203:18 *274:10 0.000199213
30 *203:18 *274:40 8.57242e-05
31 *263:12 *824:A3 1.0397e-05
*RES
1 *898:Q *274:4 1.6 
2 *274:4 *274:10 10.88 
3 *274:10 *823:C 3.6 
4 *274:10 *824:A3 10.845 
5 *274:4 *274:40 5.21 
6 *274:40 *789:A 7.365 
7 *274:40 *966:A 10.155 
*END

*D_NET *275 0.00357155
*CONN
*I *817:A I *D sky130_fd_sc_hd__xor2_2
*I *963:A I *D sky130_fd_sc_hd__dlygate4sd3_1
*I *891:A I *D sky130_fd_sc_hd__and4_2
*I *926:Q O *D sky130_fd_sc_hd__dfrtp_2
*CAP
1 *817:A 0.000105536
2 *963:A 0.000152991
3 *891:A 0.000517691
4 *926:Q 0
5 *275:6 0.000941064
6 *275:4 0.000375918
7 *891:A *890:A1 0.000285341
8 *891:A *1029:A 0
9 *891:A *1038:A 7.03219e-05
10 *891:A *365:30 3.6971e-05
11 *891:A *365:44 4.65643e-05
12 *891:A *365:54 2.8602e-05
13 *963:A *894:A 0.000227371
14 *963:A *928:RESET_B 3.93775e-05
15 *963:A *365:10 5.83039e-05
16 *963:A *365:12 0.000136055
17 *963:A *365:23 1.64067e-05
18 *891:B *891:A 8.8266e-05
19 *891:C *891:A 4.66108e-05
20 *891:D *891:A 0.000119309
21 *925:D *891:A 0
22 *984:A *891:A 7.67415e-06
23 *272:12 *891:A 0.00011055
24 *272:16 *891:A 0.00016063
*RES
1 *926:Q *275:4 1.6 
2 *275:4 *275:6 2.865 
3 *275:6 *891:A 16.16 
4 *275:6 *963:A 10.55 
5 *275:4 *817:A 3.355 
*END

*D_NET *276 0.00423715
*CONN
*I *818:A I *D sky130_fd_sc_hd__xor2_2
*I *962:A I *D sky130_fd_sc_hd__dlygate4sd3_1
*I *927:Q O *D sky130_fd_sc_hd__dfrtp_2
*CAP
1 *818:A 0.000452329
2 *962:A 0.000438638
3 *927:Q 0.000890967
4 *818:A *815:B 2.07038e-05
5 *818:A *893:A 0
6 *962:A *1027:A 0.00103291
7 axi_rdata[30] *962:A 0.000111083
8 uart_tx *962:A 0.000307402
9 *888:A *818:A 7.99613e-05
10 *888:B *818:A 0.000115177
11 *888:B *962:A 0.000111567
12 *949:A *962:A 0.000669406
13 *980:A *818:A 7.00889e-06
*RES
1 *927:Q *962:A 23.31 
2 *927:Q *818:A 14.595 
*END

*D_NET *277 0.00419057
*CONN
*I *824:B1 I *D sky130_fd_sc_hd__a31o_2
*I *790:A I *D sky130_fd_sc_hd__xor2_2
*I *823:D I *D sky130_fd_sc_hd__and4_2
*I *899:Q O *D sky130_fd_sc_hd__dfrtp_2
*CAP
1 *824:B1 0.000283413
2 *790:A 0.00035276
3 *823:D 0.000978814
4 *899:Q 0
5 *277:4 0.00104816
6 *790:A *898:RESET_B 0
7 *824:B1 *796:B 1.28996e-05
8 axi_rdata[1] *790:A 3.45679e-05
9 axi_rdata[3] *790:A 0.000456077
10 axi_rdata[9] *824:B1 7.03276e-05
11 *819:A *823:D 0
12 *820:B *790:A 9.1063e-05
13 *824:A2 *824:B1 0.000176379
14 *887:A *823:D 3.45588e-05
15 *896:CLK *823:D 3.79854e-05
16 *899:CLK *823:D 2.75229e-05
17 *985:A *790:A 0
18 *249:16 *823:D 6.42132e-05
19 *252:23 *823:D 4.82863e-05
20 *252:25 *823:D 0.000159747
21 *263:14 *823:D 4.92062e-05
22 *263:14 *824:B1 0.000264583
*RES
1 *899:Q *277:4 1.6 
2 *277:4 *823:D 11.065 
3 *277:4 *790:A 13.1 
4 *823:D *824:B1 11.535 
*END

*D_NET *278 0.00419202
*CONN
*I *791:A I *D sky130_fd_sc_hd__xor2_2
*I *832:A I *D sky130_fd_sc_hd__and4_2
*I *830:A1 I *D sky130_fd_sc_hd__a31o_2
*I *829:A I *D sky130_fd_sc_hd__and4_2
*I *827:A I *D sky130_fd_sc_hd__xor2_2
*I *826:A I *D sky130_fd_sc_hd__nand2_2
*I *900:Q O *D sky130_fd_sc_hd__dfrtp_2
*CAP
1 *791:A 0.000145645
2 *832:A 5.48915e-05
3 *830:A1 7.35178e-05
4 *829:A 0
5 *827:A 0
6 *826:A 0
7 *900:Q 0.000166285
8 *278:51 0.000139754
9 *278:44 0.000152602
10 *278:31 0.000257582
11 *278:14 0.000630848
12 *278:6 0.000826454
13 *791:A *791:B 0
14 *791:A *1033:A 2.68464e-05
15 *830:A1 *830:A2 9.21064e-05
16 *830:A1 *830:B1 3.79351e-05
17 *832:A *830:A2 1.77665e-05
18 *832:A *279:29 2.58336e-05
19 *278:31 *791:B 6.09299e-05
20 *278:44 *828:A 0
21 *278:44 *830:A2 4.6368e-06
22 *278:51 *830:A2 1.77595e-05
23 *826:B *278:31 0.000146568
24 *826:B *278:44 2.30797e-05
25 *828:B *278:44 0
26 *829:D *832:A 9.30646e-05
27 *830:A3 *830:A1 2.36269e-05
28 *830:A3 *278:44 2.98644e-05
29 *900:CLK *278:14 0.000131942
30 *901:CLK *278:31 0.000109418
31 *901:CLK *278:44 4.18603e-06
32 *901:D *278:44 9.428e-05
33 *986:A *278:14 0
34 *986:A *278:31 6.60737e-05
35 *990:A *791:A 4.89295e-05
36 *205:28 *832:A 0.00026039
37 *205:28 *278:44 4.77757e-05
38 *205:28 *278:51 3.75143e-05
39 *205:30 *278:44 0.000296133
40 *248:20 *278:31 4.77757e-05
*RES
1 *900:Q *278:6 3.43 
2 *278:6 *278:14 10.21 
3 *278:14 *826:A 1.6 
4 *278:14 *278:31 5.6 
5 *278:31 *827:A 3.6 
6 *278:31 *278:44 6.38 
7 *278:44 *829:A 1.6 
8 *278:44 *278:51 0.45 
9 *278:51 *830:A1 7.49 
10 *278:51 *832:A 4.12 
11 *278:6 *791:A 7.685 
*END

*D_NET *279 0.00435827
*CONN
*I *965:A I *D sky130_fd_sc_hd__dlygate4sd3_1
*I *832:B I *D sky130_fd_sc_hd__and4_2
*I *829:B I *D sky130_fd_sc_hd__and4_2
*I *830:A2 I *D sky130_fd_sc_hd__a31o_2
*I *792:A I *D sky130_fd_sc_hd__xor2_2
*I *901:Q O *D sky130_fd_sc_hd__dfrtp_2
*CAP
1 *965:A 0.000103818
2 *832:B 0
3 *829:B 0
4 *830:A2 8.89094e-05
5 *792:A 0.000196307
6 *901:Q 2.46411e-05
7 *279:29 0.000157136
8 *279:27 0.00021156
9 *279:23 0.000426114
10 *279:8 0.000399912
11 *792:A *1033:A 9.61041e-05
12 *279:8 *792:B 0.000122331
13 *279:8 *1033:A 0.000122331
14 *279:23 *900:RESET_B 0
15 *279:23 *1033:A 1.1561e-05
16 *279:27 *832:D 0.000266391
17 *279:27 *834:A1 4.77807e-05
18 *279:27 *280:16 3.6355e-05
19 *279:27 *280:18 4.89295e-05
20 *279:29 *280:18 0.000270472
21 *829:D *279:29 0.000232959
22 *830:A1 *830:A2 9.21064e-05
23 *830:A3 *830:A2 5.18362e-05
24 *832:A *830:A2 1.77665e-05
25 *832:A *279:29 2.58336e-05
26 *840:A *965:A 0.000292011
27 *840:A *279:23 6.90254e-05
28 *902:D *279:23 4.87403e-05
29 *903:CLK *792:A 4.71207e-05
30 *903:D *792:A 0.000135971
31 *903:D *965:A 0.000258576
32 *903:D *279:23 0.000414482
33 *994:A *792:A 0
34 *205:24 *279:27 1.87913e-05
35 *278:44 *830:A2 4.6368e-06
36 *278:51 *830:A2 1.77595e-05
*RES
1 *901:Q *279:8 4.74 
2 *279:8 *792:A 7.59 
3 *279:8 *279:23 4.95 
4 *279:23 *279:27 5.21 
5 *279:27 *279:29 2.865 
6 *279:29 *830:A2 7.52 
7 *279:29 *829:B 1.6 
8 *279:27 *832:B 1.6 
9 *279:23 *965:A 7.275 
*END

*D_NET *280 0.00432874
*CONN
*I *793:A I *D sky130_fd_sc_hd__xor2_2
*I *832:C I *D sky130_fd_sc_hd__and4_2
*I *829:C I *D sky130_fd_sc_hd__and4_2
*I *830:B1 I *D sky130_fd_sc_hd__a31o_2
*I *902:Q O *D sky130_fd_sc_hd__dfrtp_2
*CAP
1 *793:A 0.000277678
2 *832:C 0
3 *829:C 0
4 *830:B1 4.92691e-05
5 *902:Q 0.000146101
6 *280:18 0.000259493
7 *280:16 0.000946404
8 *280:6 0.00115996
9 *793:A *281:12 0.000125334
10 *280:6 *902:RESET_B 0.000116502
11 axi_rdata[5] *793:A 0.000213193
12 *828:B *280:16 0
13 *830:A1 *830:B1 3.79351e-05
14 *987:A *793:A 0.000247744
15 *988:A *793:A 7.89108e-05
16 *208:8 *830:B1 3.17692e-05
17 *248:10 *280:16 0.000231334
18 *248:14 *280:16 5.13551e-05
19 *279:27 *280:16 3.6355e-05
20 *279:27 *280:18 4.89295e-05
21 *279:29 *280:18 0.000270472
*RES
1 *902:Q *280:6 3.43 
2 *280:6 *280:16 13.15 
3 *280:16 *280:18 2.865 
4 *280:18 *830:B1 6.725 
5 *280:18 *829:C 1.6 
6 *280:16 *832:C 1.6 
7 *280:6 *793:A 13.355 
*END

*D_NET *281 0.00388572
*CONN
*I *794:A I *D sky130_fd_sc_hd__xor2_2
*I *948:A I *D sky130_fd_sc_hd__dlygate4sd3_1
*I *832:D I *D sky130_fd_sc_hd__and4_2
*I *903:Q O *D sky130_fd_sc_hd__dfrtp_2
*CAP
1 *794:A 0.000200733
2 *948:A 3.34932e-05
3 *832:D 0.000199636
4 *903:Q 0.000321499
5 *281:20 0.000492399
6 *281:12 0.000781502
7 *794:A *792:B 6.33103e-05
8 *794:A *794:B 4.11729e-05
9 *281:12 *903:RESET_B 4.2854e-05
10 *281:20 *792:B 9.80032e-06
11 *281:20 *901:RESET_B 0.000116165
12 *281:20 *1033:A 0.000233786
13 *793:A *281:12 0.000125334
14 *903:D *832:D 3.1063e-05
15 *903:D *281:20 0.000118703
16 *987:A *832:D 2.36693e-05
17 *987:A *281:20 0.000124101
18 *988:A *281:12 0.000226074
19 *994:A *281:20 0.000106494
20 *205:24 *832:D 2.52029e-05
21 *210:10 *832:D 0.000297026
22 *215:10 *832:D 5.31158e-06
23 *279:27 *832:D 0.000266391
*RES
1 *903:Q *281:12 10.775 
2 *281:12 *281:20 8.81 
3 *281:20 *832:D 8.34 
4 *281:20 *948:A 4.05 
5 *281:12 *794:A 4.465 
*END

*D_NET *282 0.0092558
*CONN
*I *960:A I *D sky130_fd_sc_hd__dlygate4sd3_1
*I *795:A I *D sky130_fd_sc_hd__xor2_2
*I *835:A I *D sky130_fd_sc_hd__xnor2_2
*I *837:A I *D sky130_fd_sc_hd__nand2_2
*I *836:A I *D sky130_fd_sc_hd__and2_2
*I *838:A1 I *D sky130_fd_sc_hd__a31o_2
*I *904:Q O *D sky130_fd_sc_hd__dfrtp_2
*CAP
1 *960:A 0.000963104
2 *795:A 0.000547815
3 *835:A 0
4 *837:A 0
5 *836:A 0.000195676
6 *838:A1 7.20099e-06
7 *904:Q 0
8 *282:29 0.000358331
9 *282:16 0.000350763
10 *282:10 0.000216008
11 *282:8 0.00141965
12 *282:4 0.00179983
13 *795:A *796:A 8.64261e-05
14 *795:A *796:B 0.000478985
15 *795:A *1032:A 5.07293e-05
16 *836:A *837:B 0.000160635
17 *960:A *822:A 4.89081e-05
18 *960:A *897:RESET_B 7.27275e-05
19 *960:A *928:D 0.000259306
20 *960:A *1029:A 0.000346349
21 *960:A *1038:A 0.00016769
22 *282:29 *365:177 7.00066e-05
23 *282:29 *365:181 5.65363e-05
24 *282:29 *365:213 2.9664e-05
25 *825:B *795:A 0.000122325
26 *833:B *282:8 6.07575e-06
27 *833:B *282:10 4.22944e-05
28 *833:B *282:16 2.88357e-05
29 *835:B *282:8 4.71087e-05
30 *838:A3 *282:16 0.000356611
31 *840:D *795:A 0.000300594
32 *840:D *282:16 0
33 *889:A *838:A1 2.66418e-05
34 *889:B *282:16 8.09021e-06
35 *892:B *838:A1 2.66418e-05
36 *904:CLK *282:8 8.35118e-05
37 *904:D *282:8 2.64128e-05
38 *926:CLK *960:A 3.93531e-05
39 *926:D *960:A 0.000193129
40 *203:18 *795:A 7.65329e-05
41 *241:43 *282:29 9.72092e-05
42 *243:12 *282:16 2.78732e-05
43 *243:12 *282:29 6.02202e-05
*RES
1 *904:Q *282:4 1.6 
2 *282:4 *282:8 9.345 
3 *282:8 *282:10 0.795 
4 *282:10 *282:16 6.635 
5 *282:16 *838:A1 3.855 
6 *282:16 *282:29 6.185 
7 *282:29 *836:A 4.825 
8 *282:29 *837:A 1.6 
9 *282:10 *835:A 1.6 
10 *282:8 *795:A 21.6 
11 *282:4 *960:A 21.62 
*END

*D_NET *283 0.00688756
*CONN
*I *954:A I *D sky130_fd_sc_hd__dlygate4sd3_1
*I *836:B I *D sky130_fd_sc_hd__and2_2
*I *837:B I *D sky130_fd_sc_hd__nand2_2
*I *838:B1 I *D sky130_fd_sc_hd__a31o_2
*I *796:A I *D sky130_fd_sc_hd__xor2_2
*I *905:Q O *D sky130_fd_sc_hd__dfrtp_2
*CAP
1 *954:A 0.000178751
2 *836:B 0
3 *837:B 7.05591e-05
4 *838:B1 3.70695e-05
5 *796:A 0.000844364
6 *905:Q 9.04572e-05
7 *283:46 0.000244816
8 *283:33 0.000256889
9 *283:31 0.000307101
10 *283:8 0.00101761
11 *796:A *795:B 0.000120186
12 *796:A *796:B 8.11581e-05
13 *796:A *1035:A 0.000157865
14 *283:8 *905:RESET_B 0.000119247
15 axi_rdata[9] *796:A 0
16 *795:A *796:A 8.64261e-05
17 *825:B *796:A 0.000349699
18 *825:B *283:31 9.49958e-05
19 *836:A *837:B 0.000160635
20 *838:A2 *954:A 1.16578e-05
21 *838:A2 *283:33 1.46744e-05
22 *840:D *283:46 0.000165804
23 *889:A *838:B1 0.00015639
24 *889:A *283:33 0.000196381
25 *892:B *838:B1 0.000158066
26 *892:B *954:A 1.33285e-05
27 *892:B *283:33 0.000223022
28 *899:D *954:A 0
29 *904:CLK *796:A 8.9257e-05
30 *904:CLK *283:31 6.29106e-05
31 *970:A *796:A 0
32 *970:A *954:A 0.000137578
33 *982:A *954:A 0.000122337
34 *991:A *796:A 0
35 *203:18 *796:A 0.000135492
36 *205:14 *796:A 0.000197349
37 *205:20 *796:A 8.23457e-05
38 *205:77 *796:A 0.000160376
39 *205:88 *796:A 0.000294944
40 *205:88 *283:31 0.000244087
41 *241:43 *283:46 1.52945e-05
42 *247:15 *283:46 0.000188436
*RES
1 *905:Q *283:8 4.74 
2 *283:8 *796:A 26.62 
3 *283:8 *283:31 4.91 
4 *283:31 *283:33 2.175 
5 *283:33 *838:B1 3.085 
6 *283:33 *283:46 8.185 
7 *283:46 *837:B 3.085 
8 *283:46 *836:B 1.6 
9 *283:31 *954:A 9.08 
*END

*D_NET *284 0.00163563
*CONN
*I *787:B I *D sky130_fd_sc_hd__xor2_2
*I *967:X O *D sky130_fd_sc_hd__clkdlybuf4s25_1
*CAP
1 *787:B 0.000381719
2 *967:X 0.000381719
3 *787:B *894:B 0.000425307
4 *787:B *1034:A 0.000142362
5 *787:A *787:B 9.50342e-06
6 *970:A *787:B 5.12017e-06
7 *982:A *787:B 0.000289896
*RES
1 *967:X *787:B 12.92 
*END

*D_NET *285 0.00283973
*CONN
*I *805:B I *D sky130_fd_sc_hd__xor2_2
*I *968:X O *D sky130_fd_sc_hd__clkdlybuf4s25_1
*CAP
1 *805:B 0.00102523
2 *968:X 0.00102523
3 *805:B *804:B 8.56319e-05
4 *805:B *912:RESET_B 0.00023013
5 *805:B *1013:A 0.000362807
6 axi_rdata[18] *805:B 5.36384e-06
7 *863:B1_N *805:B 8.73389e-06
8 *915:D *805:B 0
9 *259:8 *805:B 9.66106e-05
*RES
1 *968:X *805:B 21.2975 
*END

*D_NET *286 0.00202086
*CONN
*I *857:A I *D sky130_fd_sc_hd__xnor2_2
*I *947:X O *D sky130_fd_sc_hd__dlygate4sd3_1
*CAP
1 *857:A 0.00070751
2 *947:X 0.00070751
3 *859:D *857:A 0.000332517
4 *860:A *857:A 0.000179548
5 *226:10 *857:A 0
6 *260:34 *857:A 9.37731e-05
*RES
1 *947:X *857:A 18.405 
*END

*D_NET *287 0.00175085
*CONN
*I *834:A1 I *D sky130_fd_sc_hd__o21a_2
*I *948:X O *D sky130_fd_sc_hd__dlygate4sd3_1
*CAP
1 *834:A1 0.000256135
2 *948:X 0.000256135
3 *834:A1 *828:A 2.01565e-05
4 *797:A *834:A1 0.00041938
5 *834:A2 *834:A1 2.69217e-05
6 *834:B1 *834:A1 0.000196045
7 *839:A1 *834:A1 9.23804e-06
8 *840:A *834:A1 0.000300968
9 *902:D *834:A1 0.000153685
10 *211:32 *834:A1 6.44017e-05
11 *279:27 *834:A1 4.77807e-05
*RES
1 *948:X *834:A1 15.225 
*END

*D_NET *288 0.00187717
*CONN
*I *890:A1 I *D sky130_fd_sc_hd__o21ba_2
*I *949:X O *D sky130_fd_sc_hd__dlygate4sd3_1
*CAP
1 *890:A1 0.000311171
2 *949:X 0.000311171
3 *890:A1 *897:RESET_B 5.36384e-06
4 *890:A1 *1038:A 0.000117844
5 *890:A1 *365:10 0.000119277
6 *890:A1 *365:12 0.000152193
7 *890:A1 *365:23 9.68762e-05
8 *890:A1 *365:30 0.000170692
9 *891:A *890:A1 0.000285341
10 *898:CLK *890:A1 0.000133453
11 *249:141 *890:A1 0.000173793
*RES
1 *949:X *890:A1 17.19 
*END

*D_NET *289 0.00193436
*CONN
*I *863:A1 I *D sky130_fd_sc_hd__o21ba_2
*I *950:X O *D sky130_fd_sc_hd__dlygate4sd3_1
*CAP
1 *863:A1 0.00053655
2 *950:X 0.00053655
3 *863:A1 *804:B 6.79336e-05
4 *863:A1 *1012:A 0.000134314
5 *804:A *863:A1 0.000311288
6 *863:B1_N *863:A1 9.01321e-06
7 *947:A *863:A1 0.000338716
*RES
1 *950:X *863:A1 12.98 
*END

*D_NET *290 0.0014775
*CONN
*I *864:A I *D sky130_fd_sc_hd__xor2_2
*I *951:X O *D sky130_fd_sc_hd__dlygate4sd3_1
*CAP
1 *864:A 0.000540155
2 *951:X 0.000540155
3 *864:A *1016:A 4.99619e-05
4 *807:A *864:A 5.05521e-05
5 *951:A *864:A 0.000296679
*RES
1 *951:X *864:A 11.6 
*END

*D_NET *291 0.00123558
*CONN
*I *806:B I *D sky130_fd_sc_hd__xor2_2
*I *969:X O *D sky130_fd_sc_hd__clkdlybuf4s25_1
*CAP
1 *806:B 0.00049722
2 *969:X 0.00049722
3 *806:B *1012:A 0.000119277
4 *806:B *1040:A 0
5 axi_rdata[11] *806:B 0
6 *805:A *806:B 0
7 *860:B *806:B 4.82863e-05
8 *969:A *806:B 7.35729e-05
*RES
1 *969:X *806:B 12.83 
*END

*D_NET *292 0.00442834
*CONN
*I *788:B I *D sky130_fd_sc_hd__xor2_2
*I *970:X O *D sky130_fd_sc_hd__clkdlybuf4s25_1
*CAP
1 *788:B 0.00105971
2 *970:X 0.00105971
3 *788:B *790:B 0.000189566
4 *788:B *816:B 4.82863e-05
5 *788:B *904:RESET_B 7.33283e-05
6 *788:B *929:D 8.53394e-05
7 *788:B *958:A 0
8 *788:B *1004:A 0.000705843
9 axi_rdata[0] *788:B 0.000795168
10 *886:A *788:B 0.000363106
11 *887:A *788:B 0
12 *970:A *788:B 4.82863e-05
13 *982:A *788:B 0
14 *985:A *788:B 0
*RES
1 *970:X *788:B 30.215 
*END

*D_NET *293 0.000801243
*CONN
*I *807:B I *D sky130_fd_sc_hd__xor2_2
*I *971:X O *D sky130_fd_sc_hd__clkdlybuf4s25_1
*CAP
1 *807:B 0.00035412
2 *971:X 0.00035412
3 *808:A *807:B 1.08758e-05
4 *971:A *807:B 3.00381e-05
5 *973:A *807:B 5.2089e-05
*RES
1 *971:X *807:B 10.19 
*END

*D_NET *294 0.00168547
*CONN
*I *808:B I *D sky130_fd_sc_hd__xor2_2
*I *972:X O *D sky130_fd_sc_hd__clkdlybuf4s25_1
*CAP
1 *808:B 0.000545516
2 *972:X 0.000545516
3 *808:B *1017:A 0.000318091
4 *808:A *808:B 0
5 *972:A *808:B 0.000276351
*RES
1 *972:X *808:B 11.3275 
*END

*D_NET *295 0.00146716
*CONN
*I *809:B I *D sky130_fd_sc_hd__xor2_2
*I *973:X O *D sky130_fd_sc_hd__clkdlybuf4s25_1
*CAP
1 *809:B 0.00063283
2 *973:X 0.00063283
3 *809:B *1018:A 0.000201503
4 *866:A *809:B 0
*RES
1 *973:X *809:B 16.1975 
*END

*D_NET *296 0.00106302
*CONN
*I *810:B I *D sky130_fd_sc_hd__xor2_2
*I *974:X O *D sky130_fd_sc_hd__clkdlybuf4s25_1
*CAP
1 *810:B 0.000381793
2 *974:X 0.000381793
3 *810:B *920:RESET_B 1.34361e-05
4 *920:D *810:B 0.000116151
5 *268:14 *810:B 0.000169844
*RES
1 *974:X *810:B 12.5225 
*END

*D_NET *297 0.00122013
*CONN
*I *811:B I *D sky130_fd_sc_hd__xor2_2
*I *975:X O *D sky130_fd_sc_hd__clkdlybuf4s25_1
*CAP
1 *811:B 0.000310987
2 *975:X 0.000310987
3 *811:B *812:B 0.000116158
4 *811:B *1019:A 0.00035825
5 axi_bresp[0] *811:B 0
6 axi_rdata[25] *811:B 0.000123751
*RES
1 *975:X *811:B 13.1 
*END

*D_NET *298 0.0022694
*CONN
*I *812:B I *D sky130_fd_sc_hd__xor2_2
*I *976:X O *D sky130_fd_sc_hd__clkdlybuf4s25_1
*CAP
1 *812:B 0.000454002
2 *976:X 0.000454002
3 *812:B *1019:A 0.000185626
4 *812:B *1021:A 0
5 axi_rdata[24] *812:B 0.000242321
6 axi_rdata[25] *812:B 0.000817289
7 *811:B *812:B 0.000116158
8 *269:10 *812:B 0
*RES
1 *976:X *812:B 17.315 
*END

*D_NET *299 0.00224429
*CONN
*I *813:B I *D sky130_fd_sc_hd__xor2_2
*I *977:X O *D sky130_fd_sc_hd__clkdlybuf4s25_1
*CAP
1 *813:B 0.000880892
2 *977:X 0.000880892
3 *813:B *923:RESET_B 4.11729e-05
4 *813:B *1022:A 4.82919e-05
5 *813:A *813:B 7.67254e-05
6 *884:A2_N *813:B 0.00011648
7 *945:A *813:B 0.000199833
*RES
1 *977:X *813:B 17.4275 
*END

*D_NET *300 0.0012057
*CONN
*I *797:B I *D sky130_fd_sc_hd__xor2_2
*I *978:X O *D sky130_fd_sc_hd__clkdlybuf4s25_1
*CAP
1 *797:B 0.000297714
2 *978:X 0.000297714
3 *797:B *1042:A 4.89395e-05
4 gpio_out[5] *797:B 0.000133472
5 *797:A *797:B 0.000392808
6 *830:A3 *797:B 3.50571e-05
*RES
1 *978:X *797:B 12.8825 
*END

*D_NET *301 0.00221876
*CONN
*I *814:B I *D sky130_fd_sc_hd__xor2_2
*I *979:X O *D sky130_fd_sc_hd__clkdlybuf4s25_1
*CAP
1 *814:B 0.000675071
2 *979:X 0.000675071
3 *814:B *1022:A 0
4 *814:B *1023:A 3.47837e-05
5 *980:A *814:B 0.000833829
*RES
1 *979:X *814:B 14.93 
*END

*D_NET *302 0.00362978
*CONN
*I *815:B I *D sky130_fd_sc_hd__xor2_2
*I *980:X O *D sky130_fd_sc_hd__clkdlybuf4s25_1
*CAP
1 *815:B 0.000439976
2 *980:X 0.000439976
3 *815:B *818:B 0.00111282
4 *815:B *894:A 5.12906e-05
5 *815:B *1028:A 0.000755485
6 axi_rdata[28] *815:B 0.000579099
7 axi_rdata[3] *815:B 5.08304e-06
8 *818:A *815:B 2.07038e-05
9 *887:A *815:B 6.08134e-05
10 *891:B *815:B 1.95991e-05
11 *979:A *815:B 0
12 *984:A *815:B 0.000144942
*RES
1 *980:X *815:B 10.2206 
*END

*D_NET *303 0.00295903
*CONN
*I *816:B I *D sky130_fd_sc_hd__xor2_2
*I *981:X O *D sky130_fd_sc_hd__clkdlybuf4s25_1
*CAP
1 *816:B 0.00105114
2 *981:X 0.00105114
3 *816:B *929:RESET_B 2.54715e-05
4 *816:B *1029:A 0.000276283
5 *816:B *1038:A 5.84927e-05
6 *788:B *816:B 4.82863e-05
7 *816:A *816:B 5.2207e-05
8 *887:B *816:B 0.000135524
9 *924:CLK *816:B 5.6361e-05
10 *924:D *816:B 0.000122331
11 *925:D *816:B 4.80285e-05
12 *926:D *816:B 1.03572e-05
13 *981:A *816:B 2.34083e-05
14 *249:95 *816:B 0
15 *249:108 *816:B 0
*RES
1 *981:X *816:B 21.6125 
*END

*D_NET *304 0.00662068
*CONN
*I *789:B I *D sky130_fd_sc_hd__xor2_2
*I *982:X O *D sky130_fd_sc_hd__clkdlybuf4s25_1
*CAP
1 *789:B 0.00262988
2 *982:X 0.00262988
3 *789:B *894:B 0
4 *789:B *1029:A 0.000319896
5 *789:B *1037:A 0.000601068
6 *840:D *789:B 0.000132964
7 *898:CLK *789:B 0
8 *994:A *789:B 0.00017859
9 *247:15 *789:B 0.000128398
*RES
1 *982:X *789:B 18.1801 
*END

*D_NET *305 0.00481032
*CONN
*I *817:B I *D sky130_fd_sc_hd__xor2_2
*I *983:X O *D sky130_fd_sc_hd__clkdlybuf4s25_1
*CAP
1 *817:B 0.0015261
2 *983:X 0.0015261
3 *817:B *893:A 2.52555e-05
4 *817:B *1025:A 0.000138106
5 gpio_out[1] *817:B 0.000409828
6 *888:B *817:B 1.70437e-05
7 *889:C *817:B 0
8 *949:A *817:B 6.87052e-05
9 *970:A *817:B 6.06649e-05
10 *983:A *817:B 0.000976023
11 *205:88 *817:B 6.24871e-05
*RES
1 *983:X *817:B 13.4842 
*END

*D_NET *306 0.00274626
*CONN
*I *818:B I *D sky130_fd_sc_hd__xor2_2
*I *984:X O *D sky130_fd_sc_hd__clkdlybuf4s25_1
*CAP
1 *818:B 0.00054979
2 *984:X 0.00054979
3 *818:B *1023:A 6.44676e-05
4 axi_rdata[3] *818:B 2.74988e-05
5 *815:B *818:B 0.00111282
6 *881:C *818:B 8.88816e-05
7 *883:A *818:B 2.17235e-05
8 *887:A *818:B 6.71803e-06
9 *891:B *818:B 0.000324573
10 *979:A *818:B 0
11 *241:31 *818:B 0
*RES
1 *984:X *818:B 9.6962 
*END

*D_NET *307 0.00409555
*CONN
*I *790:B I *D sky130_fd_sc_hd__xor2_2
*I *985:X O *D sky130_fd_sc_hd__clkdlybuf4s25_1
*CAP
1 *790:B 0.000699316
2 *985:X 0.000699316
3 axi_rdata[0] *790:B 0.000283888
4 *788:B *790:B 0.000189566
5 *985:A *790:B 0.00146995
6 *243:12 *790:B 0.000271308
7 *263:51 *790:B 0.000482199
*RES
1 *985:X *790:B 26.525 
*END

*D_NET *308 0.00235482
*CONN
*I *791:B I *D sky130_fd_sc_hd__xor2_2
*I *986:X O *D sky130_fd_sc_hd__clkdlybuf4s25_1
*CAP
1 *791:B 0.000777295
2 *986:X 0.000777295
3 *791:B *792:B 0
4 *791:B *900:RESET_B 0
5 *791:B *1031:A 2.72316e-05
6 *791:B *1033:A 0
7 axi_rdata[4] *791:B 5.16348e-05
8 *791:A *791:B 0
9 *826:B *791:B 1.34594e-05
10 *828:B *791:B 4.76303e-05
11 *900:CLK *791:B 0
12 *986:A *791:B 0.000366942
13 *248:20 *791:B 0.000232403
14 *278:31 *791:B 6.09299e-05
*RES
1 *986:X *791:B 17.21 
*END

*D_NET *309 0.00344622
*CONN
*I *792:B I *D sky130_fd_sc_hd__xor2_2
*I *987:X O *D sky130_fd_sc_hd__clkdlybuf4s25_1
*CAP
1 *792:B 0.000966835
2 *987:X 0.000966835
3 *792:B *793:B 0.000514568
4 *792:B *794:B 7.2718e-05
5 *792:B *900:RESET_B 2.64091e-05
6 *792:B *1033:A 0.000168781
7 *791:B *792:B 0
8 *794:A *792:B 6.33103e-05
9 *828:B *792:B 0
10 *988:A *792:B 0.000202641
11 *210:18 *792:B 0.000241701
12 *248:14 *792:B 9.02927e-05
13 *279:8 *792:B 0.000122331
14 *281:20 *792:B 9.80032e-06
*RES
1 *987:X *792:B 26.505 
*END

*D_NET *310 0.00389834
*CONN
*I *793:B I *D sky130_fd_sc_hd__xor2_2
*I *988:X O *D sky130_fd_sc_hd__clkdlybuf4s25_1
*CAP
1 *793:B 0.000959534
2 *988:X 0.000959534
3 *793:B *794:B 0.000244388
4 *793:B *903:RESET_B 0.000354653
5 *792:B *793:B 0.000514568
6 *902:D *793:B 2.1022e-05
7 *988:A *793:B 0.000231411
8 *990:A *793:B 3.09164e-05
9 *992:A *793:B 0.00035345
10 *248:8 *793:B 0.000228863
*RES
1 *988:X *793:B 25.13 
*END

*D_NET *311 0.00346132
*CONN
*I *798:B I *D sky130_fd_sc_hd__xor2_2
*I *989:X O *D sky130_fd_sc_hd__clkdlybuf4s25_1
*CAP
1 *798:B 0.00121454
2 *989:X 0.00121454
3 *798:B *930:D 0.000222072
4 *798:B *931:RESET_B 0
5 *798:B *1007:A 4.89295e-05
6 *798:B *365:213 0
7 *853:B *798:B 8.09021e-06
8 *862:D *798:B 0
9 *889:C *798:B 0
10 *213:18 *798:B 0
11 *215:19 *798:B 0.000353101
12 *217:14 *798:B 0.000183731
13 *254:12 *798:B 7.16263e-05
14 *254:25 *798:B 0.000135973
15 *254:36 *798:B 8.7152e-06
*RES
1 *989:X *798:B 28.55 
*END

*D_NET *312 0.00515211
*CONN
*I *794:B I *D sky130_fd_sc_hd__xor2_2
*I *990:X O *D sky130_fd_sc_hd__clkdlybuf4s25_1
*CAP
1 *794:B 0.00167852
2 *990:X 0.00167852
3 axi_rdata[7] *794:B 0.000500251
4 *792:B *794:B 7.2718e-05
5 *793:B *794:B 0.000244388
6 *794:A *794:B 4.11729e-05
7 *988:A *794:B 0.000573683
8 *990:A *794:B 0.000362863
*RES
1 *990:X *794:B 40.5325 
*END

*D_NET *313 0.00110293
*CONN
*I *795:B I *D sky130_fd_sc_hd__xor2_2
*I *991:X O *D sky130_fd_sc_hd__clkdlybuf4s25_1
*CAP
1 *795:B 0.000394206
2 *991:X 0.000394206
3 *795:B *1035:A 0.000166806
4 *796:A *795:B 0.000120186
5 *991:A *795:B 2.75229e-05
*RES
1 *991:X *795:B 10.88 
*END

*D_NET *314 0.00222108
*CONN
*I *796:B I *D sky130_fd_sc_hd__xor2_2
*I *992:X O *D sky130_fd_sc_hd__clkdlybuf4s25_1
*CAP
1 *796:B 0.000527075
2 *992:X 0.000527075
3 axi_rdata[9] *796:B 0.000380698
4 *795:A *796:B 0.000478985
5 *796:A *796:B 8.11581e-05
6 *824:B1 *796:B 1.28996e-05
7 *833:B *796:B 2.01934e-05
8 *835:B *796:B 0.000123968
9 *840:D *796:B 6.90254e-05
*RES
1 *992:X *796:B 17.3675 
*END

*D_NET *315 0.0107493
*CONN
*I *900:RESET_B I *D sky130_fd_sc_hd__dfrtp_2
*I *901:RESET_B I *D sky130_fd_sc_hd__dfrtp_2
*I *896:RESET_B I *D sky130_fd_sc_hd__dfrtp_2
*I *899:RESET_B I *D sky130_fd_sc_hd__dfrtp_2
*I *898:RESET_B I *D sky130_fd_sc_hd__dfrtp_2
*I *903:RESET_B I *D sky130_fd_sc_hd__dfrtp_2
*I *902:RESET_B I *D sky130_fd_sc_hd__dfrtp_2
*I *895:RESET_B I *D sky130_fd_sc_hd__dfrtp_2
*I *897:RESET_B I *D sky130_fd_sc_hd__dfrtp_2
*I *1001:A I *D sky130_fd_sc_hd__buf_12
*I *993:X O *D sky130_fd_sc_hd__buf_4
*CAP
1 *900:RESET_B 0.000246249
2 *901:RESET_B 0.000330821
3 *896:RESET_B 0.000103096
4 *899:RESET_B 0
5 *898:RESET_B 0.000139986
6 *903:RESET_B 0.000116559
7 *902:RESET_B 0.000192676
8 *895:RESET_B 0
9 *897:RESET_B 0.00155199
10 *1001:A 0.000119351
11 *993:X 0.000116982
12 *315:77 0.00018002
13 *315:75 0.00014313
14 *315:52 0.00060982
15 *315:12 0.00134165
16 *315:10 0.000172447
17 *896:RESET_B *786:A 6.37837e-05
18 *896:RESET_B *958:A 7.69078e-05
19 *897:RESET_B *786:A 2.65337e-05
20 *897:RESET_B *894:B 0.000238137
21 *900:RESET_B *1033:A 6.86633e-05
22 *901:RESET_B *1033:A 4.3767e-05
23 *1001:A *1037:A 0.000118513
24 *315:10 *1025:A 1.16875e-05
25 *315:10 *1037:A 0.000102079
26 *315:12 *1037:A 0.000240689
27 *315:52 *786:A 0.000142016
28 axi_rdata[3] *898:RESET_B 0
29 uart_tx *1001:A 0.000116853
30 uart_tx *315:10 0.000132947
31 uart_tx *315:12 0.00024922
32 *790:A *898:RESET_B 0
33 *791:B *900:RESET_B 0
34 *792:B *900:RESET_B 2.64091e-05
35 *793:B *903:RESET_B 0.000354653
36 *824:A2 *315:52 3.5678e-06
37 *824:A3 *315:52 0.000456125
38 *825:B *315:52 0.000490951
39 *887:A *896:RESET_B 5.14953e-05
40 *887:A *898:RESET_B 1.43521e-05
41 *887:A *315:77 4.61658e-05
42 *890:A1 *897:RESET_B 5.36384e-06
43 *895:D *897:RESET_B 1.83756e-05
44 *896:D *315:52 4.92062e-05
45 *897:D *897:RESET_B 6.81362e-05
46 *903:D *901:RESET_B 0.000116165
47 *949:A *897:RESET_B 0.000113415
48 *960:A *897:RESET_B 7.27275e-05
49 *985:A *896:RESET_B 0.000236977
50 *985:A *898:RESET_B 0.000246777
51 *985:A *315:77 0.000108322
52 *992:A *903:RESET_B 0.000354653
53 *203:18 *898:RESET_B 4.70477e-05
54 *248:14 *900:RESET_B 0.000178049
55 *252:10 *896:RESET_B 4.1235e-05
56 *263:12 *315:52 0.000175075
57 *263:51 *315:52 0.000119554
58 *274:40 *898:RESET_B 8.24372e-05
59 *279:23 *900:RESET_B 0
60 *280:6 *902:RESET_B 0.000116502
61 *281:12 *903:RESET_B 4.2854e-05
62 *281:20 *901:RESET_B 0.000116165
*RES
1 *993:X *315:10 6.03 
2 *315:10 *315:12 2.91 
3 *315:12 *1001:A 6.12 
4 *315:12 *897:RESET_B 16.3175 
5 *315:10 *895:RESET_B 2 
6 *897:RESET_B *315:52 10.7025 
7 *315:52 *902:RESET_B 1.7775 
8 *315:52 *903:RESET_B 8.5825 
9 *897:RESET_B *315:75 2 
10 *315:75 *315:77 1.38 
11 *315:77 *898:RESET_B 5.6525 
12 *315:77 *899:RESET_B 2 
13 *315:75 *896:RESET_B 5.6525 
14 *902:RESET_B *901:RESET_B 6.1225 
15 *901:RESET_B *900:RESET_B 8.995 
*END

*D_NET *316 0.00721213
*CONN
*I *894:B I *D sky130_fd_sc_hd__xor2_2
*I *994:X O *D sky130_fd_sc_hd__clkdlybuf4s25_1
*CAP
1 *894:B 0.00254821
2 *994:X 0.00254821
3 *894:B *894:A 8.8266e-05
4 *894:B *1015:A 8.29901e-05
5 *894:B *1026:A 0
6 *894:B *1029:A 0
7 *894:B *1033:A 4.99619e-05
8 *894:B *1034:A 5.05521e-05
9 *894:B *1036:A 4.11281e-05
10 *894:B *1045:A 0
11 *894:B *365:10 0.000162325
12 axi_bvalid *894:B 0
13 axi_rdata[0] *894:B 0.000163012
14 axi_rdata[7] *894:B 6.16141e-05
15 axi_rdata[8] *894:B 2.50702e-05
16 *787:B *894:B 0.000425307
17 *789:B *894:B 0
18 *897:RESET_B *894:B 0.000238137
19 *898:CLK *894:B 0
20 *949:A *894:B 2.96334e-05
21 *967:A *894:B 0.000136093
22 *982:A *894:B 0
23 *990:A *894:B 0.00056162
*RES
1 *994:X *894:B 49.3425 
*END

*D_NET *317 0.000363903
*CONN
*I *1002:A I *D sky130_fd_sc_hd__clkdlybuf4s25_1
*I *936:X O *D sky130_fd_sc_hd__buf_2
*CAP
1 *1002:A 0.000181952
2 *936:X 0.000181952
*RES
1 *936:X *1002:A 9.975 
*END

*D_NET *318 0.00112102
*CONN
*I *1003:A I *D sky130_fd_sc_hd__clkdlybuf4s25_1
*I *937:X O *D sky130_fd_sc_hd__buf_2
*CAP
1 *1003:A 0.000386447
2 *937:X 0.000386447
3 *1003:A *801:B 7.06865e-05
4 *1003:A *802:B 0.000249921
5 axi_awready *1003:A 0
6 *937:A *1003:A 2.75145e-05
7 *998:A *1003:A 0
*RES
1 *937:X *1003:A 14.055 
*END

*D_NET *319 0.001568
*CONN
*I *1004:A I *D sky130_fd_sc_hd__clkdlybuf4s25_1
*I *787:X O *D sky130_fd_sc_hd__xor2_2
*CAP
1 *1004:A 0.000385288
2 *787:X 0.000385288
3 *1004:A *958:A 4.16007e-05
4 axi_rdata[0] *1004:A 2.49909e-05
5 *788:B *1004:A 0.000705843
6 *899:D *1004:A 0
7 *941:A *1004:A 2.49909e-05
8 *982:A *1004:A 0
*RES
1 *787:X *1004:A 16.17 
*END

*D_NET *320 0.000526482
*CONN
*I *1005:A I *D sky130_fd_sc_hd__clkdlybuf4s25_1
*I *797:X O *D sky130_fd_sc_hd__xor2_2
*CAP
1 *1005:A 0.000137184
2 *797:X 0.000137184
3 *1005:A *800:B 6.47357e-05
4 gpio_out[4] *1005:A 0.000122821
5 *996:A *1005:A 6.45575e-05
*RES
1 *797:X *1005:A 10.485 
*END

*D_NET *321 0.00132384
*CONN
*I *1006:A I *D sky130_fd_sc_hd__clkdlybuf4s25_1
*I *798:X O *D sky130_fd_sc_hd__xor2_2
*CAP
1 *1006:A 0.000301914
2 *798:X 0.000301914
3 *1006:A *931:RESET_B 0.000205589
4 *859:A *1006:A 5.4003e-05
5 *861:D *1006:A 0.000201508
6 *862:D *1006:A 0
7 *869:C *1006:A 0
8 *918:D *1006:A 0.000150071
9 *227:19 *1006:A 6.05513e-05
10 *228:30 *1006:A 4.82919e-05
*RES
1 *798:X *1006:A 15.51 
*END

*D_NET *322 0.00296678
*CONN
*I *799:B I *D sky130_fd_sc_hd__xor2_2
*I *995:X O *D sky130_fd_sc_hd__clkdlybuf4s25_1
*CAP
1 *799:B 0.000940933
2 *995:X 0.000940933
3 *799:B *1007:A 3.09179e-05
4 axi_rdata[15] *799:B 0.000234674
5 *799:A *799:B 0.000101369
6 *802:A *799:B 0.000414358
7 *852:D *799:B 3.93101e-05
8 *911:D *799:B 2.43251e-05
9 *933:CLK *799:B 7.9642e-06
10 *989:A *799:B 5.39181e-05
11 *255:65 *799:B 0.000113821
12 *258:20 *799:B 6.42574e-05
*RES
1 *995:X *799:B 19.2275 
*END

*D_NET *323 0.00292726
*CONN
*I *1007:A I *D sky130_fd_sc_hd__clkdlybuf4s25_1
*I *799:X O *D sky130_fd_sc_hd__xor2_2
*CAP
1 *1007:A 0.000687883
2 *799:X 0.000687883
3 *1007:A *930:D 0.000275915
4 axi_rdata[15] *1007:A 9.63937e-05
5 *798:B *1007:A 4.89295e-05
6 *799:A *1007:A 0.000163199
7 *799:B *1007:A 3.09179e-05
8 *850:D *1007:A 7.23533e-05
9 *933:CLK *1007:A 2.76356e-05
10 *989:A *1007:A 0.000467945
11 *256:28 *1007:A 0.000361628
12 *257:29 *1007:A 6.57949e-06
*RES
1 *799:X *1007:A 21.165 
*END

*D_NET *324 0.000834839
*CONN
*I *1008:A I *D sky130_fd_sc_hd__clkdlybuf4s25_1
*I *800:X O *D sky130_fd_sc_hd__xor2_2
*CAP
1 *1008:A 9.20788e-05
2 *800:X 9.20788e-05
3 axi_rdata[13] *1008:A 0.000385464
4 *800:A *1008:A 0.000265218
*RES
1 *800:X *1008:A 7.115 
*END

*D_NET *325 0.000808167
*CONN
*I *1009:A I *D sky130_fd_sc_hd__clkdlybuf4s25_1
*I *801:X O *D sky130_fd_sc_hd__xor2_2
*CAP
1 *1009:A 8.93945e-05
2 *801:X 8.93945e-05
3 *1009:A *801:B 3.25831e-05
4 *1009:A *802:B 0.000392428
5 gpio_out[7] *1009:A 0.000204367
*RES
1 *801:X *1009:A 11.64 
*END

*D_NET *326 0.000408462
*CONN
*I *1010:A I *D sky130_fd_sc_hd__clkdlybuf4s25_1
*I *802:X O *D sky130_fd_sc_hd__xor2_2
*CAP
1 *1010:A 0.000133193
2 *802:X 0.000133193
3 *1010:A *365:287 0
4 *802:A *1010:A 4.82863e-05
5 *255:65 *1010:A 9.37893e-05
*RES
1 *802:X *1010:A 9.795 
*END

*D_NET *327 0.00126338
*CONN
*I *1011:A I *D sky130_fd_sc_hd__clkdlybuf4s25_1
*I *803:X O *D sky130_fd_sc_hd__xor2_2
*CAP
1 *1011:A 0.000153854
2 *803:X 0.000153854
3 *1011:A *803:B 0.000159859
4 axi_rdata[16] *1011:A 0.000409031
5 *999:A *1011:A 0.000386783
*RES
1 *803:X *1011:A 9.875 
*END

*D_NET *328 0.00218713
*CONN
*I *1012:A I *D sky130_fd_sc_hd__clkdlybuf4s25_1
*I *804:X O *D sky130_fd_sc_hd__xor2_2
*CAP
1 *1012:A 0.000489841
2 *804:X 0.000489841
3 *1012:A *1040:A 0.000230596
4 *805:A *1012:A 0
5 *806:B *1012:A 0.000119277
6 *863:A1 *1012:A 0.000134314
7 *863:B1_N *1012:A 0.000381883
8 *947:A *1012:A 0.000313857
9 *226:10 *1012:A 2.75229e-05
*RES
1 *804:X *1012:A 20.79 
*END

*D_NET *329 0.00199593
*CONN
*I *1013:A I *D sky130_fd_sc_hd__clkdlybuf4s25_1
*I *805:X O *D sky130_fd_sc_hd__xor2_2
*CAP
1 *1013:A 0.000665599
2 *805:X 0.000665599
3 *1013:A *804:B 2.12109e-05
4 *1013:A *912:RESET_B 0.000201257
5 *805:B *1013:A 0.000362807
6 *863:B1_N *1013:A 5.39775e-05
7 *912:CLK *1013:A 2.54824e-05
8 *915:D *1013:A 0
*RES
1 *805:X *1013:A 18.135 
*END

*D_NET *330 0.000737742
*CONN
*I *1014:A I *D sky130_fd_sc_hd__clkdlybuf4s25_1
*I *806:X O *D sky130_fd_sc_hd__xor2_2
*CAP
1 *1014:A 0.000248751
2 *806:X 0.000248751
3 axi_rdata[17] *1014:A 0.000191948
4 *807:A *1014:A 0
5 *916:CLK *1014:A 4.82919e-05
6 *916:D *1014:A 0
7 *971:A *1014:A 0
*RES
1 *806:X *1014:A 12.27 
*END

*D_NET *331 0.00129307
*CONN
*I *1015:A I *D sky130_fd_sc_hd__clkdlybuf4s25_1
*I *788:X O *D sky130_fd_sc_hd__xor2_2
*CAP
1 *1015:A 0.00049613
2 *788:X 0.00049613
3 *1015:A *1029:A 0
4 axi_rdata[2] *1015:A 0
5 *789:A *1015:A 0.00011577
6 *821:B *1015:A 0.000102049
7 *894:B *1015:A 8.29901e-05
*RES
1 *788:X *1015:A 15.075 
*END

*D_NET *332 0.000587418
*CONN
*I *1016:A I *D sky130_fd_sc_hd__clkdlybuf4s25_1
*I *807:X O *D sky130_fd_sc_hd__xor2_2
*CAP
1 *1016:A 0.000187129
2 *807:X 0.000187129
3 axi_rdata[20] *1016:A 0
4 *808:A *1016:A 0
5 *864:A *1016:A 4.99619e-05
6 *951:A *1016:A 0.000163199
*RES
1 *807:X *1016:A 10.83 
*END

*D_NET *333 0.000447453
*CONN
*I *800:B I *D sky130_fd_sc_hd__xor2_2
*I *996:X O *D sky130_fd_sc_hd__clkdlybuf4s25_1
*CAP
1 *800:B 0.000191359
2 *996:X 0.000191359
3 *1005:A *800:B 6.47357e-05
*RES
1 *996:X *800:B 9.02 
*END

*D_NET *334 0.000710168
*CONN
*I *1017:A I *D sky130_fd_sc_hd__clkdlybuf4s25_1
*I *808:X O *D sky130_fd_sc_hd__xor2_2
*CAP
1 *1017:A 3.6993e-05
2 *808:X 3.6993e-05
3 *808:B *1017:A 0.000318091
4 *972:A *1017:A 0.000318091
*RES
1 *808:X *1017:A 6.065 
*END

*D_NET *335 0.000592417
*CONN
*I *1018:A I *D sky130_fd_sc_hd__clkdlybuf4s25_1
*I *809:X O *D sky130_fd_sc_hd__xor2_2
*CAP
1 *1018:A 0.000195457
2 *809:X 0.000195457
3 *809:B *1018:A 0.000201503
4 *230:18 *1018:A 0
*RES
1 *809:X *1018:A 10.665 
*END

*D_NET *336 0.00160308
*CONN
*I *1019:A I *D sky130_fd_sc_hd__clkdlybuf4s25_1
*I *810:X O *D sky130_fd_sc_hd__xor2_2
*CAP
1 *1019:A 0.000230799
2 *810:X 0.000230799
3 *1019:A *1021:A 0.00012631
4 axi_rdata[24] *1019:A 0.000471294
5 *811:B *1019:A 0.00035825
6 *812:B *1019:A 0.000185626
*RES
1 *810:X *1019:A 15.66 
*END

*D_NET *337 0.0002075
*CONN
*I *1020:A I *D sky130_fd_sc_hd__clkdlybuf4s25_1
*I *811:X O *D sky130_fd_sc_hd__xor2_2
*CAP
1 *1020:A 0.00010375
2 *811:X 0.00010375
3 axi_rdata[25] *1020:A 0
*RES
1 *811:X *1020:A 8.835 
*END

*D_NET *338 0.00203814
*CONN
*I *1021:A I *D sky130_fd_sc_hd__clkdlybuf4s25_1
*I *812:X O *D sky130_fd_sc_hd__xor2_2
*CAP
1 *1021:A 0.00058467
2 *812:X 0.00058467
3 axi_rdata[22] *1021:A 0.000127757
4 axi_rdata[23] *1021:A 0.000160007
5 axi_rdata[24] *1021:A 0.000196225
6 *812:B *1021:A 0
7 *974:A *1021:A 0.000258501
8 *976:A *1021:A 0
9 *1019:A *1021:A 0.00012631
*RES
1 *812:X *1021:A 21.225 
*END

*D_NET *339 0.000794799
*CONN
*I *1022:A I *D sky130_fd_sc_hd__clkdlybuf4s25_1
*I *813:X O *D sky130_fd_sc_hd__xor2_2
*CAP
1 *1022:A 0.000217287
2 *813:X 0.000217287
3 *1022:A *1023:A 0
4 axi_rdata[27] *1022:A 5.95448e-05
5 *813:A *1022:A 2.75229e-05
6 *813:B *1022:A 4.82919e-05
7 *814:B *1022:A 0
8 *881:C *1022:A 0.000123282
9 *883:A *1022:A 9.5799e-06
10 *270:12 *1022:A 9.20028e-05
*RES
1 *813:X *1022:A 11.58 
*END

*D_NET *340 0.00130855
*CONN
*I *1023:A I *D sky130_fd_sc_hd__clkdlybuf4s25_1
*I *814:X O *D sky130_fd_sc_hd__xor2_2
*CAP
1 *1023:A 0.000515234
2 *814:X 0.000515234
3 axi_rdata[27] *1023:A 0
4 axi_rdata[28] *1023:A 0
5 *814:A *1023:A 8.65961e-05
6 *814:B *1023:A 3.47837e-05
7 *818:B *1023:A 6.44676e-05
8 *883:A *1023:A 4.55864e-06
9 *977:A *1023:A 8.76743e-05
10 *980:A *1023:A 0
11 *1022:A *1023:A 0
*RES
1 *814:X *1023:A 15.48 
*END

*D_NET *341 0.00263169
*CONN
*I *1024:A I *D sky130_fd_sc_hd__clkdlybuf4s25_1
*I *815:X O *D sky130_fd_sc_hd__xor2_2
*CAP
1 *1024:A 0.000726292
2 *815:X 0.000726292
3 *1024:A *1028:A 1.19928e-05
4 axi_rdata[28] *1024:A 0.000842267
5 *887:A *1024:A 5.83121e-06
6 *893:B *1024:A 1.83756e-05
7 *984:A *1024:A 0.000198945
8 *241:37 *1024:A 4.99619e-05
9 *272:44 *1024:A 5.17287e-05
*RES
1 *815:X *1024:A 19.26 
*END

*D_NET *342 0.00315056
*CONN
*I *1025:A I *D sky130_fd_sc_hd__clkdlybuf4s25_1
*I *816:X O *D sky130_fd_sc_hd__xor2_2
*CAP
1 *1025:A 0.000466708
2 *816:X 0.000466708
3 *1025:A *893:A 0.00113151
4 *1025:A *1036:A 8.65961e-05
5 *1025:A *1037:A 0.000581681
6 axi_wready *1025:A 1.93834e-05
7 uart_tx *1025:A 9.39439e-05
8 *817:B *1025:A 0.000138106
9 *821:B *1025:A 0.000142669
10 *938:A *1025:A 1.15688e-05
11 *315:10 *1025:A 1.16875e-05
*RES
1 *816:X *1025:A 23.355 
*END

*D_NET *343 0.00047014
*CONN
*I *1026:A I *D sky130_fd_sc_hd__clkdlybuf4s25_1
*I *789:X O *D sky130_fd_sc_hd__xor2_2
*CAP
1 *1026:A 7.95238e-05
2 *789:X 7.95238e-05
3 *1026:A *1036:A 0.000164445
4 *1026:A *1045:A 7.36562e-05
5 axi_rdata[29] *1026:A 4.99619e-05
6 *821:B *1026:A 2.30292e-05
7 *894:B *1026:A 0
*RES
1 *789:X *1026:A 9.63 
*END

*D_NET *344 0.00080097
*CONN
*I *801:B I *D sky130_fd_sc_hd__xor2_2
*I *997:X O *D sky130_fd_sc_hd__clkdlybuf4s25_1
*CAP
1 *801:B 0.000141778
2 *997:X 0.000141778
3 *801:B *802:B 0.000104782
4 *801:B *1044:A 1.56428e-05
5 gpio_out[7] *801:B 0.000293719
6 *1003:A *801:B 7.06865e-05
7 *1009:A *801:B 3.25831e-05
*RES
1 *997:X *801:B 9.47 
*END

*D_NET *345 0.00442565
*CONN
*I *1027:A I *D sky130_fd_sc_hd__clkdlybuf4s25_1
*I *817:X O *D sky130_fd_sc_hd__xor2_2
*CAP
1 *1027:A 0.000655784
2 *817:X 0.000655784
3 axi_bvalid *1027:A 0.000347023
4 axi_rdata[1] *1027:A 0.000132756
5 axi_rdata[30] *1027:A 0.000606173
6 uart_tx *1027:A 0.000245977
7 *820:A *1027:A 3.23663e-05
8 *820:B *1027:A 0.000461717
9 *821:B *1027:A 0.000109776
10 *962:A *1027:A 0.00103291
11 *993:A *1027:A 0.000145389
*RES
1 *817:X *1027:A 30.63 
*END

*D_NET *346 0.00278901
*CONN
*I *1028:A I *D sky130_fd_sc_hd__clkdlybuf4s25_1
*I *818:X O *D sky130_fd_sc_hd__xor2_2
*CAP
1 *1028:A 0.000339604
2 *818:X 0.000339604
3 *1028:A *894:A 0.000761437
4 axi_rdata[27] *1028:A 0.000160836
5 axi_rdata[28] *1028:A 4.41506e-05
6 axi_rdata[31] *1028:A 2.75229e-05
7 axi_rdata[3] *1028:A 8.41703e-06
8 *815:B *1028:A 0.000755485
9 *887:A *1028:A 1.93834e-05
10 *891:C *1028:A 0.000162503
11 *980:A *1028:A 0.000158072
12 *1024:A *1028:A 1.19928e-05
*RES
1 *818:X *1028:A 13.5301 
*END

*D_NET *347 0.00576167
*CONN
*I *1029:A I *D sky130_fd_sc_hd__clkdlybuf4s25_1
*I *790:X O *D sky130_fd_sc_hd__xor2_2
*CAP
1 *1029:A 0.00144562
2 *790:X 0.00144562
3 *1029:A *822:A 0.000652277
4 *1029:A *1038:A 1.96308e-05
5 *1029:A *365:54 0
6 axi_rdata[1] *1029:A 0.000111448
7 axi_rdata[2] *1029:A 0.000103529
8 *789:B *1029:A 0.000319896
9 *816:B *1029:A 0.000276283
10 *820:B *1029:A 0.00011577
11 *881:D *1029:A 0.000427094
12 *887:B *1029:A 7.08131e-05
13 *891:A *1029:A 0
14 *891:B *1029:A 6.30871e-05
15 *891:D *1029:A 0
16 *894:B *1029:A 0
17 *897:D *1029:A 0
18 *898:CLK *1029:A 0
19 *898:D *1029:A 6.00618e-05
20 *925:D *1029:A 0.000175002
21 *945:A *1029:A 0
22 *960:A *1029:A 0.000346349
23 *977:A *1029:A 7.35729e-05
24 *979:A *1029:A 5.56116e-05
25 *1015:A *1029:A 0
26 *249:108 *1029:A 0
*RES
1 *790:X *1029:A 40.77 
*END

*D_NET *348 0.00159587
*CONN
*I *1030:A I *D sky130_fd_sc_hd__clkdlybuf4s25_1
*I *791:X O *D sky130_fd_sc_hd__xor2_2
*CAP
1 *1030:A 0.000196725
2 *791:X 0.000196725
3 *1030:A *1033:A 0.000202662
4 axi_rdata[4] *1030:A 0.000815528
5 *990:A *1030:A 0.000184234
*RES
1 *791:X *1030:A 10.91 
*END

*D_NET *349 0.00145219
*CONN
*I *1031:A I *D sky130_fd_sc_hd__clkdlybuf4s25_1
*I *792:X O *D sky130_fd_sc_hd__xor2_2
*CAP
1 *1031:A 0.000509049
2 *792:X 0.000509049
3 *791:B *1031:A 2.72316e-05
4 *900:D *1031:A 6.14974e-05
5 *986:A *1031:A 0.000345359
*RES
1 *792:X *1031:A 14.22 
*END

*D_NET *350 0.0018815
*CONN
*I *1032:A I *D sky130_fd_sc_hd__clkdlybuf4s25_1
*I *793:X O *D sky130_fd_sc_hd__xor2_2
*CAP
1 *1032:A 0.000338744
2 *793:X 0.000338744
3 axi_rdata[6] *1032:A 0.000804933
4 axi_rdata[9] *1032:A 0.000145699
5 *795:A *1032:A 5.07293e-05
6 *824:A1 *1032:A 0.000154658
7 *824:A2 *1032:A 1.10951e-05
8 *992:A *1032:A 3.68942e-05
*RES
1 *793:X *1032:A 17.505 
*END

*D_NET *351 0.00336064
*CONN
*I *1033:A I *D sky130_fd_sc_hd__clkdlybuf4s25_1
*I *794:X O *D sky130_fd_sc_hd__xor2_2
*CAP
1 *1033:A 0.000775562
2 *794:X 0.000775562
3 axi_rdata[4] *1033:A 0.000253575
4 *791:A *1033:A 2.68464e-05
5 *791:B *1033:A 0
6 *792:A *1033:A 9.61041e-05
7 *792:B *1033:A 0.000168781
8 *894:B *1033:A 4.99619e-05
9 *900:RESET_B *1033:A 6.86633e-05
10 *901:RESET_B *1033:A 4.3767e-05
11 *990:A *1033:A 0.000531478
12 *994:A *1033:A 0
13 *1030:A *1033:A 0.000202662
14 *279:8 *1033:A 0.000122331
15 *279:23 *1033:A 1.1561e-05
16 *281:20 *1033:A 0.000233786
*RES
1 *794:X *1033:A 25.65 
*END

*D_NET *352 0.00107423
*CONN
*I *1034:A I *D sky130_fd_sc_hd__clkdlybuf4s25_1
*I *795:X O *D sky130_fd_sc_hd__xor2_2
*CAP
1 *1034:A 0.000161365
2 *795:X 0.000161365
3 *787:B *1034:A 0.000142362
4 *894:B *1034:A 5.05521e-05
5 *967:A *1034:A 8.8266e-05
6 *970:A *1034:A 0.000331326
7 *982:A *1034:A 2.46007e-05
8 *203:18 *1034:A 3.03684e-05
9 *274:10 *1034:A 8.40213e-05
*RES
1 *795:X *1034:A 12.72 
*END

*D_NET *353 0.00129892
*CONN
*I *1035:A I *D sky130_fd_sc_hd__clkdlybuf4s25_1
*I *796:X O *D sky130_fd_sc_hd__xor2_2
*CAP
1 *1035:A 0.000276357
2 *796:X 0.000276357
3 *795:B *1035:A 0.000166806
4 *796:A *1035:A 0.000157865
5 *824:A3 *1035:A 0.000122879
6 *896:CLK *1035:A 1.21329e-05
7 *970:A *1035:A 0
8 *205:14 *1035:A 0.000153053
9 *274:10 *1035:A 0.000133469
*RES
1 *796:X *1035:A 14.4 
*END

*D_NET *354 0.000993623
*CONN
*I *1036:A I *D sky130_fd_sc_hd__clkdlybuf4s25_1
*I *938:X O *D sky130_fd_sc_hd__buf_2
*CAP
1 *1036:A 0.000294869
2 *938:X 0.000294869
3 axi_rdata[29] *1036:A 8.57321e-05
4 *821:B *1036:A 2.59835e-05
5 *894:B *1036:A 4.11281e-05
6 *1025:A *1036:A 8.65961e-05
7 *1026:A *1036:A 0.000164445
*RES
1 *938:X *1036:A 11.79 
*END

*D_NET *355 0.00220705
*CONN
*I *802:B I *D sky130_fd_sc_hd__xor2_2
*I *998:X O *D sky130_fd_sc_hd__clkdlybuf4s25_1
*CAP
1 *802:B 0.000547424
2 *998:X 0.000547424
3 *802:B *1044:A 0
4 *802:B *365:285 0
5 *802:B *365:287 0
6 axi_rdata[15] *802:B 0
7 gpio_out[7] *802:B 3.16323e-05
8 *801:B *802:B 0.000104782
9 *998:A *802:B 0.000333439
10 *1003:A *802:B 0.000249921
11 *1009:A *802:B 0.000392428
*RES
1 *998:X *802:B 19.67 
*END

*D_NET *356 0.00929397
*CONN
*I *1037:A I *D sky130_fd_sc_hd__clkdlybuf4s25_1
*I *928:Q O *D sky130_fd_sc_hd__dfrtp_2
*CAP
1 *1037:A 0.00331795
2 *928:Q 0.00331795
3 axi_rdata[5] *1037:A 0.000301296
4 axi_wready *1037:A 2.38557e-05
5 gpio_out[0] *1037:A 0.000540265
6 uart_tx *1037:A 6.60395e-05
7 *789:B *1037:A 0.000601068
8 *826:B *1037:A 4.18147e-05
9 *900:CLK *1037:A 0
10 *900:D *1037:A 0
11 *938:A *1037:A 4.07813e-05
12 *994:A *1037:A 0
13 *1001:A *1037:A 0.000118513
14 *1025:A *1037:A 0.000581681
15 *315:10 *1037:A 0.000102079
16 *315:12 *1037:A 0.000240689
*RES
1 *928:Q *1037:A 24.7977 
*END

*D_NET *357 0.00312742
*CONN
*I *1038:A I *D sky130_fd_sc_hd__clkdlybuf4s25_1
*I *929:Q O *D sky130_fd_sc_hd__dfrtp_2
*CAP
1 *1038:A 0.000746592
2 *929:Q 0.000746592
3 *1038:A *928:D 0.000257945
4 *1038:A *929:RESET_B 0.000370215
5 *816:B *1038:A 5.84927e-05
6 *890:A1 *1038:A 0.000117844
7 *891:A *1038:A 7.03219e-05
8 *898:CLK *1038:A 0.000357842
9 *960:A *1038:A 0.00016769
10 *966:A *1038:A 4.82863e-05
11 *1029:A *1038:A 1.96308e-05
12 *249:141 *1038:A 0.000165965
*RES
1 *929:Q *1038:A 22.815 
*END

*D_NET *358 0.00190542
*CONN
*I *1039:A I *D sky130_fd_sc_hd__clkdlybuf4s25_1
*I *930:Q O *D sky130_fd_sc_hd__dfrtp_2
*CAP
1 *1039:A 0.000298196
2 *930:Q 0.000298196
3 gpio_out[2] *1039:A 0.000586275
4 *978:A *1039:A 0.000242667
5 *996:A *1039:A 0.000480087
*RES
1 *930:Q *1039:A 16.875 
*END

*D_NET *359 0.00248344
*CONN
*I *1040:A I *D sky130_fd_sc_hd__clkdlybuf4s25_1
*I *931:Q O *D sky130_fd_sc_hd__dfrtp_2
*CAP
1 *1040:A 0.000515057
2 *931:Q 0.000515057
3 axi_rdata[17] *1040:A 0
4 *806:B *1040:A 0
5 *859:A *1040:A 0
6 *861:D *1040:A 0.000316806
7 *869:A *1040:A 2.37321e-05
8 *869:C *1040:A 0.000179015
9 *872:B *1040:A 3.67779e-05
10 *918:D *1040:A 0.000160641
11 *950:A *1040:A 0.000133763
12 *969:A *1040:A 8.53113e-06
13 *1012:A *1040:A 0.000230596
14 *228:16 *1040:A 1.08758e-05
15 *228:30 *1040:A 6.38722e-05
16 *228:41 *1040:A 7.21296e-06
17 *228:73 *1040:A 1.01661e-05
18 *230:33 *1040:A 4.9968e-05
19 *251:47 *1040:A 0
20 *262:19 *1040:A 0.000221373
*RES
1 *931:Q *1040:A 21.12 
*END

*D_NET *360 0.00232146
*CONN
*I *1041:A I *D sky130_fd_sc_hd__clkdlybuf4s25_1
*I *932:Q O *D sky130_fd_sc_hd__dfrtp_2
*CAP
1 *1041:A 0.000867929
2 *932:Q 0.000867929
3 *1041:A *930:RESET_B 3.68596e-05
4 *1041:A *1042:A 0.000463436
5 gpio_out[4] *1041:A 8.53011e-05
*RES
1 *932:Q *1041:A 20.34 
*END

*D_NET *361 0.00265549
*CONN
*I *1042:A I *D sky130_fd_sc_hd__clkdlybuf4s25_1
*I *933:Q O *D sky130_fd_sc_hd__dfrtp_2
*CAP
1 *1042:A 0.000779846
2 *933:Q 0.000779846
3 *1042:A *930:RESET_B 0
4 *1042:A *933:D 0.00054627
5 *1042:A *365:287 0
6 *1042:A *365:289 0
7 gpio_out[5] *1042:A 2.69217e-05
8 *797:B *1042:A 4.89395e-05
9 *989:A *1042:A 0
10 *1041:A *1042:A 0.000463436
11 *255:50 *1042:A 1.02346e-05
*RES
1 *933:Q *1042:A 21.36 
*END

*D_NET *362 0.001155
*CONN
*I *1043:A I *D sky130_fd_sc_hd__clkdlybuf4s25_1
*I *934:Q O *D sky130_fd_sc_hd__dfrtp_2
*CAP
1 *1043:A 0.000192389
2 *934:Q 0.000192389
3 *1043:A *1044:A 0.000298442
4 gpio_out[6] *1043:A 0
5 *937:A *1043:A 0.000232111
6 *997:A *1043:A 0.000239674
*RES
1 *934:Q *1043:A 12.795 
*END

*D_NET *363 0.00220801
*CONN
*I *1044:A I *D sky130_fd_sc_hd__clkdlybuf4s25_1
*I *935:Q O *D sky130_fd_sc_hd__dfrtp_2
*CAP
1 *1044:A 0.000526565
2 *935:Q 0.000526565
3 axi_rdata[14] *1044:A 1.88597e-05
4 *801:B *1044:A 1.56428e-05
5 *802:B *1044:A 0
6 *997:A *1044:A 0.000112971
7 *998:A *1044:A 0.000708967
8 *1043:A *1044:A 0.000298442
*RES
1 *935:Q *1044:A 19.62 
*END

*D_NET *364 0.00790773
*CONN
*I *1045:A I *D sky130_fd_sc_hd__clkdlybuf4s25_1
*I *958:A I *D sky130_fd_sc_hd__dlygate4sd3_1
*I *895:Q O *D sky130_fd_sc_hd__dfrtp_2
*CAP
1 *1045:A 0.00049317
2 *958:A 0.00148923
3 *895:Q 0.000519919
4 *364:6 0.00250232
5 *958:A *892:A 0.000263979
6 *958:A *904:RESET_B 7.33283e-05
7 *958:A *929:D 0.000240118
8 *1045:A *894:A 8.96766e-05
9 *1045:A *365:10 0
10 axi_bvalid *1045:A 3.09164e-05
11 axi_rdata[29] *1045:A 0.000186669
12 gpio_out[1] *1045:A 0.000394092
13 *788:B *958:A 0
14 *820:A *958:A 0.000188335
15 *820:A *1045:A 0
16 *820:B *1045:A 7.23533e-05
17 *885:B1 *958:A 2.84137e-05
18 *886:A *958:A 4.26188e-05
19 *894:B *1045:A 0
20 *895:CLK *958:A 0.000210536
21 *895:D *958:A 3.64998e-06
22 *895:D *364:6 0.000113322
23 *896:RESET_B *958:A 7.69078e-05
24 *899:D *958:A 0.000500828
25 *983:A *958:A 3.96263e-05
26 *1004:A *958:A 4.16007e-05
27 *1026:A *1045:A 7.36562e-05
28 *237:14 *958:A 0
29 *252:10 *958:A 9.68926e-05
30 *252:56 *958:A 0.000135563
*RES
1 *895:Q *364:6 7.225 
2 *364:6 *958:A 32.48 
3 *364:6 *1045:A 16.67 
*END

*D_NET *365 0.0275406
*CONN
*I *916:RESET_B I *D sky130_fd_sc_hd__dfrtp_2
*I *917:RESET_B I *D sky130_fd_sc_hd__dfrtp_2
*I *915:RESET_B I *D sky130_fd_sc_hd__dfrtp_2
*I *912:RESET_B I *D sky130_fd_sc_hd__dfrtp_2
*I *913:RESET_B I *D sky130_fd_sc_hd__dfrtp_2
*I *934:RESET_B I *D sky130_fd_sc_hd__dfrtp_2
*I *935:RESET_B I *D sky130_fd_sc_hd__dfrtp_2
*I *933:RESET_B I *D sky130_fd_sc_hd__dfrtp_2
*I *932:RESET_B I *D sky130_fd_sc_hd__dfrtp_2
*I *930:RESET_B I *D sky130_fd_sc_hd__dfrtp_2
*I *914:RESET_B I *D sky130_fd_sc_hd__dfrtp_2
*I *910:RESET_B I *D sky130_fd_sc_hd__dfrtp_2
*I *909:RESET_B I *D sky130_fd_sc_hd__dfrtp_2
*I *906:RESET_B I *D sky130_fd_sc_hd__dfrtp_2
*I *931:RESET_B I *D sky130_fd_sc_hd__dfrtp_2
*I *907:RESET_B I *D sky130_fd_sc_hd__dfrtp_2
*I *911:RESET_B I *D sky130_fd_sc_hd__dfrtp_2
*I *908:RESET_B I *D sky130_fd_sc_hd__dfrtp_2
*I *904:RESET_B I *D sky130_fd_sc_hd__dfrtp_2
*I *905:RESET_B I *D sky130_fd_sc_hd__dfrtp_2
*I *929:RESET_B I *D sky130_fd_sc_hd__dfrtp_2
*I *928:RESET_B I *D sky130_fd_sc_hd__dfrtp_2
*I *921:RESET_B I *D sky130_fd_sc_hd__dfrtp_2
*I *920:RESET_B I *D sky130_fd_sc_hd__dfrtp_2
*I *918:RESET_B I *D sky130_fd_sc_hd__dfrtp_2
*I *919:RESET_B I *D sky130_fd_sc_hd__dfrtp_2
*I *922:RESET_B I *D sky130_fd_sc_hd__dfrtp_2
*I *923:RESET_B I *D sky130_fd_sc_hd__dfrtp_2
*I *924:RESET_B I *D sky130_fd_sc_hd__dfrtp_2
*I *927:RESET_B I *D sky130_fd_sc_hd__dfrtp_2
*I *925:RESET_B I *D sky130_fd_sc_hd__dfrtp_2
*I *926:RESET_B I *D sky130_fd_sc_hd__dfrtp_2
*I *1001:X O *D sky130_fd_sc_hd__buf_12
*CAP
1 *916:RESET_B 9.51583e-05
2 *917:RESET_B 0.000531015
3 *915:RESET_B 0.000696292
4 *912:RESET_B 8.68616e-05
5 *913:RESET_B 2.35888e-05
6 *934:RESET_B 0.000101028
7 *935:RESET_B 0
8 *933:RESET_B 0
9 *932:RESET_B 0
10 *930:RESET_B 7.374e-05
11 *914:RESET_B 0.000650819
12 *910:RESET_B 0.000260803
13 *909:RESET_B 0.000324055
14 *906:RESET_B 0.000105772
15 *931:RESET_B 0.000650967
16 *907:RESET_B 0
17 *911:RESET_B 0.000835043
18 *908:RESET_B 3.24744e-05
19 *904:RESET_B 5.45631e-05
20 *905:RESET_B 0.000522566
21 *929:RESET_B 0.00059699
22 *928:RESET_B 0.000168281
23 *921:RESET_B 3.81942e-05
24 *920:RESET_B 0.00028901
25 *918:RESET_B 0.000429135
26 *919:RESET_B 0.000231156
27 *922:RESET_B 0.000359758
28 *923:RESET_B 2.17627e-05
29 *924:RESET_B 7.03145e-05
30 *927:RESET_B 0.000331772
31 *925:RESET_B 0.000164685
32 *926:RESET_B 0
33 *1001:X 0.000516569
34 *365:327 0.000211026
35 *365:289 0.000245791
36 *365:287 0.000534171
37 *365:285 0.00049701
38 *365:283 0.000277796
39 *365:213 0.000743527
40 *365:193 0.00106601
41 *365:181 0.00121608
42 *365:177 0.000342837
43 *365:107 0.000400451
44 *365:79 0.00102005
45 *365:64 0.000169297
46 *365:54 0.000502805
47 *365:44 0.000511382
48 *365:30 0.000521658
49 *365:23 0.000237889
50 *365:12 0.000185139
51 *365:10 0.000765913
52 *914:RESET_B *931:D 4.18603e-06
53 *934:RESET_B *934:D 0
54 *365:10 *894:A 0
55 *365:30 *894:A 0
56 *365:44 *894:A 0
57 *365:54 *894:A 0
58 axi_rdata[11] *915:RESET_B 0.000100308
59 axi_rdata[12] *365:193 0
60 axi_rdata[26] *365:54 7.22848e-05
61 gpio_out[1] *365:10 8.57024e-05
62 gpio_out[7] *934:RESET_B 6.23119e-05
63 gpio_out[7] *365:285 2.56523e-05
64 *788:B *904:RESET_B 7.33283e-05
65 *798:B *931:RESET_B 0
66 *798:B *365:213 0
67 *802:B *365:285 0
68 *802:B *365:287 0
69 *805:B *912:RESET_B 0.00023013
70 *807:A *916:RESET_B 0
71 *808:A *916:RESET_B 0
72 *810:B *920:RESET_B 1.34361e-05
73 *813:B *923:RESET_B 4.11729e-05
74 *814:A *365:54 1.64319e-05
75 *816:B *929:RESET_B 2.54715e-05
76 *838:A3 *365:177 0.00022763
77 *852:D *911:RESET_B 0
78 *852:D *365:193 0
79 *854:B1_N *910:RESET_B 0.000154273
80 *859:A *914:RESET_B 0
81 *860:A *914:RESET_B 3.31282e-05
82 *860:A *365:327 9.68787e-05
83 *861:B *914:RESET_B 2.66935e-05
84 *861:C *914:RESET_B 0
85 *861:C *915:RESET_B 8.32056e-05
86 *862:D *914:RESET_B 0
87 *862:D *931:RESET_B 0.000262528
88 *873:A *931:RESET_B 0
89 *878:B1 *918:RESET_B 0.000211921
90 *878:B1 *365:79 7.23533e-05
91 *880:A *918:RESET_B 7.23533e-05
92 *880:B *918:RESET_B 0.000155701
93 *882:A1 *919:RESET_B 0.00012929
94 *882:A1 *365:107 0
95 *882:B1_N *918:RESET_B 2.7881e-05
96 *882:B1_N *365:79 3.67779e-05
97 *883:A *365:54 1.92979e-05
98 *884:B2 *365:64 2.96342e-05
99 *890:A1 *365:10 0.000119277
100 *890:A1 *365:12 0.000152193
101 *890:A1 *365:23 9.68762e-05
102 *890:A1 *365:30 0.000170692
103 *891:A *365:30 3.6971e-05
104 *891:A *365:44 4.65643e-05
105 *891:A *365:54 2.8602e-05
106 *891:C *365:54 0.000275349
107 *891:D *365:54 1.16729e-05
108 *894:B *365:10 0.000162325
109 *898:CLK *365:10 9.68818e-05
110 *904:CLK *905:RESET_B 0.000106519
111 *909:CLK *909:RESET_B 4.66108e-05
112 *911:D *911:RESET_B 0.000308782
113 *914:D *912:RESET_B 0.000126679
114 *914:D *365:327 0.000248268
115 *915:CLK *913:RESET_B 4.31698e-05
116 *915:D *913:RESET_B 7.81924e-05
117 *915:D *915:RESET_B 0
118 *917:D *917:RESET_B 5.57726e-05
119 *920:CLK *918:RESET_B 4.01778e-05
120 *920:D *920:RESET_B 0.000142044
121 *921:D *918:RESET_B 0
122 *921:D *920:RESET_B 0
123 *922:CLK *918:RESET_B 0
124 *925:D *929:RESET_B 3.33896e-05
125 *927:CLK *927:RESET_B 0.0001249
126 *927:D *927:RESET_B 4.82919e-05
127 *958:A *904:RESET_B 7.33283e-05
128 *963:A *928:RESET_B 3.93775e-05
129 *963:A *365:10 5.83039e-05
130 *963:A *365:12 0.000136055
131 *963:A *365:23 1.64067e-05
132 *979:A *365:54 1.01661e-05
133 *981:A *924:RESET_B 2.00448e-05
134 *995:A *911:RESET_B 9.02855e-05
135 *996:A *930:RESET_B 0
136 *996:A *365:287 0
137 *996:A *365:289 0
138 *1006:A *931:RESET_B 0.000205589
139 *1010:A *365:287 0
140 *1013:A *912:RESET_B 0.000201257
141 *1029:A *365:54 0
142 *1038:A *929:RESET_B 0.000370215
143 *1041:A *930:RESET_B 3.68596e-05
144 *1042:A *930:RESET_B 0
145 *1042:A *365:287 0
146 *1042:A *365:289 0
147 *1045:A *365:10 0
148 *149:14 *911:RESET_B 0.000363636
149 *149:14 *914:RESET_B 0
150 *213:18 *365:177 0.000109813
151 *213:18 *365:181 8.58067e-05
152 *213:18 *365:193 4.80285e-05
153 *213:18 *365:213 2.42236e-05
154 *222:10 *911:RESET_B 0
155 *222:10 *365:193 3.0372e-05
156 *223:23 *910:RESET_B 0
157 *226:10 *915:RESET_B 0.000210846
158 *241:31 *365:54 7.18176e-05
159 *241:43 *365:213 0
160 *244:14 *365:54 1.88656e-05
161 *249:64 *929:RESET_B 6.04372e-05
162 *249:66 *905:RESET_B 0.000163201
163 *249:66 *929:RESET_B 0.000109043
164 *251:89 *919:RESET_B 3.87808e-05
165 *253:10 *906:RESET_B 0.000116899
166 *254:12 *931:RESET_B 0
167 *254:58 *931:RESET_B 0
168 *255:14 *365:193 0.000187537
169 *255:50 *365:287 0
170 *255:65 *365:287 0
171 *255:80 *934:RESET_B 0
172 *255:80 *365:285 0
173 *255:80 *365:287 0
174 *256:6 *909:RESET_B 0.000116502
175 *256:6 *365:283 2.40185e-05
176 *256:68 *909:RESET_B 7.3151e-05
177 *257:6 *910:RESET_B 2.2214e-05
178 *258:14 *909:RESET_B 3.41128e-05
179 *260:10 *912:RESET_B 0.00013521
180 *260:10 *365:327 7.47215e-05
181 *260:34 *914:RESET_B 3.09233e-05
182 *260:34 *915:RESET_B 0
183 *264:12 *916:RESET_B 0
184 *267:12 *919:RESET_B 2.04648e-05
185 *268:14 *920:RESET_B 0
186 *268:25 *920:RESET_B 0.000198286
187 *268:25 *365:54 0.000152363
188 *268:25 *365:64 0.000240036
189 *268:25 *365:107 0.000108329
190 *269:12 *365:79 8.73018e-05
191 *269:18 *365:79 0.000114984
192 *270:10 *365:64 0
193 *270:10 *365:107 0
194 *271:8 *365:54 3.98253e-05
195 *271:8 *365:64 5.74095e-05
196 *272:12 *924:RESET_B 2.75145e-05
197 *272:12 *365:54 0.000109206
198 *282:29 *365:177 7.00066e-05
199 *282:29 *365:181 5.65363e-05
200 *282:29 *365:213 2.9664e-05
201 *283:8 *905:RESET_B 0.000119247
*RES
1 *1001:X *365:10 13.0875 
2 *365:10 *365:12 3.2925 
3 *365:12 *926:RESET_B 2 
4 *365:12 *365:23 2.19 
5 *365:23 *925:RESET_B 2 
6 *365:23 *365:30 2.91 
7 *365:30 *927:RESET_B 6.3125 
8 *365:30 *365:44 1.125 
9 *365:44 *924:RESET_B 3.0875 
10 *365:44 *365:54 8.265 
11 *365:54 *923:RESET_B 2.3975 
12 *365:54 *365:64 2.91 
13 *365:64 *922:RESET_B 2 
14 *922:RESET_B *365:79 7.5275 
15 *365:79 *919:RESET_B 5.2775 
16 *365:79 *918:RESET_B 9.4625 
17 *365:64 *365:107 1.38 
18 *365:107 *920:RESET_B 7.4825 
19 *365:107 *921:RESET_B 2.45 
20 *365:10 *928:RESET_B 4.37 
21 *925:RESET_B *929:RESET_B 4.485 
22 *929:RESET_B *905:RESET_B 6.21 
23 *929:RESET_B *904:RESET_B 5.635 
24 *905:RESET_B *365:177 6.185 
25 *365:177 *365:181 2.34 
26 *365:181 *365:193 13.615 
27 *365:193 *908:RESET_B 2.3975 
28 *365:193 *911:RESET_B 9.7325 
29 *365:181 *365:213 6.735 
30 *365:213 *907:RESET_B 2 
31 *365:213 *931:RESET_B 10.265 
32 *365:177 *906:RESET_B 3.7775 
33 *911:RESET_B *909:RESET_B 4.485 
34 *911:RESET_B *910:RESET_B 8.9275 
35 *931:RESET_B *914:RESET_B 8.9275 
36 *909:RESET_B *365:283 2.7575 
37 *365:283 *365:285 2.4 
38 *365:285 *365:287 5.46 
39 *365:287 *365:289 2.91 
40 *365:289 *930:RESET_B 3.38 
41 *365:289 *932:RESET_B 2 
42 *365:287 *933:RESET_B 2 
43 *365:285 *935:RESET_B 2 
44 *365:283 *934:RESET_B 3.89 
45 *914:RESET_B *365:327 5.36 
46 *365:327 *913:RESET_B 2.7425 
47 *365:327 *912:RESET_B 5.7575 
48 *914:RESET_B *915:RESET_B 9.2725 
49 *915:RESET_B *917:RESET_B 5.865 
50 *917:RESET_B *916:RESET_B 5.38 
*END

*D_NET *366 0.00149694
*CONN
*I *803:B I *D sky130_fd_sc_hd__xor2_2
*I *999:X O *D sky130_fd_sc_hd__clkdlybuf4s25_1
*CAP
1 *803:B 0.000406072
2 *999:X 0.000406072
3 *999:A *803:B 0.000524932
4 *1011:A *803:B 0.000159859
*RES
1 *999:X *803:B 9.2575 
*END

*D_NET *367 0.00134427
*CONN
*I *930:D I *D sky130_fd_sc_hd__dfrtp_2
*I *952:X O *D sky130_fd_sc_hd__dlygate4sd3_1
*CAP
1 *930:D 0.000398158
2 *952:X 0.000398158
3 *798:B *930:D 0.000222072
4 *930:CLK *930:D 4.99619e-05
5 *1007:A *930:D 0.000275915
*RES
1 *952:X *930:D 11.24 
*END

*D_NET *368 0.00105172
*CONN
*I *935:D I *D sky130_fd_sc_hd__dfrtp_2
*I *953:X O *D sky130_fd_sc_hd__dlygate4sd3_1
*CAP
1 *935:D 0.000267431
2 *953:X 0.000267431
3 *849:A *935:D 4.82863e-05
4 *909:D *935:D 2.75145e-05
5 *935:CLK *935:D 9.43554e-05
6 *217:18 *935:D 0.000346707
*RES
1 *953:X *935:D 8.825 
*END

*D_NET *369 0.000886802
*CONN
*I *929:D I *D sky130_fd_sc_hd__dfrtp_2
*I *954:X O *D sky130_fd_sc_hd__dlygate4sd3_1
*CAP
1 *929:D 0.000234879
2 *954:X 0.000234879
3 *788:B *929:D 8.53394e-05
4 *958:A *929:D 0.000240118
5 *249:66 *929:D 9.15873e-05
*RES
1 *954:X *929:D 11.6438 
*END

*D_NET *370 0.00111037
*CONN
*I *933:D I *D sky130_fd_sc_hd__dfrtp_2
*I *955:X O *D sky130_fd_sc_hd__dlygate4sd3_1
*CAP
1 *933:D 0.000282048
2 *955:X 0.000282048
3 *930:CLK *933:D 0
4 *989:A *933:D 0
5 *1042:A *933:D 0.00054627
6 *256:28 *933:D 0
*RES
1 *955:X *933:D 13.875 
*END

*D_NET *371 0.000855986
*CONN
*I *931:D I *D sky130_fd_sc_hd__dfrtp_2
*I *956:X O *D sky130_fd_sc_hd__dlygate4sd3_1
*CAP
1 *931:D 0.000279651
2 *956:X 0.000279651
3 *853:A *931:D 8.65905e-05
4 *853:B *931:D 4.39911e-06
5 *862:D *931:D 0
6 *914:RESET_B *931:D 4.18603e-06
7 *956:A *931:D 0.000201508
8 *149:14 *931:D 0
*RES
1 *956:X *931:D 11.19 
*END

*D_NET *372 0.00199605
*CONN
*I *804:B I *D sky130_fd_sc_hd__xor2_2
*I *1000:X O *D sky130_fd_sc_hd__clkdlybuf4s25_1
*CAP
1 *804:B 0.000755962
2 *1000:X 0.000755962
3 *805:B *804:B 8.56319e-05
4 *863:A1 *804:B 6.79336e-05
5 *863:A2 *804:B 8.7152e-06
6 *863:B1_N *804:B 0.000140036
7 *912:CLK *804:B 7.08493e-05
8 *912:D *804:B 8.97462e-05
9 *915:D *804:B 0
10 *1013:A *804:B 2.12109e-05
*RES
1 *1000:X *804:B 16.0175 
*END

*D_NET *373 0.00148257
*CONN
*I *934:D I *D sky130_fd_sc_hd__dfrtp_2
*I *851:A I *D sky130_fd_sc_hd__xor2_2
*I *957:X O *D sky130_fd_sc_hd__dlygate4sd3_1
*CAP
1 *934:D 0.000366425
2 *851:A 0
3 *957:X 0.000284999
4 *373:8 0.000651424
5 gpio_out[7] *934:D 0
6 *848:B *934:D 0
7 *849:B *373:8 8.43862e-05
8 *851:B *373:8 4.70393e-05
9 *910:CLK *934:D 0
10 *910:D *934:D 0
11 *934:RESET_B *934:D 0
12 *937:A *373:8 0
13 *957:A *373:8 4.82919e-05
14 *220:12 *934:D 0
15 *255:80 *934:D 0
*RES
1 *957:X *373:8 6.205 
2 *373:8 *851:A 1.6 
3 *373:8 *934:D 11.195 
*END

*D_NET *374 0.00501745
*CONN
*I *894:A I *D sky130_fd_sc_hd__xor2_2
*I *958:X O *D sky130_fd_sc_hd__dlygate4sd3_1
*CAP
1 *894:A 0.00128158
2 *958:X 0.00128158
3 axi_rdata[28] *894:A 2.38557e-05
4 axi_rdata[29] *894:A 0
5 axi_rdata[31] *894:A 0.00058839
6 gpio_out[1] *894:A 0
7 *815:B *894:A 5.12906e-05
8 *885:B1 *894:A 2.10433e-05
9 *889:C *894:A 0.000248444
10 *891:B *894:A 0.000102207
11 *893:B *894:A 7.88936e-05
12 *894:B *894:A 8.8266e-05
13 *927:D *894:A 0.000117825
14 *949:A *894:A 5.05521e-05
15 *963:A *894:A 0.000227371
16 *1028:A *894:A 0.000761437
17 *1045:A *894:A 8.96766e-05
18 *244:14 *894:A 5.05066e-06
19 *365:10 *894:A 0
20 *365:30 *894:A 0
21 *365:44 *894:A 0
22 *365:54 *894:A 0
*RES
1 *958:X *894:A 25.826 
*END

*D_NET *375 0.00122469
*CONN
*I *786:A I *D sky130_fd_sc_hd__inv_2
*I *959:X O *D sky130_fd_sc_hd__dlygate4sd3_1
*CAP
1 *786:A 0.000400696
2 *959:X 0.000400696
3 *887:A *786:A 0.000114551
4 *896:RESET_B *786:A 6.37837e-05
5 *897:RESET_B *786:A 2.65337e-05
6 *252:56 *786:A 2.49909e-05
7 *263:51 *786:A 5.14194e-05
8 *315:52 *786:A 0.000142016
*RES
1 *959:X *786:A 14.325 
*END

*D_NET *376 0.00101158
*CONN
*I *928:D I *D sky130_fd_sc_hd__dfrtp_2
*I *960:X O *D sky130_fd_sc_hd__dlygate4sd3_1
*CAP
1 *928:D 0.000225088
2 *960:X 0.000225088
3 *960:A *928:D 0.000259306
4 *1038:A *928:D 0.000257945
5 *249:137 *928:D 4.41506e-05
*RES
1 *960:X *928:D 12.195 
*END

*D_NET *377 0.000850789
*CONN
*I *932:D I *D sky130_fd_sc_hd__dfrtp_2
*I *961:X O *D sky130_fd_sc_hd__dlygate4sd3_1
*CAP
1 *932:D 0.000304168
2 *961:X 0.000304168
3 *248:112 *932:D 0.000242453
*RES
1 *961:X *932:D 8.135 
*END

*D_NET *378 0.00327538
*CONN
*I *893:A I *D sky130_fd_sc_hd__xor2_2
*I *962:X O *D sky130_fd_sc_hd__dlygate4sd3_1
*CAP
1 *893:A 0.000835595
2 *962:X 0.000835595
3 axi_rdata[29] *893:A 0
4 *817:B *893:A 2.52555e-05
5 *818:A *893:A 0
6 *820:A *893:A 0
7 *888:B *893:A 0
8 *895:D *893:A 0.000156386
9 *938:A *893:A 6.06593e-05
10 *983:A *893:A 0.00013377
11 *1025:A *893:A 0.00113151
12 *244:14 *893:A 9.66021e-05
*RES
1 *962:X *893:A 26.385 
*END

*D_NET *379 0.00295995
*CONN
*I *892:A I *D sky130_fd_sc_hd__xor2_2
*I *963:X O *D sky130_fd_sc_hd__dlygate4sd3_1
*CAP
1 *892:A 0.000518406
2 *963:X 0.000518406
3 *887:B *892:A 1.79165e-05
4 *890:B1_N *892:A 0.000113927
5 *898:D *892:A 0.0002821
6 *926:D *892:A 0.000300493
7 *958:A *892:A 0.000263979
8 *243:12 *892:A 0.00030615
9 *249:10 *892:A 0.000177835
10 *249:49 *892:A 0.000133329
11 *249:60 *892:A 0.000174204
12 *249:95 *892:A 0.000153205
*RES
1 *963:X *892:A 20.085 
*END

*D_NET *380 0.000839012
*CONN
*I *865:B1 I *D sky130_fd_sc_hd__a21oi_2
*I *964:X O *D sky130_fd_sc_hd__dlygate4sd3_1
*CAP
1 *865:B1 0.000363326
2 *964:X 0.000363326
3 *808:A *865:B1 2.66586e-05
4 *871:A *865:B1 0
5 *964:A *865:B1 3.74161e-05
6 *264:12 *865:B1 0
7 *265:6 *865:B1 4.82863e-05
*RES
1 *964:X *865:B1 12.84 
*END

*D_NET *381 0.00125742
*CONN
*I *828:A I *D sky130_fd_sc_hd__xnor2_2
*I *965:X O *D sky130_fd_sc_hd__dlygate4sd3_1
*CAP
1 *828:A 0.000403794
2 *965:X 0.000403794
3 *828:B *828:A 5.53249e-06
4 *834:A1 *828:A 2.01565e-05
5 *834:A2 *828:A 7.15312e-05
6 *834:B1 *828:A 0.00016031
7 *903:D *828:A 8.52845e-05
8 *208:8 *828:A 0.000107022
9 *278:44 *828:A 0
*RES
1 *965:X *828:A 15 
*END

*D_NET *382 0.0023082
*CONN
*I *822:A I *D sky130_fd_sc_hd__xnor2_2
*I *966:X O *D sky130_fd_sc_hd__dlygate4sd3_1
*CAP
1 *822:A 0.000436966
2 *966:X 0.000436966
3 *887:B *822:A 0.000650617
4 *926:CLK *822:A 8.247e-05
5 *960:A *822:A 4.89081e-05
6 *1029:A *822:A 0.000652277
*RES
1 *966:X *822:A 18.78 
*END
