*SPEF "ieee 1481-1999"
*DESIGN "riscv_soc_top"
*DATE "05:44:18 Wednesday September 09, 2026"
*VENDOR "The OpenROAD Project"
*PROGRAM "OpenROAD"
*VERSION "dcf36133a369abc8f3c5e5738cd4d82e4903c0e0"
*DESIGN_FLOW "NAME_SCOPE LOCAL" "PIN_CAP NONE"
*DIVIDER /
*DELIMITER :
*BUS_DELIMITER []
*T_UNIT 1 NS
*C_UNIT 1 PF
*R_UNIT 1 OHM
*L_UNIT 1 HENRY

*NAME_MAP
*3 clk
*4 led[0]
*5 led[1]
*6 led[2]
*7 led[3]
*8 led[4]
*9 net
*10 net85
*11 net86
*12 rst_n
*13 uart_rx
*14 uart_tx
*15 _0000_
*16 _0001_
*17 _0002_
*18 _0003_
*19 _0004_
*20 _0005_
*21 _0006_
*22 _0007_
*23 _0008_
*24 _0009_
*25 _0010_
*26 _0011_
*27 _0012_
*28 _0013_
*29 _0014_
*30 _0015_
*31 _0016_
*32 _0017_
*33 _0018_
*34 _0019_
*35 _0020_
*36 _0021_
*37 _0022_
*38 _0023_
*39 _0024_
*40 _0025_
*41 _0026_
*42 _0027_
*43 _0028_
*44 _0029_
*45 _0030_
*46 _0031_
*47 _0032_
*48 _0033_
*49 _0034_
*50 _0035_
*51 _0036_
*52 _0037_
*53 _0038_
*54 _0039_
*55 _0040_
*56 _0041_
*57 _0042_
*58 _0043_
*59 _0044_
*60 _0045_
*61 _0046_
*62 _0047_
*63 _0048_
*64 _0049_
*65 _0050_
*66 _0051_
*67 _0052_
*68 _0053_
*69 _0054_
*70 _0055_
*71 _0056_
*72 _0057_
*73 _0058_
*74 _0059_
*75 _0060_
*76 _0061_
*77 _0062_
*78 _0063_
*79 _0064_
*80 _0065_
*81 _0066_
*82 _0067_
*83 _0068_
*84 _0069_
*85 _0070_
*86 _0071_
*87 _0072_
*88 _0073_
*89 _0074_
*90 _0075_
*91 _0076_
*92 _0077_
*93 _0078_
*94 _0079_
*95 _0080_
*96 _0081_
*97 _0082_
*98 _0083_
*99 _0084_
*100 _0085_
*101 _0086_
*102 _0087_
*103 _0088_
*104 _0089_
*105 _0090_
*106 _0091_
*107 _0092_
*108 _0093_
*109 _0094_
*110 _0095_
*111 _0096_
*112 _0097_
*113 _0098_
*114 _0099_
*115 _0100_
*116 _0101_
*117 _0102_
*118 _0103_
*119 _0104_
*120 _0105_
*121 _0106_
*122 _0107_
*123 _0108_
*124 _0109_
*125 _0110_
*126 _0111_
*127 _0112_
*128 _0113_
*129 _0114_
*130 _0115_
*131 _0116_
*132 _0117_
*133 _0118_
*134 _0119_
*135 _0120_
*136 _0121_
*137 _0122_
*138 _0123_
*139 _0124_
*140 _0125_
*141 _0126_
*142 _0127_
*143 _0128_
*144 _0129_
*145 _0130_
*146 _0131_
*147 _0132_
*148 _0133_
*149 _0134_
*150 _0135_
*151 _0136_
*152 _0137_
*153 _0138_
*154 _0139_
*155 _0140_
*156 _0141_
*157 _0142_
*158 _0143_
*159 _0144_
*160 _0145_
*161 _0146_
*162 _0147_
*163 _0148_
*164 _0149_
*165 _0150_
*166 _0151_
*167 _0152_
*168 _0153_
*169 _0154_
*170 _0155_
*171 _0156_
*172 _0157_
*173 _0158_
*174 _0159_
*175 _0160_
*176 _0161_
*177 _0162_
*178 _0163_
*179 _0164_
*180 _0165_
*181 _0166_
*182 _0167_
*183 _0168_
*184 _0169_
*185 _0170_
*186 _0171_
*187 _0172_
*188 _0173_
*189 _0174_
*190 _0175_
*191 _0176_
*192 _0177_
*193 _0178_
*194 _0179_
*195 _0180_
*196 _0181_
*197 _0182_
*198 _0183_
*199 _0184_
*200 _0185_
*201 _0186_
*202 _0187_
*203 _0188_
*204 _0189_
*205 _0190_
*206 _0191_
*207 _0192_
*208 _0193_
*209 _0194_
*210 _0195_
*211 _0196_
*212 _0197_
*213 _0198_
*214 _0199_
*215 _0200_
*216 _0201_
*217 _0202_
*218 _0203_
*219 _0204_
*220 _0205_
*221 _0206_
*222 _0207_
*223 _0208_
*224 _0209_
*225 _0210_
*226 _0211_
*227 _0212_
*228 _0213_
*229 _0214_
*230 _0215_
*231 _0216_
*232 _0217_
*233 _0218_
*234 _0219_
*235 _0220_
*236 _0221_
*237 _0222_
*238 _0223_
*239 _0224_
*240 _0225_
*241 _0226_
*242 _0227_
*243 _0228_
*244 _0229_
*245 _0230_
*246 _0231_
*247 _0232_
*248 _0233_
*249 _0234_
*250 _0235_
*251 _0236_
*252 _0237_
*253 _0238_
*254 _0239_
*255 _0240_
*256 _0241_
*257 _0242_
*258 _0243_
*259 _0244_
*260 _0245_
*261 _0246_
*262 _0247_
*263 _0248_
*264 _0249_
*265 _0250_
*266 _0251_
*267 _0252_
*268 _0253_
*269 _0254_
*270 _0255_
*271 _0256_
*272 _0257_
*273 _0258_
*274 _0259_
*275 _0260_
*276 _0261_
*277 _0262_
*278 _0263_
*279 _0264_
*280 _0265_
*281 _0266_
*282 _0267_
*283 _0268_
*284 _0269_
*285 _0270_
*286 _0271_
*287 _0272_
*288 _0273_
*289 _0274_
*290 _0275_
*291 _0276_
*292 _0277_
*293 _0278_
*294 _0279_
*295 _0280_
*296 _0281_
*297 _0282_
*298 _0283_
*299 _0284_
*300 _0285_
*301 _0286_
*302 _0287_
*303 _0288_
*304 _0289_
*305 _0290_
*306 _0291_
*307 _0292_
*308 _0293_
*309 _0294_
*310 _0295_
*311 _0296_
*312 _0297_
*313 _0298_
*314 _0299_
*315 _0300_
*316 _0301_
*317 _0302_
*318 _0303_
*319 _0304_
*320 _0305_
*321 _0306_
*322 _0307_
*323 _0308_
*324 _0309_
*325 _0310_
*326 _0311_
*327 _0312_
*328 _0313_
*329 _0314_
*330 _0315_
*331 _0316_
*332 _0317_
*333 _0318_
*334 _0319_
*335 _0320_
*336 _0321_
*337 _0322_
*338 _0323_
*339 _0324_
*340 _0325_
*341 _0326_
*342 _0327_
*343 _0328_
*344 _0329_
*345 _0330_
*346 _0331_
*347 _0332_
*348 _0333_
*349 _0334_
*350 _0335_
*351 _0336_
*352 _0337_
*353 _0338_
*354 _0339_
*355 _0340_
*356 _0341_
*357 _0342_
*358 _0343_
*359 _0344_
*360 _0345_
*361 _0346_
*362 _0347_
*363 _0348_
*364 _0349_
*365 _0350_
*366 _0351_
*367 _0352_
*368 _0353_
*369 _0354_
*370 _0355_
*371 _0356_
*372 _0357_
*373 _0358_
*374 _0359_
*375 _0360_
*376 _0361_
*377 _0362_
*378 _0363_
*379 _0364_
*380 _0365_
*381 _0366_
*382 _0367_
*383 _0368_
*384 _0369_
*385 _0370_
*386 _0371_
*387 _0372_
*388 _0373_
*389 _0374_
*390 _0375_
*391 _0376_
*392 _0377_
*393 _0378_
*394 _0379_
*395 _0380_
*396 _0381_
*397 _0382_
*398 _0383_
*399 _0384_
*400 _0385_
*401 _0386_
*402 _0387_
*403 _0388_
*404 _0389_
*405 _0390_
*406 _0391_
*407 _0392_
*408 _0393_
*409 _0394_
*410 _0395_
*411 _0396_
*412 _0397_
*413 _0398_
*414 _0399_
*415 _0400_
*416 _0401_
*417 _0402_
*418 _0403_
*419 _0404_
*420 _0405_
*421 _0406_
*422 _0407_
*423 _0408_
*424 _0409_
*425 _0410_
*426 _0411_
*427 _0412_
*428 _0413_
*429 _0414_
*430 _0415_
*431 _0416_
*432 _0417_
*433 _0418_
*434 _0419_
*435 _0420_
*436 _0421_
*437 _0422_
*438 _0423_
*439 _0424_
*440 _0425_
*441 _0426_
*442 _0427_
*443 _0428_
*444 _0429_
*445 _0430_
*446 _0431_
*447 _0432_
*448 _0433_
*449 clknet_0_clk
*450 clknet_4_0_0_clk
*451 clknet_4_10_0_clk
*452 clknet_4_11_0_clk
*453 clknet_4_12_0_clk
*454 clknet_4_13_0_clk
*455 clknet_4_14_0_clk
*456 clknet_4_15_0_clk
*457 clknet_4_1_0_clk
*458 clknet_4_2_0_clk
*459 clknet_4_3_0_clk
*460 clknet_4_4_0_clk
*461 clknet_4_5_0_clk
*462 clknet_4_6_0_clk
*463 clknet_4_7_0_clk
*464 clknet_4_8_0_clk
*465 clknet_4_9_0_clk
*466 clknet_5_0__leaf_clk
*467 clknet_5_10__leaf_clk
*468 clknet_5_11__leaf_clk
*469 clknet_5_12__leaf_clk
*470 clknet_5_13__leaf_clk
*471 clknet_5_14__leaf_clk
*472 clknet_5_15__leaf_clk
*473 clknet_5_16__leaf_clk
*474 clknet_5_17__leaf_clk
*475 clknet_5_18__leaf_clk
*476 clknet_5_19__leaf_clk
*477 clknet_5_1__leaf_clk
*478 clknet_5_20__leaf_clk
*479 clknet_5_21__leaf_clk
*480 clknet_5_22__leaf_clk
*481 clknet_5_23__leaf_clk
*482 clknet_5_24__leaf_clk
*483 clknet_5_25__leaf_clk
*484 clknet_5_26__leaf_clk
*485 clknet_5_27__leaf_clk
*486 clknet_5_28__leaf_clk
*487 clknet_5_29__leaf_clk
*488 clknet_5_2__leaf_clk
*489 clknet_5_30__leaf_clk
*490 clknet_5_31__leaf_clk
*491 clknet_5_3__leaf_clk
*492 clknet_5_4__leaf_clk
*493 clknet_5_5__leaf_clk
*494 clknet_5_6__leaf_clk
*495 clknet_5_7__leaf_clk
*496 clknet_5_8__leaf_clk
*497 clknet_5_9__leaf_clk
*498 coh_fill_notify\[0\]
*499 coh_fill_notify\[1\]
*500 coh_inv_ack\[0\]
*501 coh_inv_ack\[1\]
*502 coh_status\[0\]
*503 coh_status\[10\]
*504 coh_status\[11\]
*505 coh_status\[12\]
*506 coh_status\[13\]
*507 coh_status\[14\]
*508 coh_status\[15\]
*509 coh_status\[1\]
*510 coh_status\[2\]
*511 coh_status\[3\]
*512 coh_status\[4\]
*513 coh_status\[5\]
*514 coh_status\[6\]
*515 coh_status\[7\]
*516 coh_status\[8\]
*517 coh_status\[9\]
*518 coh_write_notify\[0\]
*519 coh_write_notify\[1\]
*520 m_arvalid\[0\]
*521 m_arvalid\[1\]
*522 m_awvalid\[0\]
*523 m_awvalid\[1\]
*524 m_bready\[0\]
*525 m_bready\[1\]
*526 m_rready\[0\]
*527 m_rready\[1\]
*528 m_wvalid\[0\]
*529 m_wvalid\[1\]
*530 net1
*531 net10
*532 net100
*533 net101
*534 net102
*535 net103
*536 net104
*537 net105
*538 net106
*539 net107
*540 net108
*541 net109
*542 net11
*543 net110
*544 net111
*545 net112
*546 net113
*547 net114
*548 net115
*549 net116
*550 net117
*551 net118
*552 net119
*553 net12
*554 net120
*555 net121
*556 net122
*557 net123
*558 net124
*559 net125
*560 net126
*561 net127
*562 net128
*563 net129
*564 net13
*565 net130
*566 net131
*567 net132
*568 net133
*569 net134
*570 net135
*571 net136
*572 net137
*573 net138
*574 net139
*575 net14
*576 net140
*577 net141
*578 net142
*579 net143
*580 net144
*581 net145
*582 net146
*583 net147
*584 net148
*585 net149
*586 net15
*587 net150
*588 net151
*589 net152
*590 net153
*591 net154
*592 net155
*593 net156
*594 net157
*595 net158
*596 net159
*597 net16
*598 net160
*599 net161
*600 net162
*601 net163
*602 net164
*603 net165
*604 net166
*605 net167
*606 net168
*607 net169
*608 net17
*609 net170
*610 net171
*611 net172
*612 net173
*613 net174
*614 net175
*615 net176
*616 net177
*617 net178
*618 net179
*619 net18
*620 net180
*621 net181
*622 net182
*623 net183
*624 net184
*625 net185
*626 net186
*627 net187
*628 net188
*629 net189
*630 net19
*631 net190
*632 net191
*633 net192
*634 net193
*635 net194
*636 net195
*637 net196
*638 net197
*639 net198
*640 net199
*641 net2
*642 net20
*643 net200
*644 net201
*645 net202
*646 net203
*647 net21
*648 net22
*649 net23
*650 net24
*651 net25
*652 net26
*653 net27
*654 net28
*655 net29
*656 net3
*657 net30
*658 net31
*659 net32
*660 net33
*661 net34
*662 net35
*663 net36
*664 net37
*665 net38
*666 net39
*667 net4
*668 net40
*669 net41
*670 net42
*671 net43
*672 net44
*673 net45
*674 net46
*675 net47
*676 net48
*677 net49
*678 net5
*679 net50
*680 net51
*681 net52
*682 net53
*683 net54
*684 net55
*685 net56
*686 net57
*687 net58
*688 net59
*689 net6
*690 net60
*691 net61
*692 net62
*693 net63
*694 net64
*695 net65
*696 net66
*697 net67
*698 net68
*699 net69
*700 net7
*701 net70
*702 net71
*703 net72
*704 net73
*705 net74
*706 net75
*707 net76
*708 net77
*709 net78
*710 net79
*711 net8
*712 net80
*713 net81
*714 net82
*715 net83
*716 net84
*717 net87
*718 net88
*719 net89
*720 net9
*721 net90
*722 net91
*723 net92
*724 net93
*725 net94
*726 net95
*727 net96
*728 net97
*729 net98
*730 net99
*731 per_core\[0\]\.u_core\.rst_n
*732 per_core\[0\]\.u_dcache\.line_valid_reg\[0\]\[0\]
*733 per_core\[0\]\.u_dcache\.line_valid_reg\[1\]\[0\]
*734 per_core\[0\]\.u_dcache\.line_valid_reg\[2\]\[0\]
*735 per_core\[0\]\.u_dcache\.line_valid_reg\[3\]\[0\]
*736 per_core\[1\]\.u_dcache\.line_valid_reg\[0\]\[0\]
*737 per_core\[1\]\.u_dcache\.line_valid_reg\[1\]\[0\]
*738 per_core\[1\]\.u_dcache\.line_valid_reg\[2\]\[0\]
*739 per_core\[1\]\.u_dcache\.line_valid_reg\[3\]\[0\]
*740 rst_sync_n_1
*741 s_bvalid
*742 s_rvalid
*743 u_arb\.pref_d
*744 u_arb\.pref_q
*745 u_arb\.state_q\[0\]
*746 u_arb\.state_q\[2\]
*747 u_coh\.coh_state\[0\]
*748 u_coh\.coh_state\[1\]
*749 u_coh\.coh_state\[2\]
*750 u_coh\.coh_state_next\[0\]
*751 u_coh\.coh_state_next\[1\]
*752 u_coh\.last_served
*753 u_coh\.proc_core_d
*754 u_coh\.proc_core_q
*755 u_coh\.proc_idx_d\[0\]
*756 u_coh\.proc_idx_d\[1\]
*757 u_coh\.proc_idx_q\[0\]
*758 u_coh\.proc_idx_q\[1\]
*759 u_gpio\.led0_active
*760 u_gpio\.led0_cnt_d\[0\]
*761 u_gpio\.led0_cnt_d\[10\]
*762 u_gpio\.led0_cnt_d\[11\]
*763 u_gpio\.led0_cnt_d\[12\]
*764 u_gpio\.led0_cnt_d\[13\]
*765 u_gpio\.led0_cnt_d\[14\]
*766 u_gpio\.led0_cnt_d\[15\]
*767 u_gpio\.led0_cnt_d\[16\]
*768 u_gpio\.led0_cnt_d\[17\]
*769 u_gpio\.led0_cnt_d\[18\]
*770 u_gpio\.led0_cnt_d\[19\]
*771 u_gpio\.led0_cnt_d\[1\]
*772 u_gpio\.led0_cnt_d\[20\]
*773 u_gpio\.led0_cnt_d\[21\]
*774 u_gpio\.led0_cnt_d\[2\]
*775 u_gpio\.led0_cnt_d\[3\]
*776 u_gpio\.led0_cnt_d\[4\]
*777 u_gpio\.led0_cnt_d\[5\]
*778 u_gpio\.led0_cnt_d\[6\]
*779 u_gpio\.led0_cnt_d\[7\]
*780 u_gpio\.led0_cnt_d\[8\]
*781 u_gpio\.led0_cnt_d\[9\]
*782 u_gpio\.led0_cnt_q\[0\]
*783 u_gpio\.led0_cnt_q\[10\]
*784 u_gpio\.led0_cnt_q\[11\]
*785 u_gpio\.led0_cnt_q\[12\]
*786 u_gpio\.led0_cnt_q\[13\]
*787 u_gpio\.led0_cnt_q\[14\]
*788 u_gpio\.led0_cnt_q\[15\]
*789 u_gpio\.led0_cnt_q\[16\]
*790 u_gpio\.led0_cnt_q\[17\]
*791 u_gpio\.led0_cnt_q\[18\]
*792 u_gpio\.led0_cnt_q\[19\]
*793 u_gpio\.led0_cnt_q\[1\]
*794 u_gpio\.led0_cnt_q\[20\]
*795 u_gpio\.led0_cnt_q\[21\]
*796 u_gpio\.led0_cnt_q\[2\]
*797 u_gpio\.led0_cnt_q\[3\]
*798 u_gpio\.led0_cnt_q\[4\]
*799 u_gpio\.led0_cnt_q\[5\]
*800 u_gpio\.led0_cnt_q\[6\]
*801 u_gpio\.led0_cnt_q\[7\]
*802 u_gpio\.led0_cnt_q\[8\]
*803 u_gpio\.led0_cnt_q\[9\]
*804 u_gpio\.led1_active
*805 u_gpio\.led1_cnt_d\[0\]
*806 u_gpio\.led1_cnt_d\[10\]
*807 u_gpio\.led1_cnt_d\[11\]
*808 u_gpio\.led1_cnt_d\[12\]
*809 u_gpio\.led1_cnt_d\[13\]
*810 u_gpio\.led1_cnt_d\[14\]
*811 u_gpio\.led1_cnt_d\[15\]
*812 u_gpio\.led1_cnt_d\[16\]
*813 u_gpio\.led1_cnt_d\[17\]
*814 u_gpio\.led1_cnt_d\[18\]
*815 u_gpio\.led1_cnt_d\[19\]
*816 u_gpio\.led1_cnt_d\[1\]
*817 u_gpio\.led1_cnt_d\[20\]
*818 u_gpio\.led1_cnt_d\[21\]
*819 u_gpio\.led1_cnt_d\[2\]
*820 u_gpio\.led1_cnt_d\[3\]
*821 u_gpio\.led1_cnt_d\[4\]
*822 u_gpio\.led1_cnt_d\[5\]
*823 u_gpio\.led1_cnt_d\[6\]
*824 u_gpio\.led1_cnt_d\[7\]
*825 u_gpio\.led1_cnt_d\[8\]
*826 u_gpio\.led1_cnt_d\[9\]
*827 u_gpio\.led1_cnt_q\[0\]
*828 u_gpio\.led1_cnt_q\[10\]
*829 u_gpio\.led1_cnt_q\[11\]
*830 u_gpio\.led1_cnt_q\[12\]
*831 u_gpio\.led1_cnt_q\[13\]
*832 u_gpio\.led1_cnt_q\[14\]
*833 u_gpio\.led1_cnt_q\[15\]
*834 u_gpio\.led1_cnt_q\[16\]
*835 u_gpio\.led1_cnt_q\[17\]
*836 u_gpio\.led1_cnt_q\[18\]
*837 u_gpio\.led1_cnt_q\[19\]
*838 u_gpio\.led1_cnt_q\[1\]
*839 u_gpio\.led1_cnt_q\[20\]
*840 u_gpio\.led1_cnt_q\[21\]
*841 u_gpio\.led1_cnt_q\[2\]
*842 u_gpio\.led1_cnt_q\[3\]
*843 u_gpio\.led1_cnt_q\[4\]
*844 u_gpio\.led1_cnt_q\[5\]
*845 u_gpio\.led1_cnt_q\[6\]
*846 u_gpio\.led1_cnt_q\[7\]
*847 u_gpio\.led1_cnt_q\[8\]
*848 u_gpio\.led1_cnt_q\[9\]
*849 u_gpio\.led2_active
*850 u_gpio\.led2_cnt_d\[0\]
*851 u_gpio\.led2_cnt_d\[10\]
*852 u_gpio\.led2_cnt_d\[11\]
*853 u_gpio\.led2_cnt_d\[12\]
*854 u_gpio\.led2_cnt_d\[13\]
*855 u_gpio\.led2_cnt_d\[14\]
*856 u_gpio\.led2_cnt_d\[15\]
*857 u_gpio\.led2_cnt_d\[16\]
*858 u_gpio\.led2_cnt_d\[17\]
*859 u_gpio\.led2_cnt_d\[18\]
*860 u_gpio\.led2_cnt_d\[19\]
*861 u_gpio\.led2_cnt_d\[1\]
*862 u_gpio\.led2_cnt_d\[20\]
*863 u_gpio\.led2_cnt_d\[21\]
*864 u_gpio\.led2_cnt_d\[2\]
*865 u_gpio\.led2_cnt_d\[3\]
*866 u_gpio\.led2_cnt_d\[4\]
*867 u_gpio\.led2_cnt_d\[5\]
*868 u_gpio\.led2_cnt_d\[6\]
*869 u_gpio\.led2_cnt_d\[7\]
*870 u_gpio\.led2_cnt_d\[8\]
*871 u_gpio\.led2_cnt_d\[9\]
*872 u_gpio\.led2_cnt_q\[0\]
*873 u_gpio\.led2_cnt_q\[10\]
*874 u_gpio\.led2_cnt_q\[11\]
*875 u_gpio\.led2_cnt_q\[12\]
*876 u_gpio\.led2_cnt_q\[13\]
*877 u_gpio\.led2_cnt_q\[14\]
*878 u_gpio\.led2_cnt_q\[15\]
*879 u_gpio\.led2_cnt_q\[16\]
*880 u_gpio\.led2_cnt_q\[17\]
*881 u_gpio\.led2_cnt_q\[18\]
*882 u_gpio\.led2_cnt_q\[19\]
*883 u_gpio\.led2_cnt_q\[1\]
*884 u_gpio\.led2_cnt_q\[20\]
*885 u_gpio\.led2_cnt_q\[21\]
*886 u_gpio\.led2_cnt_q\[2\]
*887 u_gpio\.led2_cnt_q\[3\]
*888 u_gpio\.led2_cnt_q\[4\]
*889 u_gpio\.led2_cnt_q\[5\]
*890 u_gpio\.led2_cnt_q\[6\]
*891 u_gpio\.led2_cnt_q\[7\]
*892 u_gpio\.led2_cnt_q\[8\]
*893 u_gpio\.led2_cnt_q\[9\]
*894 u_gpio\.led3_active
*895 u_gpio\.led3_cnt_d\[0\]
*896 u_gpio\.led3_cnt_d\[10\]
*897 u_gpio\.led3_cnt_d\[11\]
*898 u_gpio\.led3_cnt_d\[12\]
*899 u_gpio\.led3_cnt_d\[13\]
*900 u_gpio\.led3_cnt_d\[14\]
*901 u_gpio\.led3_cnt_d\[15\]
*902 u_gpio\.led3_cnt_d\[16\]
*903 u_gpio\.led3_cnt_d\[17\]
*904 u_gpio\.led3_cnt_d\[18\]
*905 u_gpio\.led3_cnt_d\[19\]
*906 u_gpio\.led3_cnt_d\[1\]
*907 u_gpio\.led3_cnt_d\[20\]
*908 u_gpio\.led3_cnt_d\[21\]
*909 u_gpio\.led3_cnt_d\[2\]
*910 u_gpio\.led3_cnt_d\[3\]
*911 u_gpio\.led3_cnt_d\[4\]
*912 u_gpio\.led3_cnt_d\[5\]
*913 u_gpio\.led3_cnt_d\[6\]
*914 u_gpio\.led3_cnt_d\[7\]
*915 u_gpio\.led3_cnt_d\[8\]
*916 u_gpio\.led3_cnt_d\[9\]
*917 u_gpio\.led3_cnt_q\[0\]
*918 u_gpio\.led3_cnt_q\[10\]
*919 u_gpio\.led3_cnt_q\[11\]
*920 u_gpio\.led3_cnt_q\[12\]
*921 u_gpio\.led3_cnt_q\[13\]
*922 u_gpio\.led3_cnt_q\[14\]
*923 u_gpio\.led3_cnt_q\[15\]
*924 u_gpio\.led3_cnt_q\[16\]
*925 u_gpio\.led3_cnt_q\[17\]
*926 u_gpio\.led3_cnt_q\[18\]
*927 u_gpio\.led3_cnt_q\[19\]
*928 u_gpio\.led3_cnt_q\[1\]
*929 u_gpio\.led3_cnt_q\[20\]
*930 u_gpio\.led3_cnt_q\[21\]
*931 u_gpio\.led3_cnt_q\[2\]
*932 u_gpio\.led3_cnt_q\[3\]
*933 u_gpio\.led3_cnt_q\[4\]
*934 u_gpio\.led3_cnt_q\[5\]
*935 u_gpio\.led3_cnt_q\[6\]
*936 u_gpio\.led3_cnt_q\[7\]
*937 u_gpio\.led3_cnt_q\[8\]
*938 u_gpio\.led3_cnt_q\[9\]
*939 u_gpio\.led4_active
*940 u_gpio\.led4_cnt_d\[0\]
*941 u_gpio\.led4_cnt_d\[10\]
*942 u_gpio\.led4_cnt_d\[11\]
*943 u_gpio\.led4_cnt_d\[12\]
*944 u_gpio\.led4_cnt_d\[13\]
*945 u_gpio\.led4_cnt_d\[14\]
*946 u_gpio\.led4_cnt_d\[15\]
*947 u_gpio\.led4_cnt_d\[16\]
*948 u_gpio\.led4_cnt_d\[17\]
*949 u_gpio\.led4_cnt_d\[18\]
*950 u_gpio\.led4_cnt_d\[19\]
*951 u_gpio\.led4_cnt_d\[1\]
*952 u_gpio\.led4_cnt_d\[20\]
*953 u_gpio\.led4_cnt_d\[21\]
*954 u_gpio\.led4_cnt_d\[2\]
*955 u_gpio\.led4_cnt_d\[3\]
*956 u_gpio\.led4_cnt_d\[4\]
*957 u_gpio\.led4_cnt_d\[5\]
*958 u_gpio\.led4_cnt_d\[6\]
*959 u_gpio\.led4_cnt_d\[7\]
*960 u_gpio\.led4_cnt_d\[8\]
*961 u_gpio\.led4_cnt_d\[9\]
*962 u_gpio\.led4_cnt_q\[0\]
*963 u_gpio\.led4_cnt_q\[10\]
*964 u_gpio\.led4_cnt_q\[11\]
*965 u_gpio\.led4_cnt_q\[12\]
*966 u_gpio\.led4_cnt_q\[13\]
*967 u_gpio\.led4_cnt_q\[14\]
*968 u_gpio\.led4_cnt_q\[15\]
*969 u_gpio\.led4_cnt_q\[16\]
*970 u_gpio\.led4_cnt_q\[17\]
*971 u_gpio\.led4_cnt_q\[18\]
*972 u_gpio\.led4_cnt_q\[19\]
*973 u_gpio\.led4_cnt_q\[1\]
*974 u_gpio\.led4_cnt_q\[20\]
*975 u_gpio\.led4_cnt_q\[21\]
*976 u_gpio\.led4_cnt_q\[2\]
*977 u_gpio\.led4_cnt_q\[3\]
*978 u_gpio\.led4_cnt_q\[4\]
*979 u_gpio\.led4_cnt_q\[5\]
*980 u_gpio\.led4_cnt_q\[6\]
*981 u_gpio\.led4_cnt_q\[7\]
*982 u_gpio\.led4_cnt_q\[8\]
*983 u_gpio\.led4_cnt_q\[9\]
*984 u_sram\.ar_ready_d
*985 u_sram\.aw_ready_d
*986 u_sram\.u_sram\.we
*987 u_sram\.w_ready_d
*988 u_uart\.tx_baud_cnt_d\[0\]
*989 u_uart\.tx_baud_cnt_d\[1\]
*990 u_uart\.tx_baud_cnt_d\[2\]
*991 u_uart\.tx_baud_cnt_d\[3\]
*992 u_uart\.tx_baud_cnt_d\[4\]
*993 u_uart\.tx_baud_cnt_d\[5\]
*994 u_uart\.tx_baud_cnt_d\[6\]
*995 u_uart\.tx_baud_cnt_d\[7\]
*996 u_uart\.tx_baud_cnt_d\[8\]
*997 u_uart\.tx_baud_cnt_d\[9\]
*998 u_uart\.tx_baud_cnt_q\[0\]
*999 u_uart\.tx_baud_cnt_q\[1\]
*1000 u_uart\.tx_baud_cnt_q\[2\]
*1001 u_uart\.tx_baud_cnt_q\[3\]
*1002 u_uart\.tx_baud_cnt_q\[4\]
*1003 u_uart\.tx_baud_cnt_q\[5\]
*1004 u_uart\.tx_baud_cnt_q\[6\]
*1005 u_uart\.tx_baud_cnt_q\[7\]
*1006 u_uart\.tx_baud_cnt_q\[8\]
*1007 u_uart\.tx_baud_cnt_q\[9\]
*1008 u_uart\.tx_bitcnt_q\[0\]
*1009 u_uart\.tx_bitcnt_q\[1\]
*1010 u_uart\.tx_bitcnt_q\[2\]
*1011 u_uart\.tx_bitcnt_q\[3\]
*1012 u_uart\.tx_shift_q\[0\]
*1013 u_uart\.tx_shift_q\[1\]
*1014 u_uart\.tx_shift_q\[2\]
*1015 u_uart\.tx_shift_q\[3\]
*1016 u_uart\.tx_shift_q\[4\]
*1017 u_uart\.tx_shift_q\[5\]
*1018 u_uart\.tx_shift_q\[6\]
*1019 u_uart\.tx_shift_q\[7\]
*1020 u_uart\.tx_shift_q\[8\]
*1021 u_uart\.tx_shift_q\[9\]
*1022 u_uart\.tx_state_q\[0\]
*1023 u_uart\.tx_state_q\[1\]
*1024 u_uart\.tx_state_q\[2\]
*1025 u_uart\.tx_state_q\[3\]
*1026 FILLER_0_105
*1027 FILLER_0_108
*1028 FILLER_0_111
*1029 FILLER_0_113
*1030 FILLER_0_116
*1031 FILLER_0_12
*1032 FILLER_0_127
*1033 FILLER_0_130
*1034 FILLER_0_133
*1035 FILLER_0_136
*1036 FILLER_0_139
*1037 FILLER_0_141
*1038 FILLER_0_144
*1039 FILLER_0_147
*1040 FILLER_0_15
*1041 FILLER_0_150
*1042 FILLER_0_153
*1043 FILLER_0_156
*1044 FILLER_0_159
*1045 FILLER_0_162
*1046 FILLER_0_165
*1047 FILLER_0_169
*1048 FILLER_0_172
*1049 FILLER_0_175
*1050 FILLER_0_178
*1051 FILLER_0_18
*1052 FILLER_0_181
*1053 FILLER_0_184
*1054 FILLER_0_187
*1055 FILLER_0_190
*1056 FILLER_0_193
*1057 FILLER_0_197
*1058 FILLER_0_200
*1059 FILLER_0_203
*1060 FILLER_0_21
*1061 FILLER_0_220
*1062 FILLER_0_223
*1063 FILLER_0_225
*1064 FILLER_0_228
*1065 FILLER_0_231
*1066 FILLER_0_234
*1067 FILLER_0_237
*1068 FILLER_0_24
*1069 FILLER_0_240
*1070 FILLER_0_243
*1071 FILLER_0_246
*1072 FILLER_0_249
*1073 FILLER_0_253
*1074 FILLER_0_256
*1075 FILLER_0_259
*1076 FILLER_0_262
*1077 FILLER_0_265
*1078 FILLER_0_268
*1079 FILLER_0_27
*1080 FILLER_0_271
*1081 FILLER_0_274
*1082 FILLER_0_277
*1083 FILLER_0_281
*1084 FILLER_0_284
*1085 FILLER_0_287
*1086 FILLER_0_29
*1087 FILLER_0_290
*1088 FILLER_0_299
*1089 FILLER_0_3
*1090 FILLER_0_302
*1091 FILLER_0_305
*1092 FILLER_0_309
*1093 FILLER_0_312
*1094 FILLER_0_315
*1095 FILLER_0_318
*1096 FILLER_0_32
*1097 FILLER_0_41
*1098 FILLER_0_44
*1099 FILLER_0_47
*1100 FILLER_0_50
*1101 FILLER_0_53
*1102 FILLER_0_6
*1103 FILLER_0_62
*1104 FILLER_0_65
*1105 FILLER_0_68
*1106 FILLER_0_71
*1107 FILLER_0_74
*1108 FILLER_0_77
*1109 FILLER_0_80
*1110 FILLER_0_83
*1111 FILLER_0_85
*1112 FILLER_0_88
*1113 FILLER_0_9
*1114 FILLER_0_91
*1115 FILLER_10_12
*1116 FILLER_10_139
*1117 FILLER_10_15
*1118 FILLER_10_161
*1119 FILLER_10_18
*1120 FILLER_10_191
*1121 FILLER_10_194
*1122 FILLER_10_238
*1123 FILLER_10_241
*1124 FILLER_10_244
*1125 FILLER_10_247
*1126 FILLER_10_250
*1127 FILLER_10_26
*1128 FILLER_10_282
*1129 FILLER_10_285
*1130 FILLER_10_29
*1131 FILLER_10_3
*1132 FILLER_10_316
*1133 FILLER_10_319
*1134 FILLER_10_32
*1135 FILLER_10_35
*1136 FILLER_10_38
*1137 FILLER_10_6
*1138 FILLER_10_83
*1139 FILLER_10_85
*1140 FILLER_10_88
*1141 FILLER_10_9
*1142 FILLER_11_111
*1143 FILLER_11_119
*1144 FILLER_11_12
*1145 FILLER_11_122
*1146 FILLER_11_125
*1147 FILLER_11_15
*1148 FILLER_11_162
*1149 FILLER_11_165
*1150 FILLER_11_169
*1151 FILLER_11_172
*1152 FILLER_11_18
*1153 FILLER_11_187
*1154 FILLER_11_190
*1155 FILLER_11_21
*1156 FILLER_11_237
*1157 FILLER_11_24
*1158 FILLER_11_240
*1159 FILLER_11_243
*1160 FILLER_11_27
*1161 FILLER_11_288
*1162 FILLER_11_291
*1163 FILLER_11_3
*1164 FILLER_11_314
*1165 FILLER_11_317
*1166 FILLER_11_32
*1167 FILLER_11_35
*1168 FILLER_11_38
*1169 FILLER_11_41
*1170 FILLER_11_44
*1171 FILLER_11_47
*1172 FILLER_11_6
*1173 FILLER_11_77
*1174 FILLER_11_80
*1175 FILLER_11_83
*1176 FILLER_11_9
*1177 FILLER_12_121
*1178 FILLER_12_124
*1179 FILLER_12_127
*1180 FILLER_12_130
*1181 FILLER_12_141
*1182 FILLER_12_144
*1183 FILLER_12_158
*1184 FILLER_12_161
*1185 FILLER_12_164
*1186 FILLER_12_167
*1187 FILLER_12_170
*1188 FILLER_12_173
*1189 FILLER_12_185
*1190 FILLER_12_195
*1191 FILLER_12_197
*1192 FILLER_12_200
*1193 FILLER_12_203
*1194 FILLER_12_206
*1195 FILLER_12_209
*1196 FILLER_12_233
*1197 FILLER_12_236
*1198 FILLER_12_239
*1199 FILLER_12_242
*1200 FILLER_12_245
*1201 FILLER_12_285
*1202 FILLER_12_29
*1203 FILLER_12_3
*1204 FILLER_12_306
*1205 FILLER_12_315
*1206 FILLER_12_318
*1207 FILLER_12_32
*1208 FILLER_12_35
*1209 FILLER_12_38
*1210 FILLER_12_41
*1211 FILLER_12_44
*1212 FILLER_12_47
*1213 FILLER_12_50
*1214 FILLER_12_56
*1215 FILLER_12_6
*1216 FILLER_12_77
*1217 FILLER_12_80
*1218 FILLER_12_83
*1219 FILLER_12_85
*1220 FILLER_13_113
*1221 FILLER_13_116
*1222 FILLER_13_119
*1223 FILLER_13_12
*1224 FILLER_13_122
*1225 FILLER_13_125
*1226 FILLER_13_128
*1227 FILLER_13_131
*1228 FILLER_13_134
*1229 FILLER_13_137
*1230 FILLER_13_152
*1231 FILLER_13_155
*1232 FILLER_13_158
*1233 FILLER_13_161
*1234 FILLER_13_164
*1235 FILLER_13_167
*1236 FILLER_13_169
*1237 FILLER_13_172
*1238 FILLER_13_19
*1239 FILLER_13_192
*1240 FILLER_13_195
*1241 FILLER_13_198
*1242 FILLER_13_201
*1243 FILLER_13_204
*1244 FILLER_13_207
*1245 FILLER_13_210
*1246 FILLER_13_213
*1247 FILLER_13_216
*1248 FILLER_13_225
*1249 FILLER_13_228
*1250 FILLER_13_231
*1251 FILLER_13_234
*1252 FILLER_13_237
*1253 FILLER_13_240
*1254 FILLER_13_243
*1255 FILLER_13_246
*1256 FILLER_13_249
*1257 FILLER_13_252
*1258 FILLER_13_255
*1259 FILLER_13_281
*1260 FILLER_13_284
*1261 FILLER_13_293
*1262 FILLER_13_296
*1263 FILLER_13_3
*1264 FILLER_13_30
*1265 FILLER_13_316
*1266 FILLER_13_319
*1267 FILLER_13_33
*1268 FILLER_13_36
*1269 FILLER_13_39
*1270 FILLER_13_42
*1271 FILLER_13_45
*1272 FILLER_13_48
*1273 FILLER_13_6
*1274 FILLER_13_73
*1275 FILLER_13_76
*1276 FILLER_13_79
*1277 FILLER_13_82
*1278 FILLER_13_85
*1279 FILLER_13_88
*1280 FILLER_13_9
*1281 FILLER_14_117
*1282 FILLER_14_120
*1283 FILLER_14_123
*1284 FILLER_14_126
*1285 FILLER_14_129
*1286 FILLER_14_132
*1287 FILLER_14_135
*1288 FILLER_14_138
*1289 FILLER_14_146
*1290 FILLER_14_149
*1291 FILLER_14_152
*1292 FILLER_14_155
*1293 FILLER_14_158
*1294 FILLER_14_179
*1295 FILLER_14_182
*1296 FILLER_14_191
*1297 FILLER_14_194
*1298 FILLER_14_197
*1299 FILLER_14_222
*1300 FILLER_14_225
*1301 FILLER_14_228
*1302 FILLER_14_231
*1303 FILLER_14_234
*1304 FILLER_14_237
*1305 FILLER_14_240
*1306 FILLER_14_243
*1307 FILLER_14_246
*1308 FILLER_14_274
*1309 FILLER_14_277
*1310 FILLER_14_280
*1311 FILLER_14_283
*1312 FILLER_14_286
*1313 FILLER_14_289
*1314 FILLER_14_292
*1315 FILLER_14_295
*1316 FILLER_14_298
*1317 FILLER_14_3
*1318 FILLER_14_301
*1319 FILLER_14_304
*1320 FILLER_14_307
*1321 FILLER_14_309
*1322 FILLER_14_312
*1323 FILLER_14_315
*1324 FILLER_14_318
*1325 FILLER_14_54
*1326 FILLER_14_6
*1327 FILLER_14_64
*1328 FILLER_14_67
*1329 FILLER_14_70
*1330 FILLER_14_73
*1331 FILLER_14_76
*1332 FILLER_14_79
*1333 FILLER_14_82
*1334 FILLER_14_85
*1335 FILLER_14_88
*1336 FILLER_14_91
*1337 FILLER_15_111
*1338 FILLER_15_113
*1339 FILLER_15_116
*1340 FILLER_15_119
*1341 FILLER_15_122
*1342 FILLER_15_125
*1343 FILLER_15_128
*1344 FILLER_15_131
*1345 FILLER_15_134
*1346 FILLER_15_156
*1347 FILLER_15_159
*1348 FILLER_15_162
*1349 FILLER_15_165
*1350 FILLER_15_208
*1351 FILLER_15_225
*1352 FILLER_15_228
*1353 FILLER_15_231
*1354 FILLER_15_234
*1355 FILLER_15_237
*1356 FILLER_15_240
*1357 FILLER_15_272
*1358 FILLER_15_275
*1359 FILLER_15_278
*1360 FILLER_15_281
*1361 FILLER_15_284
*1362 FILLER_15_287
*1363 FILLER_15_295
*1364 FILLER_15_3
*1365 FILLER_15_303
*1366 FILLER_15_306
*1367 FILLER_15_309
*1368 FILLER_15_312
*1369 FILLER_15_315
*1370 FILLER_15_318
*1371 FILLER_15_37
*1372 FILLER_15_40
*1373 FILLER_15_57
*1374 FILLER_15_74
*1375 FILLER_15_77
*1376 FILLER_15_80
*1377 FILLER_15_83
*1378 FILLER_15_86
*1379 FILLER_15_89
*1380 FILLER_16_117
*1381 FILLER_16_120
*1382 FILLER_16_123
*1383 FILLER_16_126
*1384 FILLER_16_129
*1385 FILLER_16_154
*1386 FILLER_16_157
*1387 FILLER_16_160
*1388 FILLER_16_163
*1389 FILLER_16_166
*1390 FILLER_16_190
*1391 FILLER_16_193
*1392 FILLER_16_235
*1393 FILLER_16_238
*1394 FILLER_16_266
*1395 FILLER_16_269
*1396 FILLER_16_272
*1397 FILLER_16_275
*1398 FILLER_16_278
*1399 FILLER_16_281
*1400 FILLER_16_3
*1401 FILLER_16_305
*1402 FILLER_16_309
*1403 FILLER_16_312
*1404 FILLER_16_315
*1405 FILLER_16_318
*1406 FILLER_16_44
*1407 FILLER_16_47
*1408 FILLER_16_6
*1409 FILLER_16_77
*1410 FILLER_16_80
*1411 FILLER_16_83
*1412 FILLER_16_85
*1413 FILLER_16_88
*1414 FILLER_17_124
*1415 FILLER_17_127
*1416 FILLER_17_130
*1417 FILLER_17_133
*1418 FILLER_17_164
*1419 FILLER_17_167
*1420 FILLER_17_169
*1421 FILLER_17_172
*1422 FILLER_17_225
*1423 FILLER_17_228
*1424 FILLER_17_231
*1425 FILLER_17_234
*1426 FILLER_17_237
*1427 FILLER_17_271
*1428 FILLER_17_274
*1429 FILLER_17_277
*1430 FILLER_17_281
*1431 FILLER_17_284
*1432 FILLER_17_3
*1433 FILLER_17_318
*1434 FILLER_17_32
*1435 FILLER_17_35
*1436 FILLER_17_38
*1437 FILLER_17_41
*1438 FILLER_17_6
*1439 FILLER_17_78
*1440 FILLER_17_81
*1441 FILLER_17_9
*1442 FILLER_18_106
*1443 FILLER_18_109
*1444 FILLER_18_112
*1445 FILLER_18_12
*1446 FILLER_18_121
*1447 FILLER_18_124
*1448 FILLER_18_141
*1449 FILLER_18_166
*1450 FILLER_18_177
*1451 FILLER_18_180
*1452 FILLER_18_232
*1453 FILLER_18_235
*1454 FILLER_18_238
*1455 FILLER_18_241
*1456 FILLER_18_250
*1457 FILLER_18_253
*1458 FILLER_18_272
*1459 FILLER_18_275
*1460 FILLER_18_278
*1461 FILLER_18_281
*1462 FILLER_18_29
*1463 FILLER_18_3
*1464 FILLER_18_319
*1465 FILLER_18_32
*1466 FILLER_18_35
*1467 FILLER_18_38
*1468 FILLER_18_41
*1469 FILLER_18_44
*1470 FILLER_18_47
*1471 FILLER_18_6
*1472 FILLER_18_70
*1473 FILLER_18_73
*1474 FILLER_18_76
*1475 FILLER_18_79
*1476 FILLER_18_82
*1477 FILLER_18_9
*1478 FILLER_19_113
*1479 FILLER_19_116
*1480 FILLER_19_12
*1481 FILLER_19_124
*1482 FILLER_19_127
*1483 FILLER_19_130
*1484 FILLER_19_133
*1485 FILLER_19_15
*1486 FILLER_19_156
*1487 FILLER_19_159
*1488 FILLER_19_169
*1489 FILLER_19_178
*1490 FILLER_19_181
*1491 FILLER_19_184
*1492 FILLER_19_207
*1493 FILLER_19_210
*1494 FILLER_19_213
*1495 FILLER_19_223
*1496 FILLER_19_225
*1497 FILLER_19_228
*1498 FILLER_19_231
*1499 FILLER_19_234
*1500 FILLER_19_237
*1501 FILLER_19_240
*1502 FILLER_19_263
*1503 FILLER_19_266
*1504 FILLER_19_269
*1505 FILLER_19_272
*1506 FILLER_19_275
*1507 FILLER_19_278
*1508 FILLER_19_28
*1509 FILLER_19_281
*1510 FILLER_19_284
*1511 FILLER_19_287
*1512 FILLER_19_290
*1513 FILLER_19_3
*1514 FILLER_19_31
*1515 FILLER_19_39
*1516 FILLER_19_42
*1517 FILLER_19_45
*1518 FILLER_19_48
*1519 FILLER_19_6
*1520 FILLER_19_76
*1521 FILLER_19_79
*1522 FILLER_19_82
*1523 FILLER_19_85
*1524 FILLER_19_9
*1525 FILLER_1_110
*1526 FILLER_1_113
*1527 FILLER_1_116
*1528 FILLER_1_119
*1529 FILLER_1_12
*1530 FILLER_1_122
*1531 FILLER_1_125
*1532 FILLER_1_128
*1533 FILLER_1_131
*1534 FILLER_1_15
*1535 FILLER_1_155
*1536 FILLER_1_158
*1537 FILLER_1_161
*1538 FILLER_1_164
*1539 FILLER_1_167
*1540 FILLER_1_169
*1541 FILLER_1_172
*1542 FILLER_1_18
*1543 FILLER_1_187
*1544 FILLER_1_190
*1545 FILLER_1_193
*1546 FILLER_1_196
*1547 FILLER_1_202
*1548 FILLER_1_21
*1549 FILLER_1_230
*1550 FILLER_1_233
*1551 FILLER_1_236
*1552 FILLER_1_239
*1553 FILLER_1_24
*1554 FILLER_1_242
*1555 FILLER_1_266
*1556 FILLER_1_269
*1557 FILLER_1_27
*1558 FILLER_1_272
*1559 FILLER_1_275
*1560 FILLER_1_278
*1561 FILLER_1_281
*1562 FILLER_1_284
*1563 FILLER_1_296
*1564 FILLER_1_299
*1565 FILLER_1_3
*1566 FILLER_1_30
*1567 FILLER_1_302
*1568 FILLER_1_305
*1569 FILLER_1_308
*1570 FILLER_1_311
*1571 FILLER_1_314
*1572 FILLER_1_317
*1573 FILLER_1_33
*1574 FILLER_1_36
*1575 FILLER_1_39
*1576 FILLER_1_42
*1577 FILLER_1_45
*1578 FILLER_1_48
*1579 FILLER_1_6
*1580 FILLER_1_67
*1581 FILLER_1_70
*1582 FILLER_1_73
*1583 FILLER_1_76
*1584 FILLER_1_79
*1585 FILLER_1_82
*1586 FILLER_1_85
*1587 FILLER_1_88
*1588 FILLER_1_9
*1589 FILLER_20_118
*1590 FILLER_20_12
*1591 FILLER_20_121
*1592 FILLER_20_124
*1593 FILLER_20_127
*1594 FILLER_20_15
*1595 FILLER_20_161
*1596 FILLER_20_164
*1597 FILLER_20_188
*1598 FILLER_20_191
*1599 FILLER_20_194
*1600 FILLER_20_197
*1601 FILLER_20_200
*1602 FILLER_20_203
*1603 FILLER_20_206
*1604 FILLER_20_209
*1605 FILLER_20_218
*1606 FILLER_20_22
*1607 FILLER_20_227
*1608 FILLER_20_230
*1609 FILLER_20_233
*1610 FILLER_20_236
*1611 FILLER_20_251
*1612 FILLER_20_253
*1613 FILLER_20_266
*1614 FILLER_20_269
*1615 FILLER_20_272
*1616 FILLER_20_279
*1617 FILLER_20_282
*1618 FILLER_20_285
*1619 FILLER_20_3
*1620 FILLER_20_309
*1621 FILLER_20_312
*1622 FILLER_20_315
*1623 FILLER_20_318
*1624 FILLER_20_36
*1625 FILLER_20_44
*1626 FILLER_20_47
*1627 FILLER_20_50
*1628 FILLER_20_6
*1629 FILLER_20_67
*1630 FILLER_20_70
*1631 FILLER_20_73
*1632 FILLER_20_76
*1633 FILLER_20_85
*1634 FILLER_20_9
*1635 FILLER_20_94
*1636 FILLER_20_97
*1637 FILLER_21_104
*1638 FILLER_21_107
*1639 FILLER_21_110
*1640 FILLER_21_113
*1641 FILLER_21_116
*1642 FILLER_21_119
*1643 FILLER_21_12
*1644 FILLER_21_132
*1645 FILLER_21_139
*1646 FILLER_21_165
*1647 FILLER_21_184
*1648 FILLER_21_187
*1649 FILLER_21_190
*1650 FILLER_21_193
*1651 FILLER_21_196
*1652 FILLER_21_199
*1653 FILLER_21_202
*1654 FILLER_21_220
*1655 FILLER_21_223
*1656 FILLER_21_233
*1657 FILLER_21_236
*1658 FILLER_21_266
*1659 FILLER_21_288
*1660 FILLER_21_291
*1661 FILLER_21_294
*1662 FILLER_21_297
*1663 FILLER_21_3
*1664 FILLER_21_306
*1665 FILLER_21_309
*1666 FILLER_21_312
*1667 FILLER_21_315
*1668 FILLER_21_318
*1669 FILLER_21_54
*1670 FILLER_21_57
*1671 FILLER_21_6
*1672 FILLER_21_60
*1673 FILLER_21_63
*1674 FILLER_21_87
*1675 FILLER_21_9
*1676 FILLER_22_126
*1677 FILLER_22_129
*1678 FILLER_22_152
*1679 FILLER_22_155
*1680 FILLER_22_158
*1681 FILLER_22_161
*1682 FILLER_22_183
*1683 FILLER_22_186
*1684 FILLER_22_189
*1685 FILLER_22_192
*1686 FILLER_22_195
*1687 FILLER_22_218
*1688 FILLER_22_240
*1689 FILLER_22_243
*1690 FILLER_22_26
*1691 FILLER_22_261
*1692 FILLER_22_264
*1693 FILLER_22_29
*1694 FILLER_22_298
*1695 FILLER_22_3
*1696 FILLER_22_301
*1697 FILLER_22_304
*1698 FILLER_22_307
*1699 FILLER_22_309
*1700 FILLER_22_312
*1701 FILLER_22_315
*1702 FILLER_22_318
*1703 FILLER_22_59
*1704 FILLER_22_62
*1705 FILLER_23_105
*1706 FILLER_23_108
*1707 FILLER_23_111
*1708 FILLER_23_130
*1709 FILLER_23_145
*1710 FILLER_23_148
*1711 FILLER_23_151
*1712 FILLER_23_154
*1713 FILLER_23_157
*1714 FILLER_23_160
*1715 FILLER_23_163
*1716 FILLER_23_166
*1717 FILLER_23_190
*1718 FILLER_23_221
*1719 FILLER_23_241
*1720 FILLER_23_244
*1721 FILLER_23_268
*1722 FILLER_23_3
*1723 FILLER_23_302
*1724 FILLER_23_305
*1725 FILLER_23_308
*1726 FILLER_23_311
*1727 FILLER_23_314
*1728 FILLER_23_317
*1729 FILLER_23_32
*1730 FILLER_23_57
*1731 FILLER_23_6
*1732 FILLER_23_60
*1733 FILLER_23_9
*1734 FILLER_24_116
*1735 FILLER_24_12
*1736 FILLER_24_135
*1737 FILLER_24_138
*1738 FILLER_24_141
*1739 FILLER_24_144
*1740 FILLER_24_147
*1741 FILLER_24_150
*1742 FILLER_24_153
*1743 FILLER_24_156
*1744 FILLER_24_159
*1745 FILLER_24_162
*1746 FILLER_24_165
*1747 FILLER_24_168
*1748 FILLER_24_187
*1749 FILLER_24_190
*1750 FILLER_24_193
*1751 FILLER_24_197
*1752 FILLER_24_20
*1753 FILLER_24_229
*1754 FILLER_24_23
*1755 FILLER_24_232
*1756 FILLER_24_235
*1757 FILLER_24_238
*1758 FILLER_24_247
*1759 FILLER_24_250
*1760 FILLER_24_253
*1761 FILLER_24_26
*1762 FILLER_24_275
*1763 FILLER_24_286
*1764 FILLER_24_29
*1765 FILLER_24_3
*1766 FILLER_24_309
*1767 FILLER_24_312
*1768 FILLER_24_315
*1769 FILLER_24_318
*1770 FILLER_24_6
*1771 FILLER_24_61
*1772 FILLER_24_9
*1773 FILLER_24_93
*1774 FILLER_25_113
*1775 FILLER_25_116
*1776 FILLER_25_12
*1777 FILLER_25_138
*1778 FILLER_25_146
*1779 FILLER_25_149
*1780 FILLER_25_15
*1781 FILLER_25_152
*1782 FILLER_25_155
*1783 FILLER_25_158
*1784 FILLER_25_161
*1785 FILLER_25_164
*1786 FILLER_25_167
*1787 FILLER_25_178
*1788 FILLER_25_18
*1789 FILLER_25_199
*1790 FILLER_25_202
*1791 FILLER_25_205
*1792 FILLER_25_21
*1793 FILLER_25_222
*1794 FILLER_25_225
*1795 FILLER_25_228
*1796 FILLER_25_231
*1797 FILLER_25_234
*1798 FILLER_25_237
*1799 FILLER_25_240
*1800 FILLER_25_243
*1801 FILLER_25_246
*1802 FILLER_25_28
*1803 FILLER_25_287
*1804 FILLER_25_3
*1805 FILLER_25_31
*1806 FILLER_25_318
*1807 FILLER_25_55
*1808 FILLER_25_57
*1809 FILLER_25_6
*1810 FILLER_25_60
*1811 FILLER_25_63
*1812 FILLER_25_66
*1813 FILLER_25_69
*1814 FILLER_25_9
*1815 FILLER_25_94
*1816 FILLER_25_97
*1817 FILLER_26_100
*1818 FILLER_26_103
*1819 FILLER_26_106
*1820 FILLER_26_116
*1821 FILLER_26_12
*1822 FILLER_26_130
*1823 FILLER_26_149
*1824 FILLER_26_15
*1825 FILLER_26_152
*1826 FILLER_26_155
*1827 FILLER_26_158
*1828 FILLER_26_18
*1829 FILLER_26_181
*1830 FILLER_26_184
*1831 FILLER_26_187
*1832 FILLER_26_190
*1833 FILLER_26_193
*1834 FILLER_26_197
*1835 FILLER_26_200
*1836 FILLER_26_203
*1837 FILLER_26_206
*1838 FILLER_26_209
*1839 FILLER_26_237
*1840 FILLER_26_240
*1841 FILLER_26_243
*1842 FILLER_26_246
*1843 FILLER_26_249
*1844 FILLER_26_253
*1845 FILLER_26_256
*1846 FILLER_26_259
*1847 FILLER_26_26
*1848 FILLER_26_262
*1849 FILLER_26_265
*1850 FILLER_26_268
*1851 FILLER_26_271
*1852 FILLER_26_274
*1853 FILLER_26_277
*1854 FILLER_26_280
*1855 FILLER_26_283
*1856 FILLER_26_29
*1857 FILLER_26_3
*1858 FILLER_26_306
*1859 FILLER_26_317
*1860 FILLER_26_38
*1861 FILLER_26_53
*1862 FILLER_26_56
*1863 FILLER_26_59
*1864 FILLER_26_6
*1865 FILLER_26_62
*1866 FILLER_26_65
*1867 FILLER_26_68
*1868 FILLER_26_85
*1869 FILLER_26_88
*1870 FILLER_26_9
*1871 FILLER_26_91
*1872 FILLER_26_94
*1873 FILLER_26_97
*1874 FILLER_27_102
*1875 FILLER_27_105
*1876 FILLER_27_108
*1877 FILLER_27_111
*1878 FILLER_27_113
*1879 FILLER_27_123
*1880 FILLER_27_126
*1881 FILLER_27_129
*1882 FILLER_27_132
*1883 FILLER_27_135
*1884 FILLER_27_138
*1885 FILLER_27_147
*1886 FILLER_27_150
*1887 FILLER_27_153
*1888 FILLER_27_156
*1889 FILLER_27_159
*1890 FILLER_27_162
*1891 FILLER_27_165
*1892 FILLER_27_169
*1893 FILLER_27_172
*1894 FILLER_27_183
*1895 FILLER_27_186
*1896 FILLER_27_189
*1897 FILLER_27_196
*1898 FILLER_27_199
*1899 FILLER_27_202
*1900 FILLER_27_209
*1901 FILLER_27_212
*1902 FILLER_27_215
*1903 FILLER_27_218
*1904 FILLER_27_221
*1905 FILLER_27_225
*1906 FILLER_27_228
*1907 FILLER_27_231
*1908 FILLER_27_234
*1909 FILLER_27_237
*1910 FILLER_27_240
*1911 FILLER_27_263
*1912 FILLER_27_266
*1913 FILLER_27_269
*1914 FILLER_27_272
*1915 FILLER_27_275
*1916 FILLER_27_278
*1917 FILLER_27_281
*1918 FILLER_27_284
*1919 FILLER_27_287
*1920 FILLER_27_3
*1921 FILLER_27_315
*1922 FILLER_27_318
*1923 FILLER_27_36
*1924 FILLER_27_39
*1925 FILLER_27_42
*1926 FILLER_27_45
*1927 FILLER_27_48
*1928 FILLER_27_51
*1929 FILLER_27_54
*1930 FILLER_27_57
*1931 FILLER_27_6
*1932 FILLER_27_60
*1933 FILLER_27_63
*1934 FILLER_27_66
*1935 FILLER_27_85
*1936 FILLER_27_88
*1937 FILLER_27_9
*1938 FILLER_27_91
*1939 FILLER_27_94
*1940 FILLER_28_113
*1941 FILLER_28_116
*1942 FILLER_28_119
*1943 FILLER_28_122
*1944 FILLER_28_125
*1945 FILLER_28_128
*1946 FILLER_28_131
*1947 FILLER_28_134
*1948 FILLER_28_137
*1949 FILLER_28_156
*1950 FILLER_28_170
*1951 FILLER_28_173
*1952 FILLER_28_197
*1953 FILLER_28_200
*1954 FILLER_28_212
*1955 FILLER_28_215
*1956 FILLER_28_218
*1957 FILLER_28_221
*1958 FILLER_28_253
*1959 FILLER_28_26
*1960 FILLER_28_268
*1961 FILLER_28_271
*1962 FILLER_28_274
*1963 FILLER_28_277
*1964 FILLER_28_280
*1965 FILLER_28_283
*1966 FILLER_28_292
*1967 FILLER_28_3
*1968 FILLER_28_305
*1969 FILLER_28_317
*1970 FILLER_28_34
*1971 FILLER_28_37
*1972 FILLER_28_40
*1973 FILLER_28_43
*1974 FILLER_28_46
*1975 FILLER_28_49
*1976 FILLER_28_52
*1977 FILLER_28_55
*1978 FILLER_28_85
*1979 FILLER_28_88
*1980 FILLER_28_91
*1981 FILLER_28_94
*1982 FILLER_29_113
*1983 FILLER_29_116
*1984 FILLER_29_119
*1985 FILLER_29_182
*1986 FILLER_29_215
*1987 FILLER_29_222
*1988 FILLER_29_246
*1989 FILLER_29_26
*1990 FILLER_29_273
*1991 FILLER_29_276
*1992 FILLER_29_279
*1993 FILLER_29_3
*1994 FILLER_29_309
*1995 FILLER_29_312
*1996 FILLER_29_315
*1997 FILLER_29_318
*1998 FILLER_29_37
*1999 FILLER_29_40
*2000 FILLER_29_43
*2001 FILLER_29_46
*2002 FILLER_29_49
*2003 FILLER_29_52
*2004 FILLER_29_55
*2005 FILLER_29_57
*2006 FILLER_29_6
*2007 FILLER_29_88
*2008 FILLER_29_9
*2009 FILLER_2_119
*2010 FILLER_2_12
*2011 FILLER_2_122
*2012 FILLER_2_125
*2013 FILLER_2_128
*2014 FILLER_2_131
*2015 FILLER_2_15
*2016 FILLER_2_154
*2017 FILLER_2_157
*2018 FILLER_2_160
*2019 FILLER_2_163
*2020 FILLER_2_18
*2021 FILLER_2_191
*2022 FILLER_2_194
*2023 FILLER_2_197
*2024 FILLER_2_207
*2025 FILLER_2_21
*2026 FILLER_2_231
*2027 FILLER_2_234
*2028 FILLER_2_237
*2029 FILLER_2_240
*2030 FILLER_2_243
*2031 FILLER_2_27
*2032 FILLER_2_274
*2033 FILLER_2_277
*2034 FILLER_2_29
*2035 FILLER_2_3
*2036 FILLER_2_302
*2037 FILLER_2_305
*2038 FILLER_2_309
*2039 FILLER_2_312
*2040 FILLER_2_315
*2041 FILLER_2_318
*2042 FILLER_2_32
*2043 FILLER_2_35
*2044 FILLER_2_38
*2045 FILLER_2_41
*2046 FILLER_2_44
*2047 FILLER_2_47
*2048 FILLER_2_6
*2049 FILLER_2_75
*2050 FILLER_2_78
*2051 FILLER_2_81
*2052 FILLER_2_85
*2053 FILLER_2_9
*2054 FILLER_30_116
*2055 FILLER_30_12
*2056 FILLER_30_149
*2057 FILLER_30_15
*2058 FILLER_30_187
*2059 FILLER_30_197
*2060 FILLER_30_200
*2061 FILLER_30_224
*2062 FILLER_30_242
*2063 FILLER_30_253
*2064 FILLER_30_256
*2065 FILLER_30_265
*2066 FILLER_30_274
*2067 FILLER_30_277
*2068 FILLER_30_280
*2069 FILLER_30_283
*2070 FILLER_30_286
*2071 FILLER_30_29
*2072 FILLER_30_296
*2073 FILLER_30_299
*2074 FILLER_30_3
*2075 FILLER_30_302
*2076 FILLER_30_305
*2077 FILLER_30_309
*2078 FILLER_30_312
*2079 FILLER_30_315
*2080 FILLER_30_318
*2081 FILLER_30_32
*2082 FILLER_30_35
*2083 FILLER_30_38
*2084 FILLER_30_41
*2085 FILLER_30_6
*2086 FILLER_30_65
*2087 FILLER_30_85
*2088 FILLER_30_88
*2089 FILLER_30_9
*2090 FILLER_30_91
*2091 FILLER_30_94
*2092 FILLER_31_101
*2093 FILLER_31_113
*2094 FILLER_31_116
*2095 FILLER_31_165
*2096 FILLER_31_211
*2097 FILLER_31_221
*2098 FILLER_31_225
*2099 FILLER_31_235
*2100 FILLER_31_243
*2101 FILLER_31_249
*2102 FILLER_31_273
*2103 FILLER_31_276
*2104 FILLER_31_279
*2105 FILLER_31_281
*2106 FILLER_31_284
*2107 FILLER_31_287
*2108 FILLER_31_290
*2109 FILLER_31_3
*2110 FILLER_31_319
*2111 FILLER_31_34
*2112 FILLER_31_37
*2113 FILLER_31_57
*2114 FILLER_31_6
*2115 FILLER_31_73
*2116 FILLER_31_76
*2117 FILLER_31_79
*2118 FILLER_31_82
*2119 FILLER_31_85
*2120 FILLER_32_110
*2121 FILLER_32_113
*2122 FILLER_32_116
*2123 FILLER_32_119
*2124 FILLER_32_137
*2125 FILLER_32_155
*2126 FILLER_32_158
*2127 FILLER_32_161
*2128 FILLER_32_164
*2129 FILLER_32_182
*2130 FILLER_32_191
*2131 FILLER_32_194
*2132 FILLER_32_197
*2133 FILLER_32_200
*2134 FILLER_32_203
*2135 FILLER_32_206
*2136 FILLER_32_209
*2137 FILLER_32_212
*2138 FILLER_32_215
*2139 FILLER_32_218
*2140 FILLER_32_224
*2141 FILLER_32_227
*2142 FILLER_32_230
*2143 FILLER_32_238
*2144 FILLER_32_241
*2145 FILLER_32_244
*2146 FILLER_32_247
*2147 FILLER_32_250
*2148 FILLER_32_259
*2149 FILLER_32_262
*2150 FILLER_32_265
*2151 FILLER_32_268
*2152 FILLER_32_271
*2153 FILLER_32_274
*2154 FILLER_32_29
*2155 FILLER_32_3
*2156 FILLER_32_309
*2157 FILLER_32_40
*2158 FILLER_32_43
*2159 FILLER_32_6
*2160 FILLER_32_72
*2161 FILLER_32_75
*2162 FILLER_32_78
*2163 FILLER_32_81
*2164 FILLER_32_85
*2165 FILLER_32_89
*2166 FILLER_32_92
*2167 FILLER_33_108
*2168 FILLER_33_111
*2169 FILLER_33_113
*2170 FILLER_33_116
*2171 FILLER_33_119
*2172 FILLER_33_122
*2173 FILLER_33_125
*2174 FILLER_33_128
*2175 FILLER_33_138
*2176 FILLER_33_141
*2177 FILLER_33_144
*2178 FILLER_33_147
*2179 FILLER_33_150
*2180 FILLER_33_153
*2181 FILLER_33_156
*2182 FILLER_33_159
*2183 FILLER_33_162
*2184 FILLER_33_165
*2185 FILLER_33_169
*2186 FILLER_33_200
*2187 FILLER_33_203
*2188 FILLER_33_212
*2189 FILLER_33_215
*2190 FILLER_33_231
*2191 FILLER_33_234
*2192 FILLER_33_24
*2193 FILLER_33_261
*2194 FILLER_33_264
*2195 FILLER_33_267
*2196 FILLER_33_270
*2197 FILLER_33_273
*2198 FILLER_33_290
*2199 FILLER_33_3
*2200 FILLER_33_50
*2201 FILLER_33_53
*2202 FILLER_33_6
*2203 FILLER_33_65
*2204 FILLER_33_76
*2205 FILLER_33_79
*2206 FILLER_33_87
*2207 FILLER_33_90
*2208 FILLER_34_101
*2209 FILLER_34_12
*2210 FILLER_34_124
*2211 FILLER_34_127
*2212 FILLER_34_130
*2213 FILLER_34_133
*2214 FILLER_34_136
*2215 FILLER_34_139
*2216 FILLER_34_148
*2217 FILLER_34_15
*2218 FILLER_34_151
*2219 FILLER_34_154
*2220 FILLER_34_157
*2221 FILLER_34_160
*2222 FILLER_34_197
*2223 FILLER_34_213
*2224 FILLER_34_223
*2225 FILLER_34_24
*2226 FILLER_34_266
*2227 FILLER_34_269
*2228 FILLER_34_27
*2229 FILLER_34_272
*2230 FILLER_34_29
*2231 FILLER_34_3
*2232 FILLER_34_303
*2233 FILLER_34_306
*2234 FILLER_34_309
*2235 FILLER_34_319
*2236 FILLER_34_32
*2237 FILLER_34_35
*2238 FILLER_34_38
*2239 FILLER_34_41
*2240 FILLER_34_44
*2241 FILLER_34_47
*2242 FILLER_34_6
*2243 FILLER_34_83
*2244 FILLER_34_85
*2245 FILLER_34_9
*2246 FILLER_35_103
*2247 FILLER_35_111
*2248 FILLER_35_113
*2249 FILLER_35_116
*2250 FILLER_35_12
*2251 FILLER_35_127
*2252 FILLER_35_130
*2253 FILLER_35_133
*2254 FILLER_35_136
*2255 FILLER_35_15
*2256 FILLER_35_150
*2257 FILLER_35_153
*2258 FILLER_35_156
*2259 FILLER_35_159
*2260 FILLER_35_162
*2261 FILLER_35_169
*2262 FILLER_35_196
*2263 FILLER_35_221
*2264 FILLER_35_233
*2265 FILLER_35_266
*2266 FILLER_35_269
*2267 FILLER_35_272
*2268 FILLER_35_275
*2269 FILLER_35_278
*2270 FILLER_35_28
*2271 FILLER_35_288
*2272 FILLER_35_3
*2273 FILLER_35_305
*2274 FILLER_35_308
*2275 FILLER_35_31
*2276 FILLER_35_311
*2277 FILLER_35_314
*2278 FILLER_35_317
*2279 FILLER_35_34
*2280 FILLER_35_37
*2281 FILLER_35_40
*2282 FILLER_35_6
*2283 FILLER_35_68
*2284 FILLER_35_9
*2285 FILLER_35_90
*2286 FILLER_36_113
*2287 FILLER_36_137
*2288 FILLER_36_162
*2289 FILLER_36_194
*2290 FILLER_36_197
*2291 FILLER_36_242
*2292 FILLER_36_253
*2293 FILLER_36_277
*2294 FILLER_36_285
*2295 FILLER_36_288
*2296 FILLER_36_291
*2297 FILLER_36_297
*2298 FILLER_36_3
*2299 FILLER_36_300
*2300 FILLER_36_303
*2301 FILLER_36_306
*2302 FILLER_36_309
*2303 FILLER_36_312
*2304 FILLER_36_315
*2305 FILLER_36_318
*2306 FILLER_36_34
*2307 FILLER_36_37
*2308 FILLER_36_40
*2309 FILLER_36_43
*2310 FILLER_36_46
*2311 FILLER_36_6
*2312 FILLER_36_80
*2313 FILLER_36_83
*2314 FILLER_36_85
*2315 FILLER_37_109
*2316 FILLER_37_113
*2317 FILLER_37_165
*2318 FILLER_37_169
*2319 FILLER_37_221
*2320 FILLER_37_239
*2321 FILLER_37_242
*2322 FILLER_37_245
*2323 FILLER_37_248
*2324 FILLER_37_251
*2325 FILLER_37_261
*2326 FILLER_37_264
*2327 FILLER_37_267
*2328 FILLER_37_275
*2329 FILLER_37_278
*2330 FILLER_37_281
*2331 FILLER_37_284
*2332 FILLER_37_287
*2333 FILLER_37_290
*2334 FILLER_37_293
*2335 FILLER_37_296
*2336 FILLER_37_3
*2337 FILLER_37_315
*2338 FILLER_37_318
*2339 FILLER_37_42
*2340 FILLER_37_45
*2341 FILLER_37_48
*2342 FILLER_37_83
*2343 FILLER_37_86
*2344 FILLER_38_100
*2345 FILLER_38_110
*2346 FILLER_38_113
*2347 FILLER_38_134
*2348 FILLER_38_149
*2349 FILLER_38_178
*2350 FILLER_38_181
*2351 FILLER_38_184
*2352 FILLER_38_187
*2353 FILLER_38_193
*2354 FILLER_38_197
*2355 FILLER_38_200
*2356 FILLER_38_220
*2357 FILLER_38_223
*2358 FILLER_38_236
*2359 FILLER_38_239
*2360 FILLER_38_242
*2361 FILLER_38_245
*2362 FILLER_38_248
*2363 FILLER_38_251
*2364 FILLER_38_253
*2365 FILLER_38_256
*2366 FILLER_38_269
*2367 FILLER_38_272
*2368 FILLER_38_282
*2369 FILLER_38_285
*2370 FILLER_38_3
*2371 FILLER_38_317
*2372 FILLER_38_37
*2373 FILLER_38_40
*2374 FILLER_38_43
*2375 FILLER_38_46
*2376 FILLER_38_49
*2377 FILLER_38_78
*2378 FILLER_38_81
*2379 FILLER_38_85
*2380 FILLER_38_88
*2381 FILLER_38_91
*2382 FILLER_39_125
*2383 FILLER_39_128
*2384 FILLER_39_137
*2385 FILLER_39_140
*2386 FILLER_39_148
*2387 FILLER_39_157
*2388 FILLER_39_160
*2389 FILLER_39_163
*2390 FILLER_39_166
*2391 FILLER_39_169
*2392 FILLER_39_172
*2393 FILLER_39_175
*2394 FILLER_39_178
*2395 FILLER_39_181
*2396 FILLER_39_184
*2397 FILLER_39_187
*2398 FILLER_39_190
*2399 FILLER_39_193
*2400 FILLER_39_196
*2401 FILLER_39_199
*2402 FILLER_39_202
*2403 FILLER_39_214
*2404 FILLER_39_217
*2405 FILLER_39_220
*2406 FILLER_39_223
*2407 FILLER_39_225
*2408 FILLER_39_228
*2409 FILLER_39_246
*2410 FILLER_39_249
*2411 FILLER_39_252
*2412 FILLER_39_289
*2413 FILLER_39_292
*2414 FILLER_39_3
*2415 FILLER_39_35
*2416 FILLER_39_45
*2417 FILLER_39_48
*2418 FILLER_39_57
*2419 FILLER_39_6
*2420 FILLER_39_60
*2421 FILLER_39_69
*2422 FILLER_39_79
*2423 FILLER_39_82
*2424 FILLER_39_99
*2425 FILLER_3_118
*2426 FILLER_3_12
*2427 FILLER_3_121
*2428 FILLER_3_15
*2429 FILLER_3_165
*2430 FILLER_3_169
*2431 FILLER_3_199
*2432 FILLER_3_236
*2433 FILLER_3_239
*2434 FILLER_3_24
*2435 FILLER_3_242
*2436 FILLER_3_27
*2437 FILLER_3_271
*2438 FILLER_3_274
*2439 FILLER_3_3
*2440 FILLER_3_30
*2441 FILLER_3_311
*2442 FILLER_3_314
*2443 FILLER_3_317
*2444 FILLER_3_33
*2445 FILLER_3_6
*2446 FILLER_3_78
*2447 FILLER_3_81
*2448 FILLER_3_84
*2449 FILLER_3_87
*2450 FILLER_3_9
*2451 FILLER_40_114
*2452 FILLER_40_117
*2453 FILLER_40_120
*2454 FILLER_40_123
*2455 FILLER_40_126
*2456 FILLER_40_129
*2457 FILLER_40_135
*2458 FILLER_40_138
*2459 FILLER_40_141
*2460 FILLER_40_144
*2461 FILLER_40_147
*2462 FILLER_40_150
*2463 FILLER_40_153
*2464 FILLER_40_156
*2465 FILLER_40_159
*2466 FILLER_40_166
*2467 FILLER_40_169
*2468 FILLER_40_172
*2469 FILLER_40_175
*2470 FILLER_40_178
*2471 FILLER_40_187
*2472 FILLER_40_190
*2473 FILLER_40_193
*2474 FILLER_40_197
*2475 FILLER_40_200
*2476 FILLER_40_203
*2477 FILLER_40_206
*2478 FILLER_40_209
*2479 FILLER_40_212
*2480 FILLER_40_215
*2481 FILLER_40_223
*2482 FILLER_40_246
*2483 FILLER_40_249
*2484 FILLER_40_25
*2485 FILLER_40_264
*2486 FILLER_40_287
*2487 FILLER_40_29
*2488 FILLER_40_3
*2489 FILLER_40_309
*2490 FILLER_40_32
*2491 FILLER_40_55
*2492 FILLER_40_58
*2493 FILLER_40_76
*2494 FILLER_40_79
*2495 FILLER_40_82
*2496 FILLER_40_85
*2497 FILLER_40_98
*2498 FILLER_41_113
*2499 FILLER_41_116
*2500 FILLER_41_136
*2501 FILLER_41_139
*2502 FILLER_41_142
*2503 FILLER_41_145
*2504 FILLER_41_169
*2505 FILLER_41_190
*2506 FILLER_41_207
*2507 FILLER_41_210
*2508 FILLER_41_213
*2509 FILLER_41_223
*2510 FILLER_41_233
*2511 FILLER_41_236
*2512 FILLER_41_248
*2513 FILLER_41_261
*2514 FILLER_41_289
*2515 FILLER_41_3
*2516 FILLER_41_316
*2517 FILLER_41_319
*2518 FILLER_41_42
*2519 FILLER_41_45
*2520 FILLER_41_48
*2521 FILLER_41_57
*2522 FILLER_41_79
*2523 FILLER_41_82
*2524 FILLER_42_106
*2525 FILLER_42_109
*2526 FILLER_42_11
*2527 FILLER_42_112
*2528 FILLER_42_136
*2529 FILLER_42_139
*2530 FILLER_42_14
*2531 FILLER_42_141
*2532 FILLER_42_144
*2533 FILLER_42_147
*2534 FILLER_42_17
*2535 FILLER_42_171
*2536 FILLER_42_174
*2537 FILLER_42_205
*2538 FILLER_42_208
*2539 FILLER_42_247
*2540 FILLER_42_250
*2541 FILLER_42_270
*2542 FILLER_42_29
*2543 FILLER_42_292
*2544 FILLER_42_3
*2545 FILLER_42_309
*2546 FILLER_42_312
*2547 FILLER_42_315
*2548 FILLER_42_318
*2549 FILLER_42_32
*2550 FILLER_42_42
*2551 FILLER_42_45
*2552 FILLER_42_48
*2553 FILLER_42_51
*2554 FILLER_42_6
*2555 FILLER_42_79
*2556 FILLER_42_82
*2557 FILLER_43_105
*2558 FILLER_43_108
*2559 FILLER_43_11
*2560 FILLER_43_111
*2561 FILLER_43_113
*2562 FILLER_43_14
*2563 FILLER_43_144
*2564 FILLER_43_175
*2565 FILLER_43_199
*2566 FILLER_43_202
*2567 FILLER_43_241
*2568 FILLER_43_278
*2569 FILLER_43_28
*2570 FILLER_43_281
*2571 FILLER_43_284
*2572 FILLER_43_287
*2573 FILLER_43_291
*2574 FILLER_43_300
*2575 FILLER_43_308
*2576 FILLER_43_311
*2577 FILLER_43_34
*2578 FILLER_43_37
*2579 FILLER_43_40
*2580 FILLER_43_43
*2581 FILLER_43_46
*2582 FILLER_43_78
*2583 FILLER_43_81
*2584 FILLER_43_84
*2585 FILLER_43_87
*2586 FILLER_43_90
*2587 FILLER_43_93
*2588 FILLER_43_96
*2589 FILLER_44_104
*2590 FILLER_44_135
*2591 FILLER_44_138
*2592 FILLER_44_141
*2593 FILLER_44_144
*2594 FILLER_44_147
*2595 FILLER_44_150
*2596 FILLER_44_197
*2597 FILLER_44_200
*2598 FILLER_44_203
*2599 FILLER_44_206
*2600 FILLER_44_243
*2601 FILLER_44_246
*2602 FILLER_44_249
*2603 FILLER_44_253
*2604 FILLER_44_256
*2605 FILLER_44_264
*2606 FILLER_44_286
*2607 FILLER_44_289
*2608 FILLER_44_292
*2609 FILLER_44_295
*2610 FILLER_44_298
*2611 FILLER_44_3
*2612 FILLER_44_306
*2613 FILLER_44_309
*2614 FILLER_44_312
*2615 FILLER_44_315
*2616 FILLER_44_318
*2617 FILLER_44_37
*2618 FILLER_44_40
*2619 FILLER_44_6
*2620 FILLER_44_82
*2621 FILLER_44_85
*2622 FILLER_45_107
*2623 FILLER_45_110
*2624 FILLER_45_113
*2625 FILLER_45_134
*2626 FILLER_45_137
*2627 FILLER_45_140
*2628 FILLER_45_143
*2629 FILLER_45_146
*2630 FILLER_45_149
*2631 FILLER_45_152
*2632 FILLER_45_155
*2633 FILLER_45_158
*2634 FILLER_45_161
*2635 FILLER_45_169
*2636 FILLER_45_172
*2637 FILLER_45_175
*2638 FILLER_45_187
*2639 FILLER_45_209
*2640 FILLER_45_212
*2641 FILLER_45_215
*2642 FILLER_45_223
*2643 FILLER_45_233
*2644 FILLER_45_236
*2645 FILLER_45_239
*2646 FILLER_45_242
*2647 FILLER_45_278
*2648 FILLER_45_286
*2649 FILLER_45_289
*2650 FILLER_45_3
*2651 FILLER_45_313
*2652 FILLER_45_316
*2653 FILLER_45_319
*2654 FILLER_45_35
*2655 FILLER_45_38
*2656 FILLER_45_41
*2657 FILLER_45_44
*2658 FILLER_45_47
*2659 FILLER_45_6
*2660 FILLER_45_78
*2661 FILLER_45_81
*2662 FILLER_45_84
*2663 FILLER_46_111
*2664 FILLER_46_127
*2665 FILLER_46_136
*2666 FILLER_46_139
*2667 FILLER_46_141
*2668 FILLER_46_144
*2669 FILLER_46_147
*2670 FILLER_46_150
*2671 FILLER_46_153
*2672 FILLER_46_156
*2673 FILLER_46_159
*2674 FILLER_46_165
*2675 FILLER_46_168
*2676 FILLER_46_171
*2677 FILLER_46_174
*2678 FILLER_46_177
*2679 FILLER_46_180
*2680 FILLER_46_197
*2681 FILLER_46_200
*2682 FILLER_46_203
*2683 FILLER_46_206
*2684 FILLER_46_22
*2685 FILLER_46_229
*2686 FILLER_46_232
*2687 FILLER_46_235
*2688 FILLER_46_238
*2689 FILLER_46_241
*2690 FILLER_46_244
*2691 FILLER_46_247
*2692 FILLER_46_25
*2693 FILLER_46_250
*2694 FILLER_46_253
*2695 FILLER_46_277
*2696 FILLER_46_280
*2697 FILLER_46_283
*2698 FILLER_46_286
*2699 FILLER_46_289
*2700 FILLER_46_292
*2701 FILLER_46_3
*2702 FILLER_46_317
*2703 FILLER_46_37
*2704 FILLER_46_40
*2705 FILLER_46_43
*2706 FILLER_46_46
*2707 FILLER_46_49
*2708 FILLER_46_52
*2709 FILLER_46_6
*2710 FILLER_46_72
*2711 FILLER_46_75
*2712 FILLER_46_78
*2713 FILLER_46_81
*2714 FILLER_46_85
*2715 FILLER_46_88
*2716 FILLER_47_100
*2717 FILLER_47_109
*2718 FILLER_47_113
*2719 FILLER_47_124
*2720 FILLER_47_127
*2721 FILLER_47_140
*2722 FILLER_47_143
*2723 FILLER_47_146
*2724 FILLER_47_149
*2725 FILLER_47_152
*2726 FILLER_47_167
*2727 FILLER_47_169
*2728 FILLER_47_172
*2729 FILLER_47_175
*2730 FILLER_47_178
*2731 FILLER_47_181
*2732 FILLER_47_203
*2733 FILLER_47_206
*2734 FILLER_47_209
*2735 FILLER_47_212
*2736 FILLER_47_218
*2737 FILLER_47_221
*2738 FILLER_47_225
*2739 FILLER_47_228
*2740 FILLER_47_231
*2741 FILLER_47_234
*2742 FILLER_47_237
*2743 FILLER_47_240
*2744 FILLER_47_269
*2745 FILLER_47_279
*2746 FILLER_47_281
*2747 FILLER_47_284
*2748 FILLER_47_287
*2749 FILLER_47_290
*2750 FILLER_47_3
*2751 FILLER_47_313
*2752 FILLER_47_316
*2753 FILLER_47_319
*2754 FILLER_47_33
*2755 FILLER_47_36
*2756 FILLER_47_39
*2757 FILLER_47_42
*2758 FILLER_47_45
*2759 FILLER_47_48
*2760 FILLER_47_51
*2761 FILLER_47_54
*2762 FILLER_47_63
*2763 FILLER_47_74
*2764 FILLER_47_77
*2765 FILLER_47_80
*2766 FILLER_47_83
*2767 FILLER_47_86
*2768 FILLER_47_97
*2769 FILLER_48_102
*2770 FILLER_48_105
*2771 FILLER_48_108
*2772 FILLER_48_111
*2773 FILLER_48_114
*2774 FILLER_48_117
*2775 FILLER_48_120
*2776 FILLER_48_139
*2777 FILLER_48_141
*2778 FILLER_48_144
*2779 FILLER_48_147
*2780 FILLER_48_176
*2781 FILLER_48_179
*2782 FILLER_48_182
*2783 FILLER_48_193
*2784 FILLER_48_197
*2785 FILLER_48_203
*2786 FILLER_48_234
*2787 FILLER_48_253
*2788 FILLER_48_264
*2789 FILLER_48_267
*2790 FILLER_48_270
*2791 FILLER_48_279
*2792 FILLER_48_282
*2793 FILLER_48_285
*2794 FILLER_48_288
*2795 FILLER_48_29
*2796 FILLER_48_291
*2797 FILLER_48_294
*2798 FILLER_48_3
*2799 FILLER_48_309
*2800 FILLER_48_312
*2801 FILLER_48_315
*2802 FILLER_48_318
*2803 FILLER_48_32
*2804 FILLER_48_35
*2805 FILLER_48_38
*2806 FILLER_48_41
*2807 FILLER_48_44
*2808 FILLER_48_47
*2809 FILLER_48_6
*2810 FILLER_48_71
*2811 FILLER_48_74
*2812 FILLER_48_77
*2813 FILLER_48_80
*2814 FILLER_48_83
*2815 FILLER_48_85
*2816 FILLER_48_9
*2817 FILLER_49_108
*2818 FILLER_49_111
*2819 FILLER_49_113
*2820 FILLER_49_116
*2821 FILLER_49_12
*2822 FILLER_49_146
*2823 FILLER_49_15
*2824 FILLER_49_177
*2825 FILLER_49_18
*2826 FILLER_49_200
*2827 FILLER_49_21
*2828 FILLER_49_225
*2829 FILLER_49_228
*2830 FILLER_49_235
*2831 FILLER_49_24
*2832 FILLER_49_264
*2833 FILLER_49_27
*2834 FILLER_49_273
*2835 FILLER_49_281
*2836 FILLER_49_3
*2837 FILLER_49_30
*2838 FILLER_49_319
*2839 FILLER_49_33
*2840 FILLER_49_36
*2841 FILLER_49_39
*2842 FILLER_49_42
*2843 FILLER_49_45
*2844 FILLER_49_48
*2845 FILLER_49_51
*2846 FILLER_49_54
*2847 FILLER_49_57
*2848 FILLER_49_6
*2849 FILLER_49_60
*2850 FILLER_49_63
*2851 FILLER_49_66
*2852 FILLER_49_69
*2853 FILLER_49_72
*2854 FILLER_49_75
*2855 FILLER_49_78
*2856 FILLER_49_81
*2857 FILLER_49_9
*2858 FILLER_4_119
*2859 FILLER_4_122
*2860 FILLER_4_125
*2861 FILLER_4_157
*2862 FILLER_4_160
*2863 FILLER_4_163
*2864 FILLER_4_166
*2865 FILLER_4_192
*2866 FILLER_4_195
*2867 FILLER_4_197
*2868 FILLER_4_200
*2869 FILLER_4_203
*2870 FILLER_4_206
*2871 FILLER_4_209
*2872 FILLER_4_232
*2873 FILLER_4_235
*2874 FILLER_4_238
*2875 FILLER_4_241
*2876 FILLER_4_244
*2877 FILLER_4_253
*2878 FILLER_4_271
*2879 FILLER_4_274
*2880 FILLER_4_277
*2881 FILLER_4_29
*2882 FILLER_4_3
*2883 FILLER_4_306
*2884 FILLER_4_316
*2885 FILLER_4_319
*2886 FILLER_4_32
*2887 FILLER_4_35
*2888 FILLER_4_38
*2889 FILLER_4_41
*2890 FILLER_4_44
*2891 FILLER_4_47
*2892 FILLER_4_6
*2893 FILLER_4_74
*2894 FILLER_4_77
*2895 FILLER_4_80
*2896 FILLER_4_83
*2897 FILLER_4_85
*2898 FILLER_50_106
*2899 FILLER_50_12
*2900 FILLER_50_137
*2901 FILLER_50_148
*2902 FILLER_50_15
*2903 FILLER_50_18
*2904 FILLER_50_197
*2905 FILLER_50_21
*2906 FILLER_50_24
*2907 FILLER_50_27
*2908 FILLER_50_29
*2909 FILLER_50_3
*2910 FILLER_50_302
*2911 FILLER_50_305
*2912 FILLER_50_309
*2913 FILLER_50_312
*2914 FILLER_50_315
*2915 FILLER_50_318
*2916 FILLER_50_32
*2917 FILLER_50_35
*2918 FILLER_50_38
*2919 FILLER_50_41
*2920 FILLER_50_44
*2921 FILLER_50_47
*2922 FILLER_50_50
*2923 FILLER_50_53
*2924 FILLER_50_56
*2925 FILLER_50_59
*2926 FILLER_50_6
*2927 FILLER_50_62
*2928 FILLER_50_65
*2929 FILLER_50_68
*2930 FILLER_50_71
*2931 FILLER_50_74
*2932 FILLER_50_9
*2933 FILLER_51_101
*2934 FILLER_51_113
*2935 FILLER_51_116
*2936 FILLER_51_12
*2937 FILLER_51_147
*2938 FILLER_51_15
*2939 FILLER_51_150
*2940 FILLER_51_153
*2941 FILLER_51_156
*2942 FILLER_51_162
*2943 FILLER_51_165
*2944 FILLER_51_169
*2945 FILLER_51_172
*2946 FILLER_51_18
*2947 FILLER_51_202
*2948 FILLER_51_21
*2949 FILLER_51_233
*2950 FILLER_51_236
*2951 FILLER_51_24
*2952 FILLER_51_267
*2953 FILLER_51_27
*2954 FILLER_51_270
*2955 FILLER_51_292
*2956 FILLER_51_3
*2957 FILLER_51_30
*2958 FILLER_51_308
*2959 FILLER_51_311
*2960 FILLER_51_314
*2961 FILLER_51_317
*2962 FILLER_51_33
*2963 FILLER_51_36
*2964 FILLER_51_39
*2965 FILLER_51_42
*2966 FILLER_51_45
*2967 FILLER_51_48
*2968 FILLER_51_51
*2969 FILLER_51_54
*2970 FILLER_51_57
*2971 FILLER_51_6
*2972 FILLER_51_60
*2973 FILLER_51_63
*2974 FILLER_51_66
*2975 FILLER_51_69
*2976 FILLER_51_72
*2977 FILLER_51_75
*2978 FILLER_51_78
*2979 FILLER_51_9
*2980 FILLER_52_110
*2981 FILLER_52_113
*2982 FILLER_52_116
*2983 FILLER_52_119
*2984 FILLER_52_12
*2985 FILLER_52_122
*2986 FILLER_52_141
*2987 FILLER_52_144
*2988 FILLER_52_147
*2989 FILLER_52_15
*2990 FILLER_52_150
*2991 FILLER_52_153
*2992 FILLER_52_156
*2993 FILLER_52_159
*2994 FILLER_52_162
*2995 FILLER_52_165
*2996 FILLER_52_168
*2997 FILLER_52_171
*2998 FILLER_52_18
*2999 FILLER_52_197
*3000 FILLER_52_204
*3001 FILLER_52_207
*3002 FILLER_52_21
*3003 FILLER_52_210
*3004 FILLER_52_221
*3005 FILLER_52_224
*3006 FILLER_52_227
*3007 FILLER_52_230
*3008 FILLER_52_233
*3009 FILLER_52_236
*3010 FILLER_52_239
*3011 FILLER_52_24
*3012 FILLER_52_242
*3013 FILLER_52_245
*3014 FILLER_52_248
*3015 FILLER_52_251
*3016 FILLER_52_253
*3017 FILLER_52_260
*3018 FILLER_52_269
*3019 FILLER_52_27
*3020 FILLER_52_29
*3021 FILLER_52_3
*3022 FILLER_52_300
*3023 FILLER_52_303
*3024 FILLER_52_306
*3025 FILLER_52_309
*3026 FILLER_52_312
*3027 FILLER_52_315
*3028 FILLER_52_318
*3029 FILLER_52_32
*3030 FILLER_52_35
*3031 FILLER_52_38
*3032 FILLER_52_41
*3033 FILLER_52_44
*3034 FILLER_52_47
*3035 FILLER_52_50
*3036 FILLER_52_53
*3037 FILLER_52_56
*3038 FILLER_52_59
*3039 FILLER_52_6
*3040 FILLER_52_62
*3041 FILLER_52_65
*3042 FILLER_52_68
*3043 FILLER_52_71
*3044 FILLER_52_74
*3045 FILLER_52_77
*3046 FILLER_52_80
*3047 FILLER_52_83
*3048 FILLER_52_9
*3049 FILLER_53_101
*3050 FILLER_53_104
*3051 FILLER_53_107
*3052 FILLER_53_110
*3053 FILLER_53_113
*3054 FILLER_53_116
*3055 FILLER_53_12
*3056 FILLER_53_122
*3057 FILLER_53_125
*3058 FILLER_53_128
*3059 FILLER_53_138
*3060 FILLER_53_141
*3061 FILLER_53_144
*3062 FILLER_53_147
*3063 FILLER_53_15
*3064 FILLER_53_150
*3065 FILLER_53_153
*3066 FILLER_53_156
*3067 FILLER_53_159
*3068 FILLER_53_162
*3069 FILLER_53_165
*3070 FILLER_53_169
*3071 FILLER_53_172
*3072 FILLER_53_175
*3073 FILLER_53_178
*3074 FILLER_53_18
*3075 FILLER_53_181
*3076 FILLER_53_184
*3077 FILLER_53_187
*3078 FILLER_53_190
*3079 FILLER_53_193
*3080 FILLER_53_197
*3081 FILLER_53_200
*3082 FILLER_53_203
*3083 FILLER_53_208
*3084 FILLER_53_21
*3085 FILLER_53_211
*3086 FILLER_53_214
*3087 FILLER_53_217
*3088 FILLER_53_220
*3089 FILLER_53_223
*3090 FILLER_53_225
*3091 FILLER_53_228
*3092 FILLER_53_231
*3093 FILLER_53_234
*3094 FILLER_53_237
*3095 FILLER_53_24
*3096 FILLER_53_240
*3097 FILLER_53_243
*3098 FILLER_53_246
*3099 FILLER_53_249
*3100 FILLER_53_253
*3101 FILLER_53_256
*3102 FILLER_53_259
*3103 FILLER_53_262
*3104 FILLER_53_265
*3105 FILLER_53_268
*3106 FILLER_53_27
*3107 FILLER_53_271
*3108 FILLER_53_281
*3109 FILLER_53_284
*3110 FILLER_53_287
*3111 FILLER_53_29
*3112 FILLER_53_290
*3113 FILLER_53_299
*3114 FILLER_53_3
*3115 FILLER_53_302
*3116 FILLER_53_305
*3117 FILLER_53_309
*3118 FILLER_53_312
*3119 FILLER_53_315
*3120 FILLER_53_318
*3121 FILLER_53_32
*3122 FILLER_53_36
*3123 FILLER_53_39
*3124 FILLER_53_42
*3125 FILLER_53_45
*3126 FILLER_53_48
*3127 FILLER_53_51
*3128 FILLER_53_54
*3129 FILLER_53_57
*3130 FILLER_53_6
*3131 FILLER_53_60
*3132 FILLER_53_63
*3133 FILLER_53_66
*3134 FILLER_53_69
*3135 FILLER_53_72
*3136 FILLER_53_75
*3137 FILLER_53_78
*3138 FILLER_53_81
*3139 FILLER_53_85
*3140 FILLER_53_88
*3141 FILLER_53_9
*3142 FILLER_53_95
*3143 FILLER_53_98
*3144 FILLER_5_113
*3145 FILLER_5_116
*3146 FILLER_5_119
*3147 FILLER_5_12
*3148 FILLER_5_122
*3149 FILLER_5_125
*3150 FILLER_5_128
*3151 FILLER_5_152
*3152 FILLER_5_155
*3153 FILLER_5_158
*3154 FILLER_5_161
*3155 FILLER_5_164
*3156 FILLER_5_167
*3157 FILLER_5_169
*3158 FILLER_5_193
*3159 FILLER_5_196
*3160 FILLER_5_199
*3161 FILLER_5_202
*3162 FILLER_5_205
*3163 FILLER_5_231
*3164 FILLER_5_234
*3165 FILLER_5_237
*3166 FILLER_5_240
*3167 FILLER_5_243
*3168 FILLER_5_246
*3169 FILLER_5_25
*3170 FILLER_5_265
*3171 FILLER_5_268
*3172 FILLER_5_271
*3173 FILLER_5_274
*3174 FILLER_5_277
*3175 FILLER_5_28
*3176 FILLER_5_281
*3177 FILLER_5_284
*3178 FILLER_5_287
*3179 FILLER_5_295
*3180 FILLER_5_298
*3181 FILLER_5_3
*3182 FILLER_5_31
*3183 FILLER_5_34
*3184 FILLER_5_37
*3185 FILLER_5_40
*3186 FILLER_5_43
*3187 FILLER_5_46
*3188 FILLER_5_57
*3189 FILLER_5_6
*3190 FILLER_5_65
*3191 FILLER_5_68
*3192 FILLER_5_71
*3193 FILLER_5_74
*3194 FILLER_5_77
*3195 FILLER_5_80
*3196 FILLER_5_83
*3197 FILLER_5_9
*3198 FILLER_6_107
*3199 FILLER_6_110
*3200 FILLER_6_113
*3201 FILLER_6_116
*3202 FILLER_6_119
*3203 FILLER_6_122
*3204 FILLER_6_125
*3205 FILLER_6_128
*3206 FILLER_6_131
*3207 FILLER_6_134
*3208 FILLER_6_137
*3209 FILLER_6_146
*3210 FILLER_6_149
*3211 FILLER_6_152
*3212 FILLER_6_155
*3213 FILLER_6_158
*3214 FILLER_6_161
*3215 FILLER_6_164
*3216 FILLER_6_167
*3217 FILLER_6_170
*3218 FILLER_6_173
*3219 FILLER_6_192
*3220 FILLER_6_195
*3221 FILLER_6_197
*3222 FILLER_6_200
*3223 FILLER_6_203
*3224 FILLER_6_206
*3225 FILLER_6_209
*3226 FILLER_6_212
*3227 FILLER_6_215
*3228 FILLER_6_229
*3229 FILLER_6_232
*3230 FILLER_6_235
*3231 FILLER_6_238
*3232 FILLER_6_24
*3233 FILLER_6_241
*3234 FILLER_6_244
*3235 FILLER_6_247
*3236 FILLER_6_250
*3237 FILLER_6_27
*3238 FILLER_6_282
*3239 FILLER_6_285
*3240 FILLER_6_288
*3241 FILLER_6_29
*3242 FILLER_6_291
*3243 FILLER_6_294
*3244 FILLER_6_297
*3245 FILLER_6_3
*3246 FILLER_6_305
*3247 FILLER_6_309
*3248 FILLER_6_312
*3249 FILLER_6_315
*3250 FILLER_6_318
*3251 FILLER_6_32
*3252 FILLER_6_35
*3253 FILLER_6_38
*3254 FILLER_6_41
*3255 FILLER_6_44
*3256 FILLER_6_47
*3257 FILLER_6_50
*3258 FILLER_6_53
*3259 FILLER_6_6
*3260 FILLER_6_60
*3261 FILLER_6_63
*3262 FILLER_6_66
*3263 FILLER_6_69
*3264 FILLER_6_72
*3265 FILLER_6_75
*3266 FILLER_6_78
*3267 FILLER_6_81
*3268 FILLER_6_85
*3269 FILLER_6_9
*3270 FILLER_7_113
*3271 FILLER_7_116
*3272 FILLER_7_119
*3273 FILLER_7_12
*3274 FILLER_7_122
*3275 FILLER_7_125
*3276 FILLER_7_128
*3277 FILLER_7_131
*3278 FILLER_7_155
*3279 FILLER_7_158
*3280 FILLER_7_161
*3281 FILLER_7_164
*3282 FILLER_7_167
*3283 FILLER_7_169
*3284 FILLER_7_172
*3285 FILLER_7_175
*3286 FILLER_7_183
*3287 FILLER_7_186
*3288 FILLER_7_189
*3289 FILLER_7_192
*3290 FILLER_7_195
*3291 FILLER_7_198
*3292 FILLER_7_201
*3293 FILLER_7_204
*3294 FILLER_7_222
*3295 FILLER_7_231
*3296 FILLER_7_234
*3297 FILLER_7_237
*3298 FILLER_7_240
*3299 FILLER_7_243
*3300 FILLER_7_246
*3301 FILLER_7_249
*3302 FILLER_7_276
*3303 FILLER_7_279
*3304 FILLER_7_281
*3305 FILLER_7_284
*3306 FILLER_7_287
*3307 FILLER_7_290
*3308 FILLER_7_293
*3309 FILLER_7_296
*3310 FILLER_7_299
*3311 FILLER_7_3
*3312 FILLER_7_307
*3313 FILLER_7_310
*3314 FILLER_7_313
*3315 FILLER_7_316
*3316 FILLER_7_319
*3317 FILLER_7_34
*3318 FILLER_7_37
*3319 FILLER_7_40
*3320 FILLER_7_43
*3321 FILLER_7_46
*3322 FILLER_7_49
*3323 FILLER_7_52
*3324 FILLER_7_55
*3325 FILLER_7_6
*3326 FILLER_7_64
*3327 FILLER_7_67
*3328 FILLER_7_70
*3329 FILLER_7_73
*3330 FILLER_7_76
*3331 FILLER_7_79
*3332 FILLER_7_82
*3333 FILLER_7_85
*3334 FILLER_7_88
*3335 FILLER_7_9
*3336 FILLER_7_91
*3337 FILLER_8_118
*3338 FILLER_8_121
*3339 FILLER_8_141
*3340 FILLER_8_144
*3341 FILLER_8_153
*3342 FILLER_8_156
*3343 FILLER_8_159
*3344 FILLER_8_162
*3345 FILLER_8_165
*3346 FILLER_8_168
*3347 FILLER_8_171
*3348 FILLER_8_174
*3349 FILLER_8_188
*3350 FILLER_8_191
*3351 FILLER_8_194
*3352 FILLER_8_197
*3353 FILLER_8_200
*3354 FILLER_8_203
*3355 FILLER_8_213
*3356 FILLER_8_234
*3357 FILLER_8_237
*3358 FILLER_8_240
*3359 FILLER_8_243
*3360 FILLER_8_274
*3361 FILLER_8_277
*3362 FILLER_8_280
*3363 FILLER_8_283
*3364 FILLER_8_286
*3365 FILLER_8_289
*3366 FILLER_8_292
*3367 FILLER_8_3
*3368 FILLER_8_304
*3369 FILLER_8_307
*3370 FILLER_8_309
*3371 FILLER_8_312
*3372 FILLER_8_315
*3373 FILLER_8_318
*3374 FILLER_8_39
*3375 FILLER_8_42
*3376 FILLER_8_6
*3377 FILLER_8_69
*3378 FILLER_8_72
*3379 FILLER_8_75
*3380 FILLER_8_78
*3381 FILLER_8_81
*3382 FILLER_8_85
*3383 FILLER_8_88
*3384 FILLER_9_113
*3385 FILLER_9_116
*3386 FILLER_9_119
*3387 FILLER_9_122
*3388 FILLER_9_125
*3389 FILLER_9_128
*3390 FILLER_9_131
*3391 FILLER_9_160
*3392 FILLER_9_163
*3393 FILLER_9_166
*3394 FILLER_9_169
*3395 FILLER_9_191
*3396 FILLER_9_194
*3397 FILLER_9_197
*3398 FILLER_9_200
*3399 FILLER_9_239
*3400 FILLER_9_242
*3401 FILLER_9_273
*3402 FILLER_9_279
*3403 FILLER_9_281
*3404 FILLER_9_284
*3405 FILLER_9_3
*3406 FILLER_9_312
*3407 FILLER_9_315
*3408 FILLER_9_318
*3409 FILLER_9_39
*3410 FILLER_9_46
*3411 FILLER_9_6
*3412 FILLER_9_78
*3413 FILLER_9_81
*3414 FILLER_9_84
*3415 FILLER_9_87
*3416 FILLER_9_9
*3417 FILLER_9_90
*3418 PHY_EDGE_ROW_0_Left_54
*3419 PHY_EDGE_ROW_0_Right_0
*3420 PHY_EDGE_ROW_10_Left_64
*3421 PHY_EDGE_ROW_10_Right_10
*3422 PHY_EDGE_ROW_11_Left_65
*3423 PHY_EDGE_ROW_11_Right_11
*3424 PHY_EDGE_ROW_12_Left_66
*3425 PHY_EDGE_ROW_12_Right_12
*3426 PHY_EDGE_ROW_13_Left_67
*3427 PHY_EDGE_ROW_13_Right_13
*3428 PHY_EDGE_ROW_14_Left_68
*3429 PHY_EDGE_ROW_14_Right_14
*3430 PHY_EDGE_ROW_15_Left_69
*3431 PHY_EDGE_ROW_15_Right_15
*3432 PHY_EDGE_ROW_16_Left_70
*3433 PHY_EDGE_ROW_16_Right_16
*3434 PHY_EDGE_ROW_17_Left_71
*3435 PHY_EDGE_ROW_17_Right_17
*3436 PHY_EDGE_ROW_18_Left_72
*3437 PHY_EDGE_ROW_18_Right_18
*3438 PHY_EDGE_ROW_19_Left_73
*3439 PHY_EDGE_ROW_19_Right_19
*3440 PHY_EDGE_ROW_1_Left_55
*3441 PHY_EDGE_ROW_1_Right_1
*3442 PHY_EDGE_ROW_20_Left_74
*3443 PHY_EDGE_ROW_20_Right_20
*3444 PHY_EDGE_ROW_21_Left_75
*3445 PHY_EDGE_ROW_21_Right_21
*3446 PHY_EDGE_ROW_22_Left_76
*3447 PHY_EDGE_ROW_22_Right_22
*3448 PHY_EDGE_ROW_23_Left_77
*3449 PHY_EDGE_ROW_23_Right_23
*3450 PHY_EDGE_ROW_24_Left_78
*3451 PHY_EDGE_ROW_24_Right_24
*3452 PHY_EDGE_ROW_25_Left_79
*3453 PHY_EDGE_ROW_25_Right_25
*3454 PHY_EDGE_ROW_26_Left_80
*3455 PHY_EDGE_ROW_26_Right_26
*3456 PHY_EDGE_ROW_27_Left_81
*3457 PHY_EDGE_ROW_27_Right_27
*3458 PHY_EDGE_ROW_28_Left_82
*3459 PHY_EDGE_ROW_28_Right_28
*3460 PHY_EDGE_ROW_29_Left_83
*3461 PHY_EDGE_ROW_29_Right_29
*3462 PHY_EDGE_ROW_2_Left_56
*3463 PHY_EDGE_ROW_2_Right_2
*3464 PHY_EDGE_ROW_30_Left_84
*3465 PHY_EDGE_ROW_30_Right_30
*3466 PHY_EDGE_ROW_31_Left_85
*3467 PHY_EDGE_ROW_31_Right_31
*3468 PHY_EDGE_ROW_32_Left_86
*3469 PHY_EDGE_ROW_32_Right_32
*3470 PHY_EDGE_ROW_33_Left_87
*3471 PHY_EDGE_ROW_33_Right_33
*3472 PHY_EDGE_ROW_34_Left_88
*3473 PHY_EDGE_ROW_34_Right_34
*3474 PHY_EDGE_ROW_35_Left_89
*3475 PHY_EDGE_ROW_35_Right_35
*3476 PHY_EDGE_ROW_36_Left_90
*3477 PHY_EDGE_ROW_36_Right_36
*3478 PHY_EDGE_ROW_37_Left_91
*3479 PHY_EDGE_ROW_37_Right_37
*3480 PHY_EDGE_ROW_38_Left_92
*3481 PHY_EDGE_ROW_38_Right_38
*3482 PHY_EDGE_ROW_39_Left_93
*3483 PHY_EDGE_ROW_39_Right_39
*3484 PHY_EDGE_ROW_3_Left_57
*3485 PHY_EDGE_ROW_3_Right_3
*3486 PHY_EDGE_ROW_40_Left_94
*3487 PHY_EDGE_ROW_40_Right_40
*3488 PHY_EDGE_ROW_41_Left_95
*3489 PHY_EDGE_ROW_41_Right_41
*3490 PHY_EDGE_ROW_42_Left_96
*3491 PHY_EDGE_ROW_42_Right_42
*3492 PHY_EDGE_ROW_43_Left_97
*3493 PHY_EDGE_ROW_43_Right_43
*3494 PHY_EDGE_ROW_44_Left_98
*3495 PHY_EDGE_ROW_44_Right_44
*3496 PHY_EDGE_ROW_45_Left_99
*3497 PHY_EDGE_ROW_45_Right_45
*3498 PHY_EDGE_ROW_46_Left_100
*3499 PHY_EDGE_ROW_46_Right_46
*3500 PHY_EDGE_ROW_47_Left_101
*3501 PHY_EDGE_ROW_47_Right_47
*3502 PHY_EDGE_ROW_48_Left_102
*3503 PHY_EDGE_ROW_48_Right_48
*3504 PHY_EDGE_ROW_49_Left_103
*3505 PHY_EDGE_ROW_49_Right_49
*3506 PHY_EDGE_ROW_4_Left_58
*3507 PHY_EDGE_ROW_4_Right_4
*3508 PHY_EDGE_ROW_50_Left_104
*3509 PHY_EDGE_ROW_50_Right_50
*3510 PHY_EDGE_ROW_51_Left_105
*3511 PHY_EDGE_ROW_51_Right_51
*3512 PHY_EDGE_ROW_52_Left_106
*3513 PHY_EDGE_ROW_52_Right_52
*3514 PHY_EDGE_ROW_53_Left_107
*3515 PHY_EDGE_ROW_53_Right_53
*3516 PHY_EDGE_ROW_5_Left_59
*3517 PHY_EDGE_ROW_5_Right_5
*3518 PHY_EDGE_ROW_6_Left_60
*3519 PHY_EDGE_ROW_6_Right_6
*3520 PHY_EDGE_ROW_7_Left_61
*3521 PHY_EDGE_ROW_7_Right_7
*3522 PHY_EDGE_ROW_8_Left_62
*3523 PHY_EDGE_ROW_8_Right_8
*3524 PHY_EDGE_ROW_9_Left_63
*3525 PHY_EDGE_ROW_9_Right_9
*3526 TAP_TAPCELL_ROW_0_108
*3527 TAP_TAPCELL_ROW_0_109
*3528 TAP_TAPCELL_ROW_0_110
*3529 TAP_TAPCELL_ROW_0_111
*3530 TAP_TAPCELL_ROW_0_112
*3531 TAP_TAPCELL_ROW_0_113
*3532 TAP_TAPCELL_ROW_0_114
*3533 TAP_TAPCELL_ROW_0_115
*3534 TAP_TAPCELL_ROW_0_116
*3535 TAP_TAPCELL_ROW_0_117
*3536 TAP_TAPCELL_ROW_0_118
*3537 TAP_TAPCELL_ROW_10_168
*3538 TAP_TAPCELL_ROW_10_169
*3539 TAP_TAPCELL_ROW_10_170
*3540 TAP_TAPCELL_ROW_10_171
*3541 TAP_TAPCELL_ROW_10_172
*3542 TAP_TAPCELL_ROW_10_173
*3543 TAP_TAPCELL_ROW_11_174
*3544 TAP_TAPCELL_ROW_11_175
*3545 TAP_TAPCELL_ROW_11_176
*3546 TAP_TAPCELL_ROW_11_177
*3547 TAP_TAPCELL_ROW_11_178
*3548 TAP_TAPCELL_ROW_12_179
*3549 TAP_TAPCELL_ROW_12_180
*3550 TAP_TAPCELL_ROW_12_181
*3551 TAP_TAPCELL_ROW_12_182
*3552 TAP_TAPCELL_ROW_12_183
*3553 TAP_TAPCELL_ROW_12_184
*3554 TAP_TAPCELL_ROW_13_185
*3555 TAP_TAPCELL_ROW_13_186
*3556 TAP_TAPCELL_ROW_13_187
*3557 TAP_TAPCELL_ROW_13_188
*3558 TAP_TAPCELL_ROW_13_189
*3559 TAP_TAPCELL_ROW_14_190
*3560 TAP_TAPCELL_ROW_14_191
*3561 TAP_TAPCELL_ROW_14_192
*3562 TAP_TAPCELL_ROW_14_193
*3563 TAP_TAPCELL_ROW_14_194
*3564 TAP_TAPCELL_ROW_14_195
*3565 TAP_TAPCELL_ROW_15_196
*3566 TAP_TAPCELL_ROW_15_197
*3567 TAP_TAPCELL_ROW_15_198
*3568 TAP_TAPCELL_ROW_15_199
*3569 TAP_TAPCELL_ROW_15_200
*3570 TAP_TAPCELL_ROW_16_201
*3571 TAP_TAPCELL_ROW_16_202
*3572 TAP_TAPCELL_ROW_16_203
*3573 TAP_TAPCELL_ROW_16_204
*3574 TAP_TAPCELL_ROW_16_205
*3575 TAP_TAPCELL_ROW_16_206
*3576 TAP_TAPCELL_ROW_17_207
*3577 TAP_TAPCELL_ROW_17_208
*3578 TAP_TAPCELL_ROW_17_209
*3579 TAP_TAPCELL_ROW_17_210
*3580 TAP_TAPCELL_ROW_17_211
*3581 TAP_TAPCELL_ROW_18_212
*3582 TAP_TAPCELL_ROW_18_213
*3583 TAP_TAPCELL_ROW_18_214
*3584 TAP_TAPCELL_ROW_18_215
*3585 TAP_TAPCELL_ROW_18_216
*3586 TAP_TAPCELL_ROW_18_217
*3587 TAP_TAPCELL_ROW_19_218
*3588 TAP_TAPCELL_ROW_19_219
*3589 TAP_TAPCELL_ROW_19_220
*3590 TAP_TAPCELL_ROW_19_221
*3591 TAP_TAPCELL_ROW_19_222
*3592 TAP_TAPCELL_ROW_1_119
*3593 TAP_TAPCELL_ROW_1_120
*3594 TAP_TAPCELL_ROW_1_121
*3595 TAP_TAPCELL_ROW_1_122
*3596 TAP_TAPCELL_ROW_1_123
*3597 TAP_TAPCELL_ROW_20_223
*3598 TAP_TAPCELL_ROW_20_224
*3599 TAP_TAPCELL_ROW_20_225
*3600 TAP_TAPCELL_ROW_20_226
*3601 TAP_TAPCELL_ROW_20_227
*3602 TAP_TAPCELL_ROW_20_228
*3603 TAP_TAPCELL_ROW_21_229
*3604 TAP_TAPCELL_ROW_21_230
*3605 TAP_TAPCELL_ROW_21_231
*3606 TAP_TAPCELL_ROW_21_232
*3607 TAP_TAPCELL_ROW_21_233
*3608 TAP_TAPCELL_ROW_22_234
*3609 TAP_TAPCELL_ROW_22_235
*3610 TAP_TAPCELL_ROW_22_236
*3611 TAP_TAPCELL_ROW_22_237
*3612 TAP_TAPCELL_ROW_22_238
*3613 TAP_TAPCELL_ROW_22_239
*3614 TAP_TAPCELL_ROW_23_240
*3615 TAP_TAPCELL_ROW_23_241
*3616 TAP_TAPCELL_ROW_23_242
*3617 TAP_TAPCELL_ROW_23_243
*3618 TAP_TAPCELL_ROW_23_244
*3619 TAP_TAPCELL_ROW_24_245
*3620 TAP_TAPCELL_ROW_24_246
*3621 TAP_TAPCELL_ROW_24_247
*3622 TAP_TAPCELL_ROW_24_248
*3623 TAP_TAPCELL_ROW_24_249
*3624 TAP_TAPCELL_ROW_24_250
*3625 TAP_TAPCELL_ROW_25_251
*3626 TAP_TAPCELL_ROW_25_252
*3627 TAP_TAPCELL_ROW_25_253
*3628 TAP_TAPCELL_ROW_25_254
*3629 TAP_TAPCELL_ROW_25_255
*3630 TAP_TAPCELL_ROW_26_256
*3631 TAP_TAPCELL_ROW_26_257
*3632 TAP_TAPCELL_ROW_26_258
*3633 TAP_TAPCELL_ROW_26_259
*3634 TAP_TAPCELL_ROW_26_260
*3635 TAP_TAPCELL_ROW_26_261
*3636 TAP_TAPCELL_ROW_27_262
*3637 TAP_TAPCELL_ROW_27_263
*3638 TAP_TAPCELL_ROW_27_264
*3639 TAP_TAPCELL_ROW_27_265
*3640 TAP_TAPCELL_ROW_27_266
*3641 TAP_TAPCELL_ROW_28_267
*3642 TAP_TAPCELL_ROW_28_268
*3643 TAP_TAPCELL_ROW_28_269
*3644 TAP_TAPCELL_ROW_28_270
*3645 TAP_TAPCELL_ROW_28_271
*3646 TAP_TAPCELL_ROW_28_272
*3647 TAP_TAPCELL_ROW_29_273
*3648 TAP_TAPCELL_ROW_29_274
*3649 TAP_TAPCELL_ROW_29_275
*3650 TAP_TAPCELL_ROW_29_276
*3651 TAP_TAPCELL_ROW_29_277
*3652 TAP_TAPCELL_ROW_2_124
*3653 TAP_TAPCELL_ROW_2_125
*3654 TAP_TAPCELL_ROW_2_126
*3655 TAP_TAPCELL_ROW_2_127
*3656 TAP_TAPCELL_ROW_2_128
*3657 TAP_TAPCELL_ROW_2_129
*3658 TAP_TAPCELL_ROW_30_278
*3659 TAP_TAPCELL_ROW_30_279
*3660 TAP_TAPCELL_ROW_30_280
*3661 TAP_TAPCELL_ROW_30_281
*3662 TAP_TAPCELL_ROW_30_282
*3663 TAP_TAPCELL_ROW_30_283
*3664 TAP_TAPCELL_ROW_31_284
*3665 TAP_TAPCELL_ROW_31_285
*3666 TAP_TAPCELL_ROW_31_286
*3667 TAP_TAPCELL_ROW_31_287
*3668 TAP_TAPCELL_ROW_31_288
*3669 TAP_TAPCELL_ROW_32_289
*3670 TAP_TAPCELL_ROW_32_290
*3671 TAP_TAPCELL_ROW_32_291
*3672 TAP_TAPCELL_ROW_32_292
*3673 TAP_TAPCELL_ROW_32_293
*3674 TAP_TAPCELL_ROW_32_294
*3675 TAP_TAPCELL_ROW_33_295
*3676 TAP_TAPCELL_ROW_33_296
*3677 TAP_TAPCELL_ROW_33_297
*3678 TAP_TAPCELL_ROW_33_298
*3679 TAP_TAPCELL_ROW_33_299
*3680 TAP_TAPCELL_ROW_34_300
*3681 TAP_TAPCELL_ROW_34_301
*3682 TAP_TAPCELL_ROW_34_302
*3683 TAP_TAPCELL_ROW_34_303
*3684 TAP_TAPCELL_ROW_34_304
*3685 TAP_TAPCELL_ROW_34_305
*3686 TAP_TAPCELL_ROW_35_306
*3687 TAP_TAPCELL_ROW_35_307
*3688 TAP_TAPCELL_ROW_35_308
*3689 TAP_TAPCELL_ROW_35_309
*3690 TAP_TAPCELL_ROW_35_310
*3691 TAP_TAPCELL_ROW_36_311
*3692 TAP_TAPCELL_ROW_36_312
*3693 TAP_TAPCELL_ROW_36_313
*3694 TAP_TAPCELL_ROW_36_314
*3695 TAP_TAPCELL_ROW_36_315
*3696 TAP_TAPCELL_ROW_36_316
*3697 TAP_TAPCELL_ROW_37_317
*3698 TAP_TAPCELL_ROW_37_318
*3699 TAP_TAPCELL_ROW_37_319
*3700 TAP_TAPCELL_ROW_37_320
*3701 TAP_TAPCELL_ROW_37_321
*3702 TAP_TAPCELL_ROW_38_322
*3703 TAP_TAPCELL_ROW_38_323
*3704 TAP_TAPCELL_ROW_38_324
*3705 TAP_TAPCELL_ROW_38_325
*3706 TAP_TAPCELL_ROW_38_326
*3707 TAP_TAPCELL_ROW_38_327
*3708 TAP_TAPCELL_ROW_39_328
*3709 TAP_TAPCELL_ROW_39_329
*3710 TAP_TAPCELL_ROW_39_330
*3711 TAP_TAPCELL_ROW_39_331
*3712 TAP_TAPCELL_ROW_39_332
*3713 TAP_TAPCELL_ROW_3_130
*3714 TAP_TAPCELL_ROW_3_131
*3715 TAP_TAPCELL_ROW_3_132
*3716 TAP_TAPCELL_ROW_3_133
*3717 TAP_TAPCELL_ROW_3_134
*3718 TAP_TAPCELL_ROW_40_333
*3719 TAP_TAPCELL_ROW_40_334
*3720 TAP_TAPCELL_ROW_40_335
*3721 TAP_TAPCELL_ROW_40_336
*3722 TAP_TAPCELL_ROW_40_337
*3723 TAP_TAPCELL_ROW_40_338
*3724 TAP_TAPCELL_ROW_41_339
*3725 TAP_TAPCELL_ROW_41_340
*3726 TAP_TAPCELL_ROW_41_341
*3727 TAP_TAPCELL_ROW_41_342
*3728 TAP_TAPCELL_ROW_41_343
*3729 TAP_TAPCELL_ROW_42_344
*3730 TAP_TAPCELL_ROW_42_345
*3731 TAP_TAPCELL_ROW_42_346
*3732 TAP_TAPCELL_ROW_42_347
*3733 TAP_TAPCELL_ROW_42_348
*3734 TAP_TAPCELL_ROW_42_349
*3735 TAP_TAPCELL_ROW_43_350
*3736 TAP_TAPCELL_ROW_43_351
*3737 TAP_TAPCELL_ROW_43_352
*3738 TAP_TAPCELL_ROW_43_353
*3739 TAP_TAPCELL_ROW_43_354
*3740 TAP_TAPCELL_ROW_44_355
*3741 TAP_TAPCELL_ROW_44_356
*3742 TAP_TAPCELL_ROW_44_357
*3743 TAP_TAPCELL_ROW_44_358
*3744 TAP_TAPCELL_ROW_44_359
*3745 TAP_TAPCELL_ROW_44_360
*3746 TAP_TAPCELL_ROW_45_361
*3747 TAP_TAPCELL_ROW_45_362
*3748 TAP_TAPCELL_ROW_45_363
*3749 TAP_TAPCELL_ROW_45_364
*3750 TAP_TAPCELL_ROW_45_365
*3751 TAP_TAPCELL_ROW_46_366
*3752 TAP_TAPCELL_ROW_46_367
*3753 TAP_TAPCELL_ROW_46_368
*3754 TAP_TAPCELL_ROW_46_369
*3755 TAP_TAPCELL_ROW_46_370
*3756 TAP_TAPCELL_ROW_46_371
*3757 TAP_TAPCELL_ROW_47_372
*3758 TAP_TAPCELL_ROW_47_373
*3759 TAP_TAPCELL_ROW_47_374
*3760 TAP_TAPCELL_ROW_47_375
*3761 TAP_TAPCELL_ROW_47_376
*3762 TAP_TAPCELL_ROW_48_377
*3763 TAP_TAPCELL_ROW_48_378
*3764 TAP_TAPCELL_ROW_48_379
*3765 TAP_TAPCELL_ROW_48_380
*3766 TAP_TAPCELL_ROW_48_381
*3767 TAP_TAPCELL_ROW_48_382
*3768 TAP_TAPCELL_ROW_49_383
*3769 TAP_TAPCELL_ROW_49_384
*3770 TAP_TAPCELL_ROW_49_385
*3771 TAP_TAPCELL_ROW_49_386
*3772 TAP_TAPCELL_ROW_49_387
*3773 TAP_TAPCELL_ROW_4_135
*3774 TAP_TAPCELL_ROW_4_136
*3775 TAP_TAPCELL_ROW_4_137
*3776 TAP_TAPCELL_ROW_4_138
*3777 TAP_TAPCELL_ROW_4_139
*3778 TAP_TAPCELL_ROW_4_140
*3779 TAP_TAPCELL_ROW_50_388
*3780 TAP_TAPCELL_ROW_50_389
*3781 TAP_TAPCELL_ROW_50_390
*3782 TAP_TAPCELL_ROW_50_391
*3783 TAP_TAPCELL_ROW_50_392
*3784 TAP_TAPCELL_ROW_50_393
*3785 TAP_TAPCELL_ROW_51_394
*3786 TAP_TAPCELL_ROW_51_395
*3787 TAP_TAPCELL_ROW_51_396
*3788 TAP_TAPCELL_ROW_51_397
*3789 TAP_TAPCELL_ROW_51_398
*3790 TAP_TAPCELL_ROW_52_399
*3791 TAP_TAPCELL_ROW_52_400
*3792 TAP_TAPCELL_ROW_52_401
*3793 TAP_TAPCELL_ROW_52_402
*3794 TAP_TAPCELL_ROW_52_403
*3795 TAP_TAPCELL_ROW_52_404
*3796 TAP_TAPCELL_ROW_53_405
*3797 TAP_TAPCELL_ROW_53_406
*3798 TAP_TAPCELL_ROW_53_407
*3799 TAP_TAPCELL_ROW_53_408
*3800 TAP_TAPCELL_ROW_53_409
*3801 TAP_TAPCELL_ROW_53_410
*3802 TAP_TAPCELL_ROW_53_411
*3803 TAP_TAPCELL_ROW_53_412
*3804 TAP_TAPCELL_ROW_53_413
*3805 TAP_TAPCELL_ROW_53_414
*3806 TAP_TAPCELL_ROW_53_415
*3807 TAP_TAPCELL_ROW_5_141
*3808 TAP_TAPCELL_ROW_5_142
*3809 TAP_TAPCELL_ROW_5_143
*3810 TAP_TAPCELL_ROW_5_144
*3811 TAP_TAPCELL_ROW_5_145
*3812 TAP_TAPCELL_ROW_6_146
*3813 TAP_TAPCELL_ROW_6_147
*3814 TAP_TAPCELL_ROW_6_148
*3815 TAP_TAPCELL_ROW_6_149
*3816 TAP_TAPCELL_ROW_6_150
*3817 TAP_TAPCELL_ROW_6_151
*3818 TAP_TAPCELL_ROW_7_152
*3819 TAP_TAPCELL_ROW_7_153
*3820 TAP_TAPCELL_ROW_7_154
*3821 TAP_TAPCELL_ROW_7_155
*3822 TAP_TAPCELL_ROW_7_156
*3823 TAP_TAPCELL_ROW_8_157
*3824 TAP_TAPCELL_ROW_8_158
*3825 TAP_TAPCELL_ROW_8_159
*3826 TAP_TAPCELL_ROW_8_160
*3827 TAP_TAPCELL_ROW_8_161
*3828 TAP_TAPCELL_ROW_8_162
*3829 TAP_TAPCELL_ROW_9_163
*3830 TAP_TAPCELL_ROW_9_164
*3831 TAP_TAPCELL_ROW_9_165
*3832 TAP_TAPCELL_ROW_9_166
*3833 TAP_TAPCELL_ROW_9_167
*3834 _0435_
*3835 _0436_
*3836 _0437_
*3837 _0438_
*3838 _0439_
*3839 _0440_
*3840 _0441_
*3841 _0442_
*3842 _0443_
*3843 _0444_
*3844 _0445_
*3845 _0446_
*3846 _0447_
*3847 _0448_
*3848 _0449_
*3849 _0450_
*3850 _0451_
*3851 _0452_
*3852 _0453_
*3853 _0454_
*3854 _0455_
*3855 _0456_
*3856 _0457_
*3857 _0458_
*3858 _0459_
*3859 _0460_
*3860 _0461_
*3861 _0462_
*3862 _0463_
*3863 _0464_
*3864 _0465_
*3865 _0466_
*3866 _0467_
*3867 _0468_
*3868 _0469_
*3869 _0470_
*3870 _0471_
*3871 _0472_
*3872 _0473_
*3873 _0474_
*3874 _0475_
*3875 _0476_
*3876 _0477_
*3877 _0478_
*3878 _0479_
*3879 _0480_
*3880 _0481_
*3881 _0482_
*3882 _0483_
*3883 _0484_
*3884 _0485_
*3885 _0486_
*3886 _0487_
*3887 _0488_
*3888 _0489_
*3889 _0490_
*3890 _0491_
*3891 _0492_
*3892 _0493_
*3893 _0494_
*3894 _0495_
*3895 _0496_
*3896 _0497_
*3897 _0498_
*3898 _0499_
*3899 _0500_
*3900 _0501_
*3901 _0502_
*3902 _0503_
*3903 _0504_
*3904 _0505_
*3905 _0506_
*3906 _0507_
*3907 _0508_
*3908 _0509_
*3909 _0510_
*3910 _0511_
*3911 _0512_
*3912 _0513_
*3913 _0514_
*3914 _0515_
*3915 _0516_
*3916 _0517_
*3917 _0518_
*3918 _0519_
*3919 _0520_
*3920 _0521_
*3921 _0522_
*3922 _0523_
*3923 _0524_
*3924 _0525_
*3925 _0526_
*3926 _0527_
*3927 _0528_
*3928 _0529_
*3929 _0530_
*3930 _0531_
*3931 _0532_
*3932 _0533_
*3933 _0534_
*3934 _0535_
*3935 _0536_
*3936 _0537_
*3937 _0538_
*3938 _0539_
*3939 _0540_
*3940 _0541_
*3941 _0542_
*3942 _0543_
*3943 _0544_
*3944 _0545_
*3945 _0546_
*3946 _0547_
*3947 _0548_
*3948 _0549_
*3949 _0550_
*3950 _0551_
*3951 _0552_
*3952 _0553_
*3953 _0554_
*3954 _0555_
*3955 _0556_
*3956 _0557_
*3957 _0558_
*3958 _0559_
*3959 _0560_
*3960 _0561_
*3961 _0562_
*3962 _0563_
*3963 _0564_
*3964 _0565_
*3965 _0566_
*3966 _0567_
*3967 _0568_
*3968 _0569_
*3969 _0570_
*3970 _0571_
*3971 _0572_
*3972 _0573_
*3973 _0574_
*3974 _0575_
*3975 _0576_
*3976 _0577_
*3977 _0578_
*3978 _0579_
*3979 _0580_
*3980 _0581_
*3981 _0582_
*3982 _0583_
*3983 _0584_
*3984 _0585_
*3985 _0586_
*3986 _0587_
*3987 _0588_
*3988 _0589_
*3989 _0590_
*3990 _0591_
*3991 _0592_
*3992 _0593_
*3993 _0594_
*3994 _0595_
*3995 _0596_
*3996 _0597_
*3997 _0598_
*3998 _0599_
*3999 _0600_
*4000 _0601_
*4001 _0602_
*4002 _0603_
*4003 _0604_
*4004 _0605_
*4005 _0606_
*4006 _0607_
*4007 _0608_
*4008 _0609_
*4009 _0610_
*4010 _0611_
*4011 _0612_
*4012 _0613_
*4013 _0614_
*4014 _0615_
*4015 _0616_
*4016 _0617_
*4017 _0618_
*4018 _0619_
*4019 _0620_
*4020 _0621_
*4021 _0622_
*4022 _0623_
*4023 _0624_
*4024 _0625_
*4025 _0626_
*4026 _0627_
*4027 _0628_
*4028 _0629_
*4029 _0630_
*4030 _0631_
*4031 _0632_
*4032 _0633_
*4033 _0634_
*4034 _0635_
*4035 _0636_
*4036 _0637_
*4037 _0638_
*4038 _0639_
*4039 _0640_
*4040 _0641_
*4041 _0642_
*4042 _0643_
*4043 _0644_
*4044 _0645_
*4045 _0646_
*4046 _0647_
*4047 _0648_
*4048 _0649_
*4049 _0650_
*4050 _0651_
*4051 _0652_
*4052 _0653_
*4053 _0654_
*4054 _0655_
*4055 _0656_
*4056 _0657_
*4057 _0658_
*4058 _0659_
*4059 _0660_
*4060 _0661_
*4061 _0662_
*4062 _0663_
*4063 _0664_
*4064 _0665_
*4065 _0666_
*4066 _0667_
*4067 _0668_
*4068 _0669_
*4069 _0670_
*4070 _0671_
*4071 _0672_
*4072 _0673_
*4073 _0674_
*4074 _0675_
*4075 _0676_
*4076 _0677_
*4077 _0678_
*4078 _0679_
*4079 _0680_
*4080 _0681_
*4081 _0682_
*4082 _0683_
*4083 _0684_
*4084 _0685_
*4085 _0686_
*4086 _0687_
*4087 _0688_
*4088 _0689_
*4089 _0690_
*4090 _0691_
*4091 _0692_
*4092 _0693_
*4093 _0694_
*4094 _0695_
*4095 _0696_
*4096 _0697_
*4097 _0698_
*4098 _0699_
*4099 _0700_
*4100 _0701_
*4101 _0702_
*4102 _0703_
*4103 _0704_
*4104 _0705_
*4105 _0706_
*4106 _0707_
*4107 _0708_
*4108 _0709_
*4109 _0710_
*4110 _0711_
*4111 _0712_
*4112 _0713_
*4113 _0714_
*4114 _0715_
*4115 _0716_
*4116 _0717_
*4117 _0718_
*4118 _0719_
*4119 _0720_
*4120 _0721_
*4121 _0722_
*4122 _0723_
*4123 _0724_
*4124 _0725_
*4125 _0726_
*4126 _0727_
*4127 _0728_
*4128 _0729_
*4129 _0730_
*4130 _0731_
*4131 _0732_
*4132 _0733_
*4133 _0734_
*4134 _0735_
*4135 _0736_
*4136 _0737_
*4137 _0738_
*4138 _0739_
*4139 _0740_
*4140 _0741_
*4141 _0742_
*4142 _0743_
*4143 _0744_
*4144 _0745_
*4145 _0746_
*4146 _0747_
*4147 _0748_
*4148 _0749_
*4149 _0750_
*4150 _0751_
*4151 _0752_
*4152 _0753_
*4153 _0754_
*4154 _0755_
*4155 _0756_
*4156 _0757_
*4157 _0758_
*4158 _0759_
*4159 _0760_
*4160 _0761_
*4161 _0762_
*4162 _0763_
*4163 _0764_
*4164 _0765_
*4165 _0766_
*4166 _0767_
*4167 _0768_
*4168 _0769_
*4169 _0770_
*4170 _0771_
*4171 _0772_
*4172 _0773_
*4173 _0774_
*4174 _0775_
*4175 _0776_
*4176 _0777_
*4177 _0778_
*4178 _0779_
*4179 _0780_
*4180 _0781_
*4181 _0782_
*4182 _0783_
*4183 _0784_
*4184 _0785_
*4185 _0786_
*4186 _0787_
*4187 _0788_
*4188 _0789_
*4189 _0790_
*4190 _0791_
*4191 _0792_
*4192 _0793_
*4193 _0794_
*4194 _0795_
*4195 _0796_
*4196 _0797_
*4197 _0798_
*4198 _0799_
*4199 _0800_
*4200 _0801_
*4201 _0802_
*4202 _0803_
*4203 _0804_
*4204 _0805_
*4205 _0806_
*4206 _0807_
*4207 _0808_
*4208 _0809_
*4209 _0810_
*4210 _0811_
*4211 _0812_
*4212 _0813_
*4213 _0814_
*4214 _0815_
*4215 _0816_
*4216 _0817_
*4217 _0818_
*4218 _0819_
*4219 _0820_
*4220 _0821_
*4221 _0822_
*4222 _0823_
*4223 _0824_
*4224 _0825_
*4225 _0826_
*4226 _0827_
*4227 _0828_
*4228 _0829_
*4229 _0830_
*4230 _0831_
*4231 _0832_
*4232 _0833_
*4233 _0834_
*4234 _0835_
*4235 _0836_
*4236 _0837_
*4237 _0838_
*4238 _0839_
*4239 _0840_
*4240 _0841_
*4241 _0842_
*4242 _0843_
*4243 _0844_
*4244 _0845_
*4245 _0846_
*4246 _0847_
*4247 _0848_
*4248 _0849_
*4249 _0850_
*4250 _0851_
*4251 _0852_
*4252 _0853_
*4253 _0854_
*4254 _0855_
*4255 _0856_
*4256 _0857_
*4257 _0858_
*4258 _0859_
*4259 _0860_
*4260 _0861_
*4261 _0862_
*4262 _0863_
*4263 _0864_
*4264 _0865_
*4265 _0866_
*4266 _0867_
*4267 _0868_
*4268 _0869_
*4269 _0870_
*4270 _0871_
*4271 _0872_
*4272 _0873_
*4273 _0874_
*4274 _0875_
*4275 _0876_
*4276 _0877_
*4277 _0878_
*4278 _0879_
*4279 _0880_
*4280 _0881_
*4281 _0882_
*4282 _0883_
*4283 _0884_
*4284 _0885_
*4285 _0886_
*4286 _0887_
*4287 _0888_
*4288 _0889_
*4289 _0890_
*4290 _0891_
*4291 _0892_
*4292 _0893_
*4293 _0894_
*4294 _0895_
*4295 _0896_
*4296 _0897_
*4297 _0898_
*4298 _0899_
*4299 _0900_
*4300 _0901_
*4301 _0902_
*4302 _0903_
*4303 _0904_
*4304 _0905_
*4305 _0906_
*4306 _0907_
*4307 _0908_
*4308 _0909_
*4309 _0910_
*4310 _0911_
*4311 _0912_
*4312 _0913_
*4313 _0914_
*4314 _0915_
*4315 _0916_
*4316 _0917_
*4317 _0918_
*4318 _0919_
*4319 _0920_
*4320 _0921_
*4321 _0922_
*4322 _0923_
*4323 _0924_
*4324 _0925_
*4325 _0926_
*4326 _0927_
*4327 _0928_
*4328 _0929_
*4329 _0930_
*4330 _0931_
*4331 _0932_
*4332 _0933_
*4333 _0934_
*4334 _0935_
*4335 _0936_
*4336 _0937_
*4337 _0938_
*4338 _0939_
*4339 _0940_
*4340 _0941_
*4341 _0942_
*4342 _0943_
*4343 _0944_
*4344 _0945_
*4345 _0946_
*4346 _0947_
*4347 _0948_
*4348 _0949_
*4349 _0950_
*4350 _0951_
*4351 _0952_
*4352 _0953_
*4353 _0954_
*4354 _0955_
*4355 _0956_
*4356 _0957_
*4357 _0958_
*4358 _0959_
*4359 _0960_
*4360 _0961_
*4361 _0962_
*4362 _0963_
*4363 _0964_
*4364 _0965_
*4365 _0966_
*4366 _0967_
*4367 _0968_
*4368 _0969_
*4369 _0970_
*4370 _0971_
*4371 _0972_
*4372 _0973_
*4373 _0974_
*4374 _0975_
*4375 _0976_
*4376 _0977_
*4377 _0978_
*4378 _0979_
*4379 _0980_
*4380 _0981_
*4381 _0982_
*4382 _0983_
*4383 _0984_
*4384 _0985_
*4385 _0986_
*4386 _0987_
*4387 _0988_
*4388 _0989_
*4389 _0990_
*4390 _0991_
*4391 _0992_
*4392 _0993_
*4393 _0994_
*4394 _0995_
*4395 _0996_
*4396 _0997_
*4397 _0998_
*4398 _0999_
*4399 _1000_
*4400 _1001_
*4401 _1002_
*4402 _1003_
*4403 _1004_
*4404 _1005_
*4405 _1006_
*4406 _1007_
*4407 _1008_
*4408 _1009_
*4409 _1010_
*4410 _1011_
*4411 _1012_
*4412 _1013_
*4413 _1014_
*4414 _1015_
*4415 _1016_
*4416 _1017_
*4417 _1018_
*4418 _1019_
*4419 _1020_
*4420 _1021_
*4421 _1022_
*4422 _1023_
*4423 _1024_
*4424 _1025_
*4425 _1026_
*4426 _1027_
*4427 _1028_
*4428 _1029_
*4429 _1030_
*4430 _1031_
*4431 _1032_
*4432 _1033_
*4433 _1034_
*4434 _1035_
*4435 _1036_
*4436 _1037_
*4437 _1038_
*4438 _1039_
*4439 _1040_
*4440 _1041_
*4441 _1042_
*4442 _1043_
*4443 _1044_
*4444 _1045_
*4445 _1046_
*4446 _1047_
*4447 _1048_
*4448 _1049_
*4449 _1050_
*4450 _1051_
*4451 _1052_
*4452 _1053_
*4453 _1054_
*4454 _1055_
*4455 _1055__87
*4456 _1056_
*4457 _1057_
*4458 _1058_
*4459 _1059_
*4460 _1060_
*4461 _1061_
*4462 _1062_
*4463 _1063_
*4464 _1064_
*4465 _1065_
*4466 _1066_
*4467 _1067_
*4468 _1068_
*4469 _1069_
*4470 _1070_
*4471 _1071_
*4472 _1072_
*4473 _1073_
*4474 _1074_
*4475 _1075_
*4476 _1076_
*4477 _1077_
*4478 _1078_
*4479 _1079_
*4480 _1080_
*4481 _1081_
*4482 _1082_
*4483 _1083_
*4484 _1084_
*4485 _1085_
*4486 _1086_
*4487 _1087_
*4488 _1088_
*4489 _1089_
*4490 _1090_
*4491 _1091_
*4492 _1092_
*4493 _1093_
*4494 _1094_
*4495 _1095_
*4496 _1096_
*4497 _1097_
*4498 _1098_
*4499 _1099_
*4500 _1100_
*4501 _1101_
*4502 _1102_
*4503 _1103_
*4504 _1104_
*4505 _1105_
*4506 _1106_
*4507 _1107_
*4508 _1108_
*4509 _1109_
*4510 _1110_
*4511 _1111_
*4512 _1112_
*4513 _1113_
*4514 _1114_
*4515 _1115_
*4516 _1116_
*4517 _1117_
*4518 _1118_
*4519 _1119_
*4520 _1120_
*4521 _1121_
*4522 _1122_
*4523 _1123_
*4524 _1124_
*4525 _1125_
*4526 _1126_
*4527 _1127_
*4528 _1128_
*4529 _1129_
*4530 _1130_
*4531 _1131_
*4532 _1132_
*4533 _1133_
*4534 _1134_
*4535 _1135_
*4536 _1136_
*4537 _1137_
*4538 _1138_
*4539 _1139_
*4540 _1140_
*4541 _1141_
*4542 _1142_
*4543 _1143_
*4544 _1144_
*4545 _1145_
*4546 _1146_
*4547 _1147_
*4548 _1148_
*4549 _1149_
*4550 _1150_
*4551 _1151_
*4552 _1152_
*4553 _1153_
*4554 _1154_
*4555 _1155_
*4556 _1156_
*4557 _1157_
*4558 _1158_
*4559 _1159_
*4560 _1160_
*4561 _1161_
*4562 _1162_
*4563 _1163_
*4564 _1164_
*4565 _1165_
*4566 _1166_
*4567 _1167_
*4568 _1168_
*4569 _1169_
*4570 _1170_
*4571 _1171_
*4572 _1172_
*4573 _1173_
*4574 _1174_
*4575 _1175_
*4576 _1176_
*4577 _1177_
*4578 _1178_
*4579 _1179_
*4580 _1180_
*4581 _1181_
*4582 _1182_
*4583 _1183_
*4584 _1184_
*4585 _1185_
*4586 _1186_
*4587 _1187_
*4588 _1188_
*4589 _1189_
*4590 _1190_
*4591 _1191_
*4592 _1192_
*4593 _1193_
*4594 _1194_
*4595 _1195_
*4596 _1196_
*4597 _1201_
*4598 _1202_
*4599 _1203_
*4600 _1204_
*4601 _1205_
*4602 clkbuf_0_clk
*4603 clkbuf_4_0_0_clk
*4604 clkbuf_4_10_0_clk
*4605 clkbuf_4_11_0_clk
*4606 clkbuf_4_12_0_clk
*4607 clkbuf_4_13_0_clk
*4608 clkbuf_4_14_0_clk
*4609 clkbuf_4_15_0_clk
*4610 clkbuf_4_1_0_clk
*4611 clkbuf_4_2_0_clk
*4612 clkbuf_4_3_0_clk
*4613 clkbuf_4_4_0_clk
*4614 clkbuf_4_5_0_clk
*4615 clkbuf_4_6_0_clk
*4616 clkbuf_4_7_0_clk
*4617 clkbuf_4_8_0_clk
*4618 clkbuf_4_9_0_clk
*4619 clkbuf_5_0__f_clk
*4620 clkbuf_5_10__f_clk
*4621 clkbuf_5_11__f_clk
*4622 clkbuf_5_12__f_clk
*4623 clkbuf_5_13__f_clk
*4624 clkbuf_5_14__f_clk
*4625 clkbuf_5_15__f_clk
*4626 clkbuf_5_16__f_clk
*4627 clkbuf_5_17__f_clk
*4628 clkbuf_5_18__f_clk
*4629 clkbuf_5_19__f_clk
*4630 clkbuf_5_1__f_clk
*4631 clkbuf_5_20__f_clk
*4632 clkbuf_5_21__f_clk
*4633 clkbuf_5_22__f_clk
*4634 clkbuf_5_23__f_clk
*4635 clkbuf_5_24__f_clk
*4636 clkbuf_5_25__f_clk
*4637 clkbuf_5_26__f_clk
*4638 clkbuf_5_27__f_clk
*4639 clkbuf_5_28__f_clk
*4640 clkbuf_5_29__f_clk
*4641 clkbuf_5_2__f_clk
*4642 clkbuf_5_30__f_clk
*4643 clkbuf_5_31__f_clk
*4644 clkbuf_5_3__f_clk
*4645 clkbuf_5_4__f_clk
*4646 clkbuf_5_5__f_clk
*4647 clkbuf_5_6__f_clk
*4648 clkbuf_5_7__f_clk
*4649 clkbuf_5_8__f_clk
*4650 clkbuf_5_9__f_clk
*4651 clkload0
*4652 clkload1
*4653 clkload2
*4654 clkload3
*4655 clkload4
*4656 clkload5
*4657 clkload6
*4658 fanout10
*4659 fanout11
*4660 fanout12
*4661 fanout13
*4662 fanout14
*4663 fanout15
*4664 fanout16
*4665 fanout17
*4666 fanout18
*4667 fanout19
*4668 fanout20
*4669 fanout21
*4670 fanout22
*4671 fanout23
*4672 fanout24
*4673 fanout25
*4674 fanout26
*4675 fanout27
*4676 fanout28
*4677 fanout29
*4678 fanout30
*4679 fanout31
*4680 fanout32
*4681 fanout33
*4682 fanout34
*4683 fanout35
*4684 fanout36
*4685 fanout37
*4686 fanout38
*4687 fanout39
*4688 fanout40
*4689 fanout41
*4690 fanout42
*4691 fanout43
*4692 fanout44
*4693 fanout45
*4694 fanout46
*4695 fanout47
*4696 fanout48
*4697 fanout49
*4698 fanout50
*4699 fanout51
*4700 fanout52
*4701 fanout53
*4702 fanout54
*4703 fanout55
*4704 fanout56
*4705 fanout57
*4706 fanout58
*4707 fanout59
*4708 fanout60
*4709 fanout61
*4710 fanout62
*4711 fanout63
*4712 fanout64
*4713 fanout65
*4714 fanout66
*4715 fanout67
*4716 fanout68
*4717 fanout69
*4718 fanout70
*4719 fanout71
*4720 fanout72
*4721 fanout73
*4722 fanout74
*4723 fanout75
*4724 fanout76
*4725 fanout77
*4726 fanout78
*4727 fanout79
*4728 fanout8
*4729 fanout80
*4730 fanout81
*4731 fanout82
*4732 fanout83
*4733 fanout84
*4734 fanout9
*4735 hold100
*4736 hold101
*4737 hold102
*4738 hold103
*4739 hold104
*4740 hold105
*4741 hold106
*4742 hold107
*4743 hold108
*4744 hold109
*4745 hold110
*4746 hold111
*4747 hold112
*4748 hold113
*4749 hold114
*4750 hold115
*4751 hold116
*4752 hold117
*4753 hold118
*4754 hold119
*4755 hold120
*4756 hold121
*4757 hold122
*4758 hold123
*4759 hold124
*4760 hold125
*4761 hold126
*4762 hold127
*4763 hold128
*4764 hold129
*4765 hold130
*4766 hold131
*4767 hold132
*4768 hold133
*4769 hold134
*4770 hold135
*4771 hold136
*4772 hold137
*4773 hold138
*4774 hold139
*4775 hold140
*4776 hold141
*4777 hold142
*4778 hold143
*4779 hold144
*4780 hold145
*4781 hold146
*4782 hold147
*4783 hold148
*4784 hold149
*4785 hold150
*4786 hold151
*4787 hold152
*4788 hold153
*4789 hold154
*4790 hold155
*4791 hold156
*4792 hold157
*4793 hold158
*4794 hold159
*4795 hold160
*4796 hold161
*4797 hold162
*4798 hold163
*4799 hold164
*4800 hold165
*4801 hold166
*4802 hold167
*4803 hold168
*4804 hold169
*4805 hold170
*4806 hold171
*4807 hold172
*4808 hold173
*4809 hold174
*4810 hold175
*4811 hold176
*4812 hold177
*4813 hold178
*4814 hold179
*4815 hold180
*4816 hold181
*4817 hold182
*4818 hold183
*4819 hold184
*4820 hold185
*4821 hold186
*4822 hold187
*4823 hold188
*4824 hold189
*4825 hold190
*4826 hold191
*4827 hold192
*4828 hold193
*4829 hold194
*4830 hold195
*4831 hold196
*4832 hold197
*4833 hold198
*4834 hold199
*4835 hold200
*4836 hold201
*4837 hold202
*4838 hold203
*4839 hold88
*4840 hold89
*4841 hold90
*4842 hold91
*4843 hold92
*4844 hold93
*4845 hold94
*4846 hold95
*4847 hold96
*4848 hold97
*4849 hold98
*4850 hold99
*4851 input1
*4852 output2
*4853 output3
*4854 output4
*4855 output5
*4856 output6
*4857 output7
*4858 riscv_soc_top
*4859 riscv_soc_top_85
*4860 riscv_soc_top_86

*PORTS
clk I
led[0] O
led[1] O
led[2] O
led[3] O
led[4] O
led[5] O
led[6] O
led[7] O
rst_n I
uart_rx I
uart_tx O

*D_NET *3 0.0145497
*CONN
*P clk I
*I *4602:A I *D sky130_fd_sc_hd__clkbuf_16
*CAP
1 clk 0.00542414
2 *4602:A 0
3 *3:22 0.00109103
4 *3:16 0.00651518
5 *3:16 *3862:B 9.01075e-06
6 *3:16 *3918:A 5.08052e-05
7 *3:16 *3919:B2 0.000128795
8 *3:16 *3919:C1 1.42744e-05
9 *3:16 *3942:C 4.18631e-06
10 *3:16 *4165:A1 0
11 *3:16 *4166:A1 0
12 *3:16 *4255:A2 0
13 *3:16 *4256:B 0
14 *3:16 *4353:A3 0.000472686
15 *3:16 *4360:B1 0.000226638
16 *3:16 *106:10 7.09279e-05
17 *3:16 *449:246 0
18 *3:16 *459:12 0.000269616
19 *3:16 *747:25 0.000124942
20 *3:16 *747:40 0
21 *3:16 *748:23 1.10983e-05
22 *3:22 *3917:B1 8.42954e-05
23 *3:22 *3934:B2 0
24 *3:22 *751:10 5.20662e-05
*RES
1 clk *3:16 38.7769 
2 *3:16 *3:22 16.91 
3 *3:22 *4602:A 3.6 
*END

*D_NET *4 0.00149108
*CONN
*P led[0] O
*I *4852:X O *D sky130_fd_sc_hd__clkdlybuf4s25_1
*CAP
1 led[0] 0.000731777
2 *4852:X 0.000731777
3 led[0] *4852:A 2.75229e-05
*RES
1 *4852:X led[0] 14.955 
*END

*D_NET *5 0.00153365
*CONN
*P led[1] O
*I *4853:X O *D sky130_fd_sc_hd__clkdlybuf4s25_1
*CAP
1 led[1] 0.000753397
2 *4853:X 0.000753397
3 led[1] *4853:A 2.68526e-05
*RES
1 *4853:X led[1] 14.955 
*END

*D_NET *6 0.00148046
*CONN
*P led[2] O
*I *4854:X O *D sky130_fd_sc_hd__clkdlybuf4s25_1
*CAP
1 led[2] 0.000740231
2 *4854:X 0.000740231
*RES
1 *4854:X led[2] 14.955 
*END

*D_NET *7 0.00148046
*CONN
*P led[3] O
*I *4855:X O *D sky130_fd_sc_hd__clkdlybuf4s25_1
*CAP
1 led[3] 0.000740231
2 *4855:X 0.000740231
*RES
1 *4855:X led[3] 14.955 
*END

*D_NET *8 0.00163108
*CONN
*P led[4] O
*I *4856:X O *D sky130_fd_sc_hd__clkdlybuf4s25_1
*CAP
1 led[4] 0.00081554
2 *4856:X 0.00081554
*RES
1 *4856:X led[4] 16.3013 
*END

*D_NET *9 0.00126541
*CONN
*P led[5] O
*I *4858:LO O *D sky130_fd_sc_hd__conb_1
*CAP
1 led[5] 0.000632704
2 *4858:LO 0.000632704
*RES
1 *4858:LO led[5] 14.3962 
*END

*D_NET *10 0.00122062
*CONN
*P led[6] O
*I *4859:LO O *D sky130_fd_sc_hd__conb_1
*CAP
1 led[6] 0.000610311
2 *4859:LO 0.000610311
*RES
1 *4859:LO led[6] 14.3962 
*END

*D_NET *11 0.00122062
*CONN
*P led[7] O
*I *4860:LO O *D sky130_fd_sc_hd__conb_1
*CAP
1 led[7] 0.000610311
2 *4860:LO 0.000610311
*RES
1 *4860:LO led[7] 14.3962 
*END

*D_NET *12 0.000887446
*CONN
*P rst_n I
*I *4851:A I *D sky130_fd_sc_hd__clkdlybuf4s25_1
*CAP
1 rst_n 0.000443723
2 *4851:A 0.000443723
*RES
1 rst_n *4851:A 10.2607 
*END

*D_NET *14 0.000783807
*CONN
*P uart_tx O
*I *4857:X O *D sky130_fd_sc_hd__clkdlybuf4s25_1
*CAP
1 uart_tx 0.000391904
2 *4857:X 0.000391904
3 uart_tx *4430:RESET_B 0
*RES
1 *4857:X uart_tx 6.24867 
*END

*D_NET *15 0.000255529
*CONN
*I *4409:D I *D sky130_fd_sc_hd__dfrtp_2
*I *3870:X O *D sky130_fd_sc_hd__o211a_2
*CAP
1 *4409:D 7.43444e-05
2 *3870:X 7.43444e-05
3 *4409:D *3849:A2 3.43327e-05
4 *4409:D *3870:A2 4.82919e-05
5 *4409:D *4409:CLK 1.83847e-05
6 *4409:D *107:111 5.83121e-06
*RES
1 *3870:X *4409:D 4.685 
*END

*D_NET *16 0.000196177
*CONN
*I *4775:A I *D sky130_fd_sc_hd__dlygate4sd3_1
*I *3868:X O *D sky130_fd_sc_hd__o21a_2
*CAP
1 *4775:A 9.80883e-05
2 *3868:X 9.80883e-05
*RES
1 *3868:X *4775:A 8.58 
*END

*D_NET *17 0.00495519
*CONN
*I *4415:D I *D sky130_fd_sc_hd__dfrtp_2
*I *3921:B1 I *D sky130_fd_sc_hd__a31oi_2
*I *3867:X O *D sky130_fd_sc_hd__and3_2
*CAP
1 *4415:D 3.76639e-05
2 *3921:B1 0.000375879
3 *3867:X 0.00060497
4 *17:10 0.00101851
5 *3921:B1 *3920:A 5.4003e-05
6 *3921:B1 *3921:A1 0.00011379
7 *3921:B1 *3921:A2 1.79098e-05
8 *3921:B1 *3925:A3 0.000120655
9 *3921:B1 *4783:A 0.000116158
10 *3921:B1 *154:6 5.83121e-06
11 *3921:B1 *664:27 0.000362965
12 *3921:B1 *664:33 0.000288309
13 *3921:B1 *703:90 0.000203769
14 *3921:B1 *713:12 0.000398059
15 *3921:B1 *741:14 0.000209179
16 *17:10 *3867:C 0.000799881
17 *17:10 *3938:B2 1.91597e-05
18 *17:10 *664:27 0.000131401
19 *17:10 *713:12 7.70938e-05
*RES
1 *3867:X *17:10 12.93 
2 *17:10 *3921:B1 16.83 
3 *17:10 *4415:D 4.05 
*END

*D_NET *18 0.00172325
*CONN
*I *4401:D I *D sky130_fd_sc_hd__dfrtp_2
*I *3863:X O *D sky130_fd_sc_hd__o21ba_2
*CAP
1 *4401:D 0.00062144
2 *3863:X 0.00062144
3 *4401:D *4531:RESET_B 0
4 *4401:D *4655:A 1.71013e-05
5 *4401:D *449:222 0.000122474
6 *4401:D *449:226 3.99879e-05
7 *4401:D *449:296 3.24055e-05
8 *4401:D *475:8 0
9 *4401:D *475:65 0
10 *4401:D *519:14 6.52265e-05
11 *4401:D *519:20 0.000203178
*RES
1 *3863:X *4401:D 17.025 
*END

*D_NET *19 0.00116059
*CONN
*I *4818:A I *D sky130_fd_sc_hd__dlygate4sd3_1
*I *3860:X O *D sky130_fd_sc_hd__o21a_2
*CAP
1 *4818:A 0.000279395
2 *3860:X 0.000279395
3 *4818:A *3868:A1 0.000111293
4 *4818:A *3948:A_N 3.68999e-05
5 *4818:A *3948:B 0.000119866
6 *4818:A *3950:A1 0.000274012
7 *4818:A *520:23 1.31227e-05
8 *4818:A *984:36 4.66108e-05
*RES
1 *3860:X *4818:A 12.24 
*END

*D_NET *20 0.00186115
*CONN
*I *3925:B1 I *D sky130_fd_sc_hd__a31oi_2
*I *4407:D I *D sky130_fd_sc_hd__dfrtp_2
*I *3859:X O *D sky130_fd_sc_hd__and3_2
*CAP
1 *3925:B1 0.000407593
2 *4407:D 0.000112789
3 *3859:X 6.72118e-05
4 *20:6 0.000587594
5 *3925:B1 *3925:A2 0
6 *3925:B1 *3938:A2 3.68596e-05
7 *3925:B1 *4410:RESET_B 0.000133947
8 *3925:B1 *4712:A 0.000362958
9 *3925:B1 *449:13 0
10 *3925:B1 *449:222 0.000100528
11 *4407:D *482:27 4.80182e-05
12 *20:6 *482:27 3.64998e-06
*RES
1 *3859:X *20:6 2.395 
2 *20:6 *4407:D 3.1 
3 *20:6 *3925:B1 15.14 
*END

*D_NET *21 0.00136283
*CONN
*I *4414:D I *D sky130_fd_sc_hd__dfrtp_2
*I *3945:X O *D sky130_fd_sc_hd__a32o_2
*CAP
1 *4414:D 0.000435764
2 *3945:X 0.000435764
3 *4414:D *3923:A2 0
4 *4414:D *3945:A1 5.2961e-05
5 *4414:D *3945:A2 0.000376278
6 *4414:D *3945:B1 6.20667e-05
7 *4414:D *449:222 0
*RES
1 *3945:X *4414:D 14.28 
*END

*D_NET *22 0.00156055
*CONN
*I *4408:D I *D sky130_fd_sc_hd__dfrtp_2
*I *3952:X O *D sky130_fd_sc_hd__a21o_2
*CAP
1 *4408:D 0.000285228
2 *3952:X 0.000285228
3 *4408:D *3853:A 0.000104451
4 *4408:D *3868:B1 0.000531079
5 *4408:D *3952:A1 1.34594e-05
6 *4408:D *3952:A2 2.75145e-05
7 *4408:D *3952:B1 8.64421e-05
8 *4408:D *4402:CLK 1.06226e-05
9 *4408:D *100:14 6.8296e-05
10 *4408:D *101:8 0.000103378
11 *4408:D *483:21 4.48485e-05
*RES
1 *3952:X *4408:D 15.345 
*END

*D_NET *23 0.000654067
*CONN
*I *4410:D I *D sky130_fd_sc_hd__dfrtp_2
*I *3950:X O *D sky130_fd_sc_hd__a32o_2
*CAP
1 *4410:D 0.000158525
2 *3950:X 0.000158525
3 *4410:D *3925:A2 0.000116165
4 *4410:D *3941:A 0.000157968
5 *4410:D *4410:RESET_B 6.28843e-05
*RES
1 *3950:X *4410:D 11.1 
*END

*D_NET *24 0.00193238
*CONN
*I *4411:D I *D sky130_fd_sc_hd__dfrtp_2
*I *3949:X O *D sky130_fd_sc_hd__a21o_2
*CAP
1 *4411:D 0.000450637
2 *3949:X 0.000450637
3 *4411:D *4363:A2 2.03719e-05
4 *4411:D *4365:A1 1.74776e-05
5 *4411:D *4365:B2 0.000409085
6 *4411:D *4411:CLK 9.04764e-05
7 *4411:D *4427:CLK 0.000155489
8 *4411:D *449:39 3.33839e-05
9 *4411:D *482:69 0.000300844
10 *4411:D *541:10 3.97604e-06
*RES
1 *3949:X *4411:D 17.1187 
*END

*D_NET *25 0.000355023
*CONN
*I *4814:A I *D sky130_fd_sc_hd__dlygate4sd3_1
*I *3947:X O *D sky130_fd_sc_hd__a32o_2
*CAP
1 *4814:A 0.000110136
2 *3947:X 0.000110136
3 *4814:A *3947:B2 0.00013475
4 *4814:A *89:23 0
*RES
1 *3947:X *4814:A 9.285 
*END

*D_NET *26 0.00129385
*CONN
*I *4406:D I *D sky130_fd_sc_hd__dfrtp_2
*I *3934:X O *D sky130_fd_sc_hd__a32o_2
*CAP
1 *4406:D 0.000190449
2 *3934:X 0.000190449
3 *4406:D *3934:B1 5.50989e-05
4 *4406:D *3934:B2 0.000473648
5 *4406:D *3945:B1 0.00011852
6 *4406:D *3945:B2 0.000123751
7 *4406:D *167:35 9.13951e-05
8 *4406:D *518:38 5.05437e-05
*RES
1 *3934:X *4406:D 14.145 
*END

*D_NET *27 0.000749224
*CONN
*I *4752:A I *D sky130_fd_sc_hd__dlygate4sd3_1
*I *3941:Y O *D sky130_fd_sc_hd__nand2_2
*CAP
1 *4752:A 0.000182712
2 *3941:Y 0.000182712
3 *4752:A *3855:A 0
4 *4752:A *4400:CLK 6.47516e-05
5 *4752:A *4404:CLK 3.00381e-05
6 *4752:A *100:14 0
7 *4752:A *529:23 0.000289011
*RES
1 *3941:Y *4752:A 11.07 
*END

*D_NET *28 0.000889412
*CONN
*I *4402:D I *D sky130_fd_sc_hd__dfrtp_2
*I *3939:X O *D sky130_fd_sc_hd__a32o_2
*CAP
1 *4402:D 0.000232904
2 *3939:X 0.000232904
3 *4402:D *3939:A2 7.06865e-05
4 *4402:D *3939:A3 0.000165795
5 *4402:D *3941:A 0.000187123
*RES
1 *3939:X *4402:D 11.265 
*END

*D_NET *29 0.000498353
*CONN
*I *4403:D I *D sky130_fd_sc_hd__dfrtp_2
*I *3938:X O *D sky130_fd_sc_hd__a22o_2
*CAP
1 *4403:D 0.000122741
2 *3938:X 0.000122741
3 *4403:D *3867:B 4.82919e-05
4 *4403:D *3867:C 4.80182e-05
5 *4403:D *4407:RESET_B 9.50342e-06
6 *4403:D *449:13 6.74403e-05
7 *4403:D *482:10 7.96171e-05
*RES
1 *3938:X *4403:D 10.485 
*END

*D_NET *30 0.00139347
*CONN
*I *4404:D I *D sky130_fd_sc_hd__dfrtp_2
*I *3936:X O *D sky130_fd_sc_hd__a31o_2
*CAP
1 *4404:D 0.000288652
2 *3936:X 0.000288652
3 *4404:D *3873:A0 0
4 *4404:D *3935:A2 0
5 *4404:D *3936:A3 1.34594e-05
6 *4404:D *3941:B 0.000334476
7 *4404:D *529:23 1.73877e-05
8 *4404:D *529:57 0.000138762
9 *4404:D *744:34 0.000312083
*RES
1 *3936:X *4404:D 14.055 
*END

*D_NET *31 0.00186719
*CONN
*I *4451:D I *D sky130_fd_sc_hd__dfstp_2
*I *3929:X O *D sky130_fd_sc_hd__a311o_2
*CAP
1 *4451:D 0.000522231
2 *3929:X 0.000522231
3 *4451:D *3922:A 1.77595e-05
4 *4451:D *3922:B 0.000185793
5 *4451:D *3929:A1 0
6 *4451:D *3929:B1 0.000299647
7 *4451:D *154:38 0.000122872
8 *4451:D *159:14 0.000123955
9 *4451:D *476:70 7.27003e-05
*RES
1 *3929:X *4451:D 16.11 
*END

*D_NET *32 0.00108308
*CONN
*I *4452:D I *D sky130_fd_sc_hd__dfrtp_2
*I *3926:X O *D sky130_fd_sc_hd__a22o_2
*CAP
1 *4452:D 0.000136685
2 *3926:X 0.000136685
3 *4452:D *3923:A1 0.000248254
4 *4452:D *3926:A2 5.33085e-05
5 *4452:D *4452:CLK 0.000361231
6 *4452:D *4713:A 4.99619e-05
7 *4452:D *154:16 3.95269e-05
8 *4452:D *743:10 1.03323e-05
9 *4452:D *745:27 4.70999e-05
*RES
1 *3926:X *4452:D 12.6 
*END

*D_NET *33 0.00159561
*CONN
*I *4453:D I *D sky130_fd_sc_hd__dfrtp_2
*I *3923:X O *D sky130_fd_sc_hd__a22o_2
*CAP
1 *4453:D 0.000450543
2 *3923:X 0.000450543
3 *4453:D *3923:A1 3.4437e-05
4 *4453:D *3923:A2 6.52393e-05
5 *4453:D *3923:B2 0.000288091
6 *4453:D *3926:B2 0.000136625
7 *4453:D *3927:A_N 5.7957e-05
8 *4453:D *4424:RESET_B 7.40582e-05
9 *4453:D *4719:A 2.75145e-05
10 *4453:D *4793:A 0
11 *4453:D *154:16 1.05984e-05
*RES
1 *3923:X *4453:D 16.5 
*END

*D_NET *34 0.00106254
*CONN
*I *4448:D I *D sky130_fd_sc_hd__dfstp_2
*I *3919:X O *D sky130_fd_sc_hd__a221o_2
*CAP
1 *4448:D 0.000338264
2 *3919:X 0.000338264
3 *4448:D *3918:B 6.83538e-05
4 *4448:D *682:14 0.000116151
5 *4448:D *749:42 0.000201508
*RES
1 *3919:X *4448:D 12.135 
*END

*D_NET *35 0.00075086
*CONN
*I *4444:D I *D sky130_fd_sc_hd__dfstp_2
*I *3891:X O *D sky130_fd_sc_hd__a21o_2
*CAP
1 *4444:D 0.000159968
2 *3891:X 0.000159968
3 *4444:D *3891:B1 0.000108886
4 *4444:D *4073:A 0.000138551
5 *4444:D *4398:B_N 4.66108e-05
6 *4444:D *126:10 0.000136877
*RES
1 *3891:X *4444:D 10.32 
*END

*D_NET *36 0.000276181
*CONN
*I *4445:D I *D sky130_fd_sc_hd__dfrtp_2
*I *3889:X O *D sky130_fd_sc_hd__a2bb2o_2
*CAP
1 *4445:D 9.95545e-05
2 *3889:X 9.95545e-05
3 *4445:D *3889:A1_N 3.00381e-05
4 *4445:D *4445:CLK 0
5 *4445:D *125:10 4.70343e-05
*RES
1 *3889:X *4445:D 9.03 
*END

*D_NET *37 0.00044322
*CONN
*I *4446:D I *D sky130_fd_sc_hd__dfrtp_2
*I *3888:X O *D sky130_fd_sc_hd__a32o_2
*CAP
1 *4446:D 5.49566e-05
2 *3888:X 5.49566e-05
3 *4446:D *3887:A2 0.000156916
4 *4446:D *4724:A 0.000176391
*RES
1 *3888:X *4446:D 9.345 
*END

*D_NET *38 0.000790465
*CONN
*I *4447:D I *D sky130_fd_sc_hd__dfrtp_2
*I *3887:X O *D sky130_fd_sc_hd__a22o_2
*CAP
1 *4447:D 0.000251195
2 *3887:X 0.000251195
3 *4447:D *3887:A2 1.61983e-05
4 *4447:D *3887:B1 0.00017713
5 *4447:D *4724:A 1.76774e-05
6 *4447:D *449:192 7.70707e-05
*RES
1 *3887:X *4447:D 12.435 
*END

*D_NET *39 0.00165801
*CONN
*I *4467:D I *D sky130_fd_sc_hd__dfrtp_2
*I *4048:X O *D sky130_fd_sc_hd__and2_2
*CAP
1 *4467:D 0.000488285
2 *4048:X 0.000488285
3 *4467:D *4048:A 0
4 *4467:D *4054:A1 8.53011e-05
5 *4467:D *4054:B1 0.00028891
6 *4467:D *4467:CLK 7.39411e-05
7 *4467:D *4468:CLK 5.14627e-05
8 *4467:D *4702:A 0.000181824
9 *4467:D *642:28 0
10 *4467:D *714:20 0
*RES
1 *4048:X *4467:D 17.655 
*END

*D_NET *40 0.000549095
*CONN
*I *4468:D I *D sky130_fd_sc_hd__dfrtp_2
*I *4049:X O *D sky130_fd_sc_hd__and2_2
*CAP
1 *4468:D 0.000185055
2 *4049:X 0.000185055
3 *4468:D *4054:B1 0.00017025
4 *4468:D *642:28 0
5 *4468:D *714:61 8.73389e-06
*RES
1 *4049:X *4468:D 10.065 
*END

*D_NET *41 0.000545613
*CONN
*I *4465:D I *D sky130_fd_sc_hd__dfrtp_2
*I *4050:X O *D sky130_fd_sc_hd__o21a_2
*CAP
1 *4465:D 0.000213547
2 *4050:X 0.000213547
3 *4465:D *4051:B1 0.00011852
4 *4465:D *4466:D 0
*RES
1 *4050:X *4465:D 10.755 
*END

*D_NET *42 0.00110039
*CONN
*I *4466:D I *D sky130_fd_sc_hd__dfrtp_2
*I *4051:X O *D sky130_fd_sc_hd__o21a_2
*CAP
1 *4466:D 0.000350181
2 *4051:X 0.000350181
3 *4466:D *4051:B1 0
4 *4466:D *4457:CLK 0
5 *4466:D *4465:CLK 4.7043e-05
6 *4466:D *259:50 0.000114492
7 *4466:D *666:81 0.000114492
8 *4466:D *714:61 0.000124007
9 *4465:D *4466:D 0
*RES
1 *4051:X *4466:D 13.545 
*END

*D_NET *43 0.000633817
*CONN
*I *4463:D I *D sky130_fd_sc_hd__dfrtp_2
*I *4053:X O *D sky130_fd_sc_hd__o21a_2
*CAP
1 *4463:D 0.000300306
2 *4053:X 0.000300306
3 *4463:D *714:20 3.32056e-05
*RES
1 *4053:X *4463:D 11.535 
*END

*D_NET *44 0.00115575
*CONN
*I *4464:D I *D sky130_fd_sc_hd__dfrtp_2
*I *4054:X O *D sky130_fd_sc_hd__o21a_2
*CAP
1 *4464:D 0.000318741
2 *4054:X 0.000318741
3 *4464:D *4054:A1 0.000278193
4 *4464:D *4467:CLK 8.52972e-05
5 *4464:D *142:20 7.21262e-05
6 *4464:D *261:41 8.26522e-05
*RES
1 *4054:X *4464:D 13.965 
*END

*D_NET *45 0.00108015
*CONN
*I *4461:D I *D sky130_fd_sc_hd__dfrtp_2
*I *4058:X O *D sky130_fd_sc_hd__a31o_2
*CAP
1 *4461:D 0.00030781
2 *4058:X 0.00030781
3 *4461:D *4058:A2 4.91189e-05
4 *4461:D *4058:A3 2.75145e-05
5 *4461:D *4059:B1 8.2854e-05
6 *4461:D *4745:A 0.000280924
7 *4461:D *470:18 2.41231e-05
*RES
1 *4058:X *4461:D 13.5787 
*END

*D_NET *46 0.00117831
*CONN
*I *4745:A I *D sky130_fd_sc_hd__dlygate4sd3_1
*I *4059:Y O *D sky130_fd_sc_hd__a211oi_2
*CAP
1 *4745:A 0.000198591
2 *4059:Y 0.000198591
3 *4745:A *4059:B1 0.000453593
4 *4745:A *4623:A 4.66108e-05
5 *4461:D *4745:A 0.000280924
*RES
1 *4059:Y *4745:A 13.11 
*END

*D_NET *47 0.0011975
*CONN
*I *4459:D I *D sky130_fd_sc_hd__dfrtp_2
*I *4061:X O *D sky130_fd_sc_hd__and2_2
*CAP
1 *4459:D 0.000286057
2 *4061:X 0.000286057
3 *4459:D *4459:RESET_B 7.47284e-06
4 *4459:D *4583:CLK 0.000281655
5 *4459:D *265:12 0.00016122
6 *4459:D *469:36 2.1742e-05
7 *4459:D *469:42 0.0001533
*RES
1 *4061:X *4459:D 13.9087 
*END

*D_NET *48 0.00058598
*CONN
*I *4460:D I *D sky130_fd_sc_hd__dfrtp_2
*I *4062:X O *D sky130_fd_sc_hd__and2_2
*CAP
1 *4460:D 0.000216446
2 *4062:X 0.000216446
3 *4460:D *4061:A 5.05521e-05
4 *4460:D *4583:CLK 0.000102536
5 *4460:D *4622:A 0
*RES
1 *4062:X *4460:D 11.16 
*END

*D_NET *49 0.00118341
*CONN
*I *4457:D I *D sky130_fd_sc_hd__dfrtp_2
*I *4063:X O *D sky130_fd_sc_hd__o31a_2
*CAP
1 *4457:D 0.000258241
2 *4063:X 0.000258241
3 *4457:D *3901:C 3.54721e-05
4 *4457:D *4047:B 0.00013891
5 *4457:D *4051:B1 1.91597e-05
6 *4457:D *4063:A2 0.000336604
7 *4457:D *4848:A 3.18465e-05
8 *4457:D *666:64 5.80063e-05
9 *4457:D *666:81 4.69244e-05
*RES
1 *4063:X *4457:D 13.4438 
*END

*D_NET *50 0.00156395
*CONN
*I *4458:D I *D sky130_fd_sc_hd__dfrtp_2
*I *4064:X O *D sky130_fd_sc_hd__o31a_2
*CAP
1 *4458:D 0.000283858
2 *4064:X 0.000283858
3 *4458:D *3901:B 0.000429061
4 *4458:D *3905:A1 1.174e-05
5 *4458:D *4060:C 3.27276e-05
6 *4458:D *4064:A3 0.000118081
7 *4458:D *4738:A 0.000114649
8 *4458:D *259:21 0.000158639
9 *4458:D *259:38 8.81442e-05
10 *4458:D *668:31 4.31979e-05
*RES
1 *4064:X *4458:D 15.3 
*END

*D_NET *51 0.000371632
*CONN
*I *4472:D I *D sky130_fd_sc_hd__dfrtp_2
*I *4066:X O *D sky130_fd_sc_hd__and2_2
*CAP
1 *4472:D 0.000129039
2 *4066:X 0.000129039
3 *4472:D *4067:A 4.80285e-05
4 *4472:D *714:20 6.5525e-05
*RES
1 *4066:X *4472:D 9.375 
*END

*D_NET *52 0.000594671
*CONN
*I *4473:D I *D sky130_fd_sc_hd__dfrtp_2
*I *4067:X O *D sky130_fd_sc_hd__and2_2
*CAP
1 *4473:D 0.000297335
2 *4067:X 0.000297335
3 *4473:D *3988:A 0
4 *4473:D *4472:CLK 0
5 *4473:D *4811:A 0
*RES
1 *4067:X *4473:D 11.19 
*END

*D_NET *53 0.000838457
*CONN
*I *4474:D I *D sky130_fd_sc_hd__dfrtp_2
*I *4071:X O *D sky130_fd_sc_hd__a31o_2
*CAP
1 *4474:D 0.000277042
2 *4071:X 0.000277042
3 *4474:D *4071:A1 0.000106419
4 *4474:D *4475:CLK 0.000136909
5 *4474:D *4688:A 0
6 *4474:D *4693:A 3.68596e-05
7 *4474:D *4740:A 0
8 *4474:D *264:8 0
9 *4474:D *470:20 4.18603e-06
10 *4474:D *668:10 0
*RES
1 *4071:X *4474:D 13.365 
*END

*D_NET *54 0.000370876
*CONN
*I *4475:D I *D sky130_fd_sc_hd__dfrtp_2
*I *4072:X O *D sky130_fd_sc_hd__o211a_2
*CAP
1 *4475:D 0.000100061
2 *4072:X 0.000100061
3 *4475:D *4071:B1 3.45679e-05
4 *4475:D *4688:A 7.89767e-05
5 *4475:D *267:8 5.72091e-05
*RES
1 *4072:X *4475:D 9.63 
*END

*D_NET *55 0.000166078
*CONN
*I *4737:A I *D sky130_fd_sc_hd__dlygate4sd3_1
*I *4349:X O *D sky130_fd_sc_hd__o32a_2
*CAP
1 *4737:A 1.23724e-05
2 *4349:X 1.23724e-05
3 *4737:A *261:65 5.30673e-05
4 *4737:A *671:40 8.8266e-05
*RES
1 *4349:X *4737:A 3.995 
*END

*D_NET *56 0.000556446
*CONN
*I *4417:D I *D sky130_fd_sc_hd__dfrtp_2
*I *4350:X O *D sky130_fd_sc_hd__o31a_2
*CAP
1 *4417:D 0.000275541
2 *4350:X 0.000275541
3 *4417:D *4354:A1 0
4 *4417:D *86:36 0
5 *4417:D *497:77 0
6 *4417:D *503:10 5.36384e-06
*RES
1 *4350:X *4417:D 10.605 
*END

*D_NET *57 0.00108611
*CONN
*I *4418:D I *D sky130_fd_sc_hd__dfrtp_2
*I *4351:X O *D sky130_fd_sc_hd__o21a_2
*CAP
1 *4418:D 0.000394074
2 *4351:X 0.000394074
3 *4418:D *4355:A2 7.23602e-05
4 *4418:D *4644:A 0.000115891
5 *4418:D *107:47 7.23602e-05
6 *4418:D *491:6 3.73473e-05
*RES
1 *4351:X *4418:D 12.5925 
*END

*D_NET *58 0.00104351
*CONN
*I *4419:D I *D sky130_fd_sc_hd__dfrtp_2
*I *4352:X O *D sky130_fd_sc_hd__o21a_2
*CAP
1 *4419:D 0.000463677
2 *4352:X 0.000463677
3 *4419:D *4354:A3 0
4 *4419:D *4356:B1 0
5 *4419:D *4423:CLK 0
6 *4419:D *4423:D 0.000116151
7 *4419:D *4666:A 0
8 *4419:D *107:47 0
9 *4419:D *642:28 0
*RES
1 *4352:X *4419:D 14.76 
*END

*D_NET *59 0.000197062
*CONN
*I *4741:A I *D sky130_fd_sc_hd__dlygate4sd3_1
*I *4353:X O *D sky130_fd_sc_hd__o32a_2
*CAP
1 *4741:A 1.02651e-05
2 *4353:X 1.02651e-05
3 *4741:A *4353:A2 8.8266e-05
4 *4741:A *4353:A3 8.8266e-05
*RES
1 *4353:X *4741:A 3.995 
*END

*D_NET *60 0.000915273
*CONN
*I *4421:D I *D sky130_fd_sc_hd__dfrtp_2
*I *4354:X O *D sky130_fd_sc_hd__o31a_2
*CAP
1 *4421:D 0.000297366
2 *4354:X 0.000297366
3 *4421:D *4421:CLK 8.53113e-06
4 *4421:D *642:28 3.38982e-05
5 *4421:D *683:84 0.000278111
*RES
1 *4354:X *4421:D 11.535 
*END

*D_NET *61 0.00152444
*CONN
*I *4422:D I *D sky130_fd_sc_hd__dfrtp_2
*I *4355:X O *D sky130_fd_sc_hd__o21a_2
*CAP
1 *4422:D 0.000629383
2 *4355:X 0.000629383
3 *4422:D *4012:A 0.000164874
4 *4422:D *4012:B 4.18603e-06
5 *4422:D *4355:B1 0
6 *4422:D *449:266 9.66106e-05
7 *4422:D *676:20 0
*RES
1 *4355:X *4422:D 15.6488 
*END

*D_NET *62 0.000599939
*CONN
*I *4423:D I *D sky130_fd_sc_hd__dfrtp_2
*I *4356:X O *D sky130_fd_sc_hd__o21a_2
*CAP
1 *4423:D 0.000210333
2 *4356:X 0.000210333
3 *4423:D *4666:A 0
4 *4423:D *4701:A 6.31208e-05
5 *4419:D *4423:D 0.000116151
*RES
1 *4356:X *4423:D 10.41 
*END

*D_NET *63 0.000473584
*CONN
*I *4424:D I *D sky130_fd_sc_hd__dfrtp_2
*I *4358:X O *D sky130_fd_sc_hd__a22o_2
*CAP
1 *4424:D 0.000218358
2 *4358:X 0.000218358
3 *4424:D *4358:A1 0
4 *4424:D *4569:CLK 3.68682e-05
*RES
1 *4358:X *4424:D 10.0913 
*END

*D_NET *64 0.00125315
*CONN
*I *4425:D I *D sky130_fd_sc_hd__dfrtp_2
*I *4360:X O *D sky130_fd_sc_hd__a22o_2
*CAP
1 *4425:D 0.000280609
2 *4360:X 0.000280609
3 *4425:D *3870:A1 0
4 *4425:D *3870:C1 7.36562e-05
5 *4425:D *4359:B 0.000232504
6 *4425:D *4471:D 0.000213528
7 *4425:D *495:33 0.00017225
*RES
1 *4360:X *4425:D 14.46 
*END

*D_NET *65 0.000548978
*CONN
*I *4426:D I *D sky130_fd_sc_hd__dfrtp_2
*I *4363:X O *D sky130_fd_sc_hd__a221o_2
*CAP
1 *4426:D 0.000168412
2 *4363:X 0.000168412
3 *4426:D *4365:B1 8.43944e-05
4 *4426:D *482:69 9.05592e-05
5 *4426:D *742:12 3.72007e-05
*RES
1 *4363:X *4426:D 9.81 
*END

*D_NET *66 0.000379648
*CONN
*I *4427:D I *D sky130_fd_sc_hd__dfrtp_2
*I *4365:X O *D sky130_fd_sc_hd__a221o_2
*CAP
1 *4427:D 0.000121097
2 *4365:X 0.000121097
3 *4427:D *4365:A2 1.08758e-05
4 *4427:D *4427:CLK 4.12775e-05
5 *4427:D *4427:RESET_B 8.53011e-05
*RES
1 *4365:X *4427:D 5.39 
*END

*D_NET *67 0.00118704
*CONN
*I *4428:D I *D sky130_fd_sc_hd__dfrtp_2
*I *4366:X O *D sky130_fd_sc_hd__o21a_2
*CAP
1 *4428:D 0.000118655
2 *4366:X 0.000118655
3 *4428:D *4476:RESET_B 0.000164679
4 *4428:D *115:12 0.0004706
5 *4428:D *707:12 0.000314452
*RES
1 *4366:X *4428:D 12.66 
*END

*D_NET *68 0.000382952
*CONN
*I *4429:D I *D sky130_fd_sc_hd__dfrtp_2
*I *4367:X O *D sky130_fd_sc_hd__o21a_2
*CAP
1 *4429:D 0.000191476
2 *4367:X 0.000191476
3 *4429:D *4367:A2 0
*RES
1 *4367:X *4429:D 9.72 
*END

*D_NET *69 0.000247978
*CONN
*I *4430:D I *D sky130_fd_sc_hd__dfrtp_2
*I *4372:X O *D sky130_fd_sc_hd__a31o_2
*CAP
1 *4430:D 0.000105989
2 *4372:X 0.000105989
3 *4430:D *4372:B1 0
4 *4430:D *490:30 3.59997e-05
*RES
1 *4372:X *4430:D 8.775 
*END

*D_NET *70 0.00028106
*CONN
*I *4431:D I *D sky130_fd_sc_hd__dfrtp_2
*I *4374:X O *D sky130_fd_sc_hd__a31o_2
*CAP
1 *4431:D 7.08629e-05
2 *4374:X 7.08629e-05
3 *4431:D *4372:A3 5.2089e-05
4 *4431:D *490:39 3.89528e-05
5 *4431:D *651:86 4.82919e-05
*RES
1 *4374:X *4431:D 8.775 
*END

*D_NET *71 0.000722772
*CONN
*I *4432:D I *D sky130_fd_sc_hd__dfrtp_2
*I *4376:X O *D sky130_fd_sc_hd__a31o_2
*CAP
1 *4432:D 0.000303242
2 *4376:X 0.000303242
3 *4432:D *4376:A1 3.81908e-06
4 *4432:D *4376:A3 5.30673e-05
5 *4432:D *4376:B1 1.8558e-05
6 *4432:D *4432:CLK 4.08438e-05
*RES
1 *4376:X *4432:D 7.94 
*END

*D_NET *72 0.000466856
*CONN
*I *4433:D I *D sky130_fd_sc_hd__dfrtp_2
*I *4378:X O *D sky130_fd_sc_hd__a31o_2
*CAP
1 *4433:D 0.00011742
2 *4378:X 0.00011742
3 *4433:D *4377:B 0
4 *4433:D *4380:A2 0
5 *4433:D *4380:B1 0
6 *4433:D *4434:RESET_B 0.000185405
7 *4433:D *4856:A 4.66108e-05
*RES
1 *4378:X *4433:D 9.795 
*END

*D_NET *73 0.000925207
*CONN
*I *4756:A I *D sky130_fd_sc_hd__dlygate4sd3_1
*I *4380:X O *D sky130_fd_sc_hd__a31o_2
*CAP
1 *4756:A 0.000277747
2 *4380:X 0.000277747
3 *4756:A *4379:A 0.000216945
4 *4756:A *4381:A 3.25831e-05
5 *4756:A *4382:A2 0
6 *4756:A *4755:A 0.000120186
*RES
1 *4380:X *4756:A 13.365 
*END

*D_NET *74 0.000597115
*CONN
*I *4435:D I *D sky130_fd_sc_hd__dfrtp_2
*I *4382:X O *D sky130_fd_sc_hd__a31o_2
*CAP
1 *4435:D 0.00014616
2 *4382:X 0.00014616
3 *4435:D *4383:B 0
4 *4435:D *4384:B1 0.000143266
5 *4435:D *4601:A 0.000161529
*RES
1 *4382:X *4435:D 10.32 
*END

*D_NET *75 0.000634301
*CONN
*I *4436:D I *D sky130_fd_sc_hd__dfrtp_2
*I *4384:X O *D sky130_fd_sc_hd__a31o_2
*CAP
1 *4436:D 0.000176038
2 *4384:X 0.000176038
3 *4436:D *4384:A2 4.92062e-05
4 *4436:D *4436:CLK 9.37731e-05
5 *4436:D *4601:A 0
6 *4436:D *715:89 0.000139245
*RES
1 *4384:X *4436:D 10.665 
*END

*D_NET *76 0.000376067
*CONN
*I *4437:D I *D sky130_fd_sc_hd__dfrtp_2
*I *4386:X O *D sky130_fd_sc_hd__a31o_2
*CAP
1 *4437:D 0.000145129
2 *4386:X 0.000145129
3 *4437:D *4384:A3 5.2089e-05
4 *4437:D *4437:CLK 3.37194e-05
5 *4437:D *4596:D 0
*RES
1 *4386:X *4437:D 9.39375 
*END

*D_NET *77 0.000214805
*CONN
*I *4438:D I *D sky130_fd_sc_hd__dfrtp_2
*I *4388:X O *D sky130_fd_sc_hd__a31o_2
*CAP
1 *4438:D 8.20317e-05
2 *4388:X 8.20317e-05
3 *4438:D *4438:CLK 5.07419e-05
*RES
1 *4388:X *4438:D 4.685 
*END

*D_NET *78 0.00117415
*CONN
*I *4439:D I *D sky130_fd_sc_hd__dfrtp_2
*I *4389:X O *D sky130_fd_sc_hd__a2bb2o_2
*CAP
1 *4439:D 0.000322053
2 *4389:X 0.000322053
3 *4439:D *4387:B 0.000163056
4 *4439:D *4388:B1 0.000234674
5 *4439:D *489:10 3.68682e-05
6 *4439:D *709:40 9.54399e-05
*RES
1 *4389:X *4439:D 12.225 
*END

*D_NET *79 0.00135739
*CONN
*I *4440:D I *D sky130_fd_sc_hd__dfrtp_2
*I *4392:X O *D sky130_fd_sc_hd__o21a_2
*CAP
1 *4440:D 0.000519442
2 *4392:X 0.000519442
3 *4440:D *4440:RESET_B 0.000112964
4 *4440:D *454:8 0.000205546
*RES
1 *4392:X *4440:D 15.525 
*END

*D_NET *80 0.000814124
*CONN
*I *4441:D I *D sky130_fd_sc_hd__dfrtp_2
*I *4394:X O *D sky130_fd_sc_hd__a21o_2
*CAP
1 *4441:D 0.000318082
2 *4394:X 0.000318082
3 *4441:D *4596:RESET_B 0
4 *4441:D *4637:A 1.56428e-05
5 *4441:D *454:8 0.000162318
*RES
1 *4394:X *4441:D 11.61 
*END

*D_NET *81 0.00124005
*CONN
*I *4442:D I *D sky130_fd_sc_hd__dfrtp_2
*I *4397:X O *D sky130_fd_sc_hd__and2_2
*CAP
1 *4442:D 0.000450996
2 *4397:X 0.000450996
3 *4442:D *4442:CLK 0.000103489
4 *4442:D *4443:CLK 0.00023457
5 *4442:D *454:8 0
*RES
1 *4397:X *4442:D 13.995 
*END

*D_NET *82 0.00046351
*CONN
*I *4443:D I *D sky130_fd_sc_hd__dfrtp_2
*I *4399:X O *D sky130_fd_sc_hd__a21o_2
*CAP
1 *4443:D 0.000139211
2 *4399:X 0.000139211
3 *4443:D *4399:A2 7.66554e-05
4 *4443:D *4399:B1 0
5 *4443:D *446:8 9.3062e-06
6 *4443:D *449:177 9.91257e-05
*RES
1 *4399:X *4443:D 10.065 
*END

*D_NET *83 0.00160969
*CONN
*I *3889:A1_N I *D sky130_fd_sc_hd__a2bb2o_2
*I *4391:A1 I *D sky130_fd_sc_hd__o21ai_2
*I *3834:Y O *D sky130_fd_sc_hd__inv_2
*CAP
1 *3889:A1_N 0.000398239
2 *4391:A1 7.24005e-05
3 *3834:Y 8.91614e-05
4 *83:10 0.0005598
5 *4391:A1 *3886:C 0.000129735
6 *4391:A1 *4396:B1 1.01661e-05
7 *4391:A1 *4397:B 6.35535e-05
8 *83:10 *3886:C 9.50342e-06
9 *83:10 *4397:B 5.72004e-05
10 *83:10 *124:10 0.000141599
11 *83:10 *715:31 4.82919e-05
12 *4445:D *3889:A1_N 3.00381e-05
*RES
1 *3834:Y *83:10 5.685 
2 *83:10 *4391:A1 5.49 
3 *83:10 *3889:A1_N 9.5025 
*END

*D_NET *84 0.00173343
*CONN
*I *3942:C I *D sky130_fd_sc_hd__and4b_2
*I *3918:A I *D sky130_fd_sc_hd__nor2_2
*I *3835:Y O *D sky130_fd_sc_hd__inv_2
*CAP
1 *3942:C 0.000155304
2 *3918:A 0.000278171
3 *3835:Y 8.19294e-06
4 *84:8 0.000441668
5 *3918:A *3919:A2 2.87433e-05
6 *3918:A *3919:B1 1.1392e-05
7 *3918:A *3919:B2 4.20162e-06
8 *3918:A *3919:C1 7.28902e-06
9 *3918:A *749:42 0.000339883
10 *3942:C *3847:B1 0.00027299
11 *3942:C *3851:A3 6.52265e-05
12 *3942:C *3942:A_N 4.82863e-05
13 *3942:C *747:25 1.70935e-05
14 *84:8 *3942:A_N 0
15 *3:16 *3918:A 5.08052e-05
16 *3:16 *3942:C 4.18631e-06
*RES
1 *3835:Y *84:8 3.8325 
2 *84:8 *3918:A 8.9175 
3 *84:8 *3942:C 7.3725 
*END

*D_NET *85 0.000295738
*CONN
*I *3871:A2 I *D sky130_fd_sc_hd__a21o_2
*I *3836:Y O *D sky130_fd_sc_hd__inv_2
*CAP
1 *3871:A2 6.67137e-05
2 *3836:Y 6.67137e-05
3 *3871:A2 *3871:B1 0.000162311
*RES
1 *3836:Y *3871:A2 4.685 
*END

*D_NET *86 0.010358
*CONN
*I *3896:B I *D sky130_fd_sc_hd__nand2_2
*I *4060:B I *D sky130_fd_sc_hd__or3_2
*I *3905:A1 I *D sky130_fd_sc_hd__a31o_2
*I *3911:A I *D sky130_fd_sc_hd__or4_2
*I *4065:B I *D sky130_fd_sc_hd__or3_2
*I *4350:A1 I *D sky130_fd_sc_hd__o31a_2
*I *4354:A1 I *D sky130_fd_sc_hd__o31a_2
*I *3953:A I *D sky130_fd_sc_hd__nor2_2
*I *3837:Y O *D sky130_fd_sc_hd__inv_2
*CAP
1 *3896:B 0.000759752
2 *4060:B 0
3 *3905:A1 9.98983e-05
4 *3911:A 3.55506e-05
5 *4065:B 0.000111562
6 *4350:A1 3.27348e-05
7 *4354:A1 0.000222421
8 *3953:A 0.000164908
9 *3837:Y 0
10 *86:71 0.000247746
11 *86:65 0.000958868
12 *86:36 0.000198573
13 *86:25 0.00066251
14 *86:21 0.000956556
15 *86:8 0.00111134
16 *86:6 0.000462512
17 *3896:B *3902:C_N 1.37583e-05
18 *3896:B *3904:B 0
19 *3896:B *4064:B1 0.000144647
20 *3896:B *131:17 0.000271308
21 *3896:B *259:38 0.000166958
22 *3896:B *259:44 3.96088e-05
23 *3896:B *259:50 1.91597e-05
24 *3896:B *449:113 8.97642e-05
25 *3896:B *666:81 2.49909e-05
26 *3896:B *686:10 0.000341363
27 *3905:A1 *3901:B 2.41307e-05
28 *3905:A1 *3904:B 0.000176515
29 *3905:A1 *4738:A 4.28112e-06
30 *3911:A *4469:CLK 0
31 *3953:A *148:12 0.000226943
32 *3953:A *149:18 0
33 *3953:A *259:8 0.000187759
34 *4065:B *3892:A 0
35 *4065:B *4350:A3 3.64741e-05
36 *4354:A1 *4350:A3 0.000186297
37 *4354:A1 *4417:RESET_B 0
38 *4354:A1 *683:84 0
39 *86:8 *3906:B 0
40 *86:8 *3906:C 4.87683e-05
41 *86:8 *3913:A2 0
42 *86:8 *3913:B2 0
43 *86:8 *4064:B1 1.0397e-05
44 *86:8 *148:12 0.000136406
45 *86:8 *259:8 0.000836935
46 *86:8 *259:21 0.00018712
47 *86:8 *668:44 0.000213753
48 *86:21 *3911:B 2.36616e-05
49 *86:21 *4469:CLK 0.000158965
50 *86:25 *3911:B 4.05674e-06
51 *86:25 *3911:C 4.51031e-05
52 *86:36 *4350:A3 5.88148e-05
53 *86:65 *4064:B1 1.21329e-05
54 *86:65 *259:21 0.000161076
55 *86:65 *259:38 8.25644e-06
56 *86:65 *668:44 0.000147786
57 *86:71 *4060:A 0.000266384
58 *86:71 *4738:A 4.77807e-05
59 *4417:D *4354:A1 0
60 *4417:D *86:36 0
61 *4458:D *3905:A1 1.174e-05
*RES
1 *3837:Y *86:6 3.6 
2 *86:6 *86:8 12.09 
3 *86:8 *3953:A 8.295 
4 *86:8 *86:21 7.97 
5 *86:21 *86:25 6.245 
6 *86:25 *4354:A1 8.295 
7 *86:25 *86:36 1.2525 
8 *86:36 *4350:A1 4.2825 
9 *86:36 *4065:B 5.3625 
10 *86:21 *3911:A 2.215 
11 *86:6 *86:65 2.145 
12 *86:65 *86:71 4.88 
13 *86:71 *3905:A1 7.745 
14 *86:71 *4060:B 1.6 
15 *86:65 *3896:B 17.925 
*END

*D_NET *87 0.00698227
*CONN
*I *3905:A2 I *D sky130_fd_sc_hd__a31o_2
*I *3900:B I *D sky130_fd_sc_hd__and4_2
*I *3908:A I *D sky130_fd_sc_hd__or4_2
*I *4046:A I *D sky130_fd_sc_hd__or3_2
*I *3954:A I *D sky130_fd_sc_hd__nor2_2
*I *3838:Y O *D sky130_fd_sc_hd__inv_2
*CAP
1 *3905:A2 0.000594159
2 *3900:B 0.000206109
3 *3908:A 9.38709e-05
4 *4046:A 0.000232921
5 *3954:A 0
6 *3838:Y 6.84841e-05
7 *87:34 0.000389448
8 *87:30 0.000809841
9 *87:14 0.000712608
10 *87:8 0.000674384
11 *3900:B *3906:A 0.000236541
12 *3900:B *672:55 8.9257e-05
13 *3905:A2 *3837:A 0.000157237
14 *3905:A2 *3901:C 3.32959e-05
15 *3905:A2 *3904:B 8.97085e-05
16 *3905:A2 *3904:C 0.000431706
17 *3905:A2 *666:58 2.85623e-05
18 *3905:A2 *666:64 4.72301e-05
19 *3908:A *3908:C 2.88357e-05
20 *3908:A *3913:A2 0.000160338
21 *3908:A *497:27 6.18661e-05
22 *4046:A *4470:D 4.82863e-05
23 *87:8 *261:22 2.47313e-05
24 *87:14 *3906:D_N 0.000103192
25 *87:14 *4354:A2 2.97004e-06
26 *87:14 *138:25 0.000322813
27 *87:14 *666:14 0.000206824
28 *87:14 *670:25 2.54779e-05
29 *87:14 *670:27 6.23375e-05
30 *87:14 *670:29 8.47455e-05
31 *87:14 *670:31 7.1635e-05
32 *87:30 *3906:D_N 6.70801e-05
33 *87:30 *666:14 8.53113e-06
34 *87:30 *666:58 0.000249536
35 *87:34 *3913:A2 0.000369862
36 *87:34 *666:64 8.52972e-05
37 *87:34 *672:59 0.000102546
*RES
1 *3838:Y *87:8 4.395 
2 *87:8 *87:14 13.55 
3 *87:14 *3954:A 1.6 
4 *87:14 *4046:A 5.17 
5 *87:8 *87:30 3.165 
6 *87:30 *87:34 5.555 
7 *87:34 *3908:A 4.135 
8 *87:34 *3900:B 8.9 
9 *87:30 *3905:A2 13.08 
*END

*D_NET *88 0.00486715
*CONN
*I *3941:A I *D sky130_fd_sc_hd__nand2_2
*I *4072:C1 I *D sky130_fd_sc_hd__o211a_2
*I *3839:Y O *D sky130_fd_sc_hd__inv_2
*CAP
1 *3941:A 0.00148415
2 *4072:C1 2.84799e-05
3 *3839:Y 0.00151263
4 *3941:A *3939:A1 0.000479149
5 *3941:A *3939:A3 5.97809e-05
6 *3941:A *3939:B1 9.99636e-06
7 *3941:A *3939:B2 0.000108788
8 *3941:A *4072:A1 0.000316415
9 *3941:A *4410:CLK 0.000136276
10 *3941:A *4751:A 1.12578e-05
11 *3941:A *703:90 4.97962e-05
12 *4072:C1 *4071:B1 0.000203178
13 *4072:C1 *4072:A1 0.000122155
14 *4402:D *3941:A 0.000187123
15 *4410:D *3941:A 0.000157968
*RES
1 *3839:Y *4072:C1 5.03 
2 *3839:Y *3941:A 26.57 
*END

*D_NET *89 0.00478176
*CONN
*I *3875:A I *D sky130_fd_sc_hd__or3_2
*I *3951:A I *D sky130_fd_sc_hd__nand2_2
*I *3947:A2 I *D sky130_fd_sc_hd__a32o_2
*I *3936:A2 I *D sky130_fd_sc_hd__a31o_2
*I *3840:Y O *D sky130_fd_sc_hd__inv_2
*CAP
1 *3875:A 0.000344669
2 *3951:A 0.00031603
3 *3947:A2 9.02001e-05
4 *3936:A2 4.75724e-05
5 *3840:Y 9.96564e-05
6 *89:23 0.000697267
7 *89:10 0.00038992
8 *89:8 0.000495636
9 *3875:A *3873:S 6.10014e-05
10 *3875:A *3875:B 4.21757e-05
11 *3875:A *3875:C 3.70488e-05
12 *3875:A *3946:A 0.000132564
13 *3936:A2 *3936:A1 4.82863e-05
14 *3936:A2 *529:57 5.30673e-05
15 *3947:A2 *4686:A 2.36716e-05
16 *3947:A2 *665:22 2.69217e-05
17 *3951:A *3951:B 0.000543609
18 *3951:A *3952:A1 0.000312075
19 *3951:A *3952:A2 6.98275e-05
20 *3951:A *528:47 3.52569e-05
21 *89:8 *3935:A1 0.000193801
22 *89:8 *3936:A1 0.000158965
23 *89:8 *4428:CLK 0
24 *89:10 *3873:A0 2.75145e-05
25 *89:10 *3935:A2 1.17409e-05
26 *89:10 *3936:A1 0.000314745
27 *89:10 *3936:B1 0.00012657
28 *89:10 *529:57 6.20787e-05
29 *89:23 *3873:S 0
30 *89:23 *3947:B1 0
31 *89:23 *3952:A1 4.28112e-06
32 *89:23 *3952:A2 5.51406e-06
33 *89:23 *103:18 0
34 *89:23 *103:29 0
35 *89:23 *665:32 1.00941e-05
36 *4814:A *89:23 0
*RES
1 *3840:Y *89:8 4.135 
2 *89:8 *89:10 2.865 
3 *89:10 *3936:A2 2.755 
4 *89:10 *89:23 6.44 
5 *89:23 *3947:A2 4.74 
6 *89:23 *3951:A 13.14 
7 *89:8 *3875:A 11.93 
*END

*D_NET *90 0.00639156
*CONN
*I *3875:B I *D sky130_fd_sc_hd__or3_2
*I *3946:A I *D sky130_fd_sc_hd__nand2_2
*I *3939:A2 I *D sky130_fd_sc_hd__a32o_2
*I *3950:A2 I *D sky130_fd_sc_hd__a32o_2
*I *3841:Y O *D sky130_fd_sc_hd__inv_2
*CAP
1 *3875:B 8.3443e-05
2 *3946:A 0.000365161
3 *3939:A2 8.85625e-05
4 *3950:A2 0.000476167
5 *3841:Y 0.00118324
6 *90:45 0.000776214
7 *90:10 0.00142036
8 *3875:B *3875:C 1.16578e-05
9 *3939:A2 *3929:A3 2.10433e-05
10 *3950:A2 *3925:A2 0.000118081
11 *3950:A2 *4400:RESET_B 0.000251106
12 *3950:A2 *4402:RESET_B 0
13 *3950:A2 *703:90 0.000158072
14 *90:10 *4400:D 0.000131253
15 *90:10 *4400:RESET_B 0.000663054
16 *90:10 *102:34 9.53803e-05
17 *90:10 *523:10 2.11084e-05
18 *90:10 *987:14 0.00012657
19 *90:45 *3840:A 4.39734e-05
20 *90:45 *3873:A1 0
21 *90:45 *3935:A1 1.73877e-05
22 *90:45 *3940:A1 5.02217e-05
23 *90:45 *707:10 0
24 *90:45 *707:12 0
25 *90:45 *987:14 4.40812e-05
26 *3875:A *3875:B 4.21757e-05
27 *3875:A *3946:A 0.000132564
28 *4402:D *3939:A2 7.06865e-05
*RES
1 *3841:Y *90:10 16.225 
2 *90:10 *3950:A2 8.74 
3 *90:10 *3939:A2 6.98 
4 *3841:Y *90:45 11.57 
5 *90:45 *3946:A 7.15 
6 *90:45 *3875:B 3.1 
*END

*D_NET *91 0.000425194
*CONN
*I *4059:A1 I *D sky130_fd_sc_hd__a211oi_2
*I *3842:Y O *D sky130_fd_sc_hd__inv_2
*CAP
1 *4059:A1 0.000212597
2 *3842:Y 0.000212597
*RES
1 *3842:Y *4059:A1 6.08 
*END

*D_NET *92 0.00197537
*CONN
*I *4261:A1 I *D sky130_fd_sc_hd__o21ai_2
*I *3843:Y O *D sky130_fd_sc_hd__inv_2
*CAP
1 *4261:A1 0.000529695
2 *3843:Y 0.000529695
3 *4261:A1 *3909:B 4.66108e-05
4 *4261:A1 *4261:B1 0
5 *4261:A1 *4262:B 0.000119631
6 *4261:A1 *4355:A1 0.000139238
7 *4261:A1 *4842:A 5.83121e-06
8 *4261:A1 *107:24 1.9405e-05
9 *4261:A1 *107:47 9.78082e-05
10 *4261:A1 *227:10 0
11 *4261:A1 *227:21 0
12 *4261:A1 *494:12 0.000226848
13 *4261:A1 *494:60 0.000226052
14 *4261:A1 *884:10 3.45588e-05
*RES
1 *3843:Y *4261:A1 19.035 
*END

*D_NET *93 0.0017625
*CONN
*I *4205:A1 I *D sky130_fd_sc_hd__o211ai_2
*I *3844:Y O *D sky130_fd_sc_hd__inv_2
*CAP
1 *4205:A1 0.000410931
2 *3844:Y 0.000410931
3 *4205:A1 *4203:B1 0.000199409
4 *4205:A1 *4661:A 0.000281847
5 *4205:A1 *4676:A 0.000251595
6 *4205:A1 *564:95 0
7 *4205:A1 *840:12 0.00020779
*RES
1 *3844:Y *4205:A1 14.7 
*END

*D_NET *94 0.00257215
*CONN
*I *4148:A1 I *D sky130_fd_sc_hd__o21ai_2
*I *3845:Y O *D sky130_fd_sc_hd__inv_2
*CAP
1 *4148:A1 0.00100202
2 *3845:Y 0.00100202
3 *4148:A1 *4147:B1 4.17547e-05
4 *4148:A1 *4149:B 9.54469e-05
5 *4148:A1 *4150:B1_N 1.70935e-05
6 *4148:A1 *4573:D 0.000198046
7 *4148:A1 *4821:A 0.000111285
8 *4148:A1 *660:14 3.18137e-05
9 *4148:A1 *794:6 7.26735e-05
*RES
1 *3845:Y *4148:A1 20.88 
*END

*D_NET *95 0.00204521
*CONN
*I *3919:A2 I *D sky130_fd_sc_hd__a221o_2
*I *3846:Y O *D sky130_fd_sc_hd__nor2_2
*CAP
1 *3919:A2 0.000569147
2 *3846:Y 0.000569147
3 *3919:A2 *3846:B 3.26889e-05
4 *3919:A2 *3862:C 0.000351028
5 *3919:A2 *150:18 4.43682e-05
6 *3919:A2 *150:37 0.000309438
7 *3919:A2 *681:53 9.71067e-05
8 *3919:A2 *749:8 0
9 *3919:A2 *749:14 4.35432e-05
10 *3918:A *3919:A2 2.87433e-05
*RES
1 *3846:Y *3919:A2 16.4475 
*END

*D_NET *96 0.0020313
*CONN
*I *4070:A I *D sky130_fd_sc_hd__or3_2
*I *4057:A I *D sky130_fd_sc_hd__or3b_2
*I *3848:A I *D sky130_fd_sc_hd__inv_2
*I *4069:A I *D sky130_fd_sc_hd__nor3_2
*I *3847:Y O *D sky130_fd_sc_hd__o21ai_2
*CAP
1 *4070:A 0
2 *4057:A 0
3 *3848:A 0.000174994
4 *4069:A 0
5 *3847:Y 0.000139636
6 *96:27 0.000327321
7 *96:18 0.000206218
8 *96:12 0.000193526
9 *96:12 *4449:CLK 0.000177723
10 *96:12 *160:27 0.000316806
11 *96:12 *751:23 4.41506e-05
12 *96:18 *4069:B 0.000130721
13 *96:18 *4070:B 5.23362e-05
14 *96:18 *160:27 3.09233e-05
15 *96:18 *160:38 0.000159964
16 *96:27 *4057:C_N 4.82863e-05
17 *96:27 *4069:C 2.8694e-05
*RES
1 *3847:Y *96:12 10.07 
2 *96:12 *96:18 6.145 
3 *96:18 *4069:A 1.6 
4 *96:18 *96:27 2.535 
5 *96:27 *3848:A 4.135 
6 *96:27 *4057:A 1.6 
7 *96:12 *4070:A 1.6 
*END

*D_NET *97 0.0016786
*CONN
*I *3851:B1 I *D sky130_fd_sc_hd__a31oi_2
*I *3849:Y O *D sky130_fd_sc_hd__a21oi_2
*CAP
1 *3851:B1 0.000593759
2 *3849:Y 0.000593759
3 *3851:B1 *3849:B1 0.000263168
4 *3851:B1 *3851:A1 7.97477e-05
5 *3851:B1 *3870:A1 4.1977e-05
6 *3851:B1 *162:16 3.97171e-05
7 *3851:B1 *449:226 4.41506e-05
8 *3851:B1 *519:26 2.23203e-05
*RES
1 *3849:Y *3851:B1 11.1151 
*END

*D_NET *98 0.00264506
*CONN
*I *3942:D I *D sky130_fd_sc_hd__and4b_2
*I *3851:A3 I *D sky130_fd_sc_hd__a31oi_2
*I *3850:Y O *D sky130_fd_sc_hd__nand2b_2
*CAP
1 *3942:D 0
2 *3851:A3 0.00042832
3 *3850:Y 0.000180573
4 *98:16 0.000608893
5 *3851:A3 *3847:B1 1.34503e-05
6 *3851:A3 *3869:B 9.60974e-05
7 *3851:A3 *3870:B1 0.000103192
8 *3851:A3 *3942:A_N 4.99619e-05
9 *3851:A3 *3942:B 8.49205e-05
10 *3851:A3 *4449:CLK 0
11 *3851:A3 *111:10 9.2414e-05
12 *3851:A3 *747:25 0
13 *3851:A3 *747:40 0.000302409
14 *98:16 *3846:A 0.000119756
15 *98:16 *4449:CLK 0.000176647
16 *98:16 *107:92 0.000154364
17 *98:16 *111:10 9.7872e-05
18 *98:16 *150:18 7.09587e-05
19 *3942:C *3851:A3 6.52265e-05
*RES
1 *3850:Y *98:16 10.385 
2 *98:16 *3851:A3 15.545 
3 *98:16 *3942:D 1.6 
*END

*D_NET *99 0.00339927
*CONN
*I *3857:A I *D sky130_fd_sc_hd__nor2_2
*I *3929:A2 I *D sky130_fd_sc_hd__a311o_2
*I *3852:Y O *D sky130_fd_sc_hd__nor3_2
*CAP
1 *3857:A 0.000210244
2 *3929:A2 0.000805819
3 *3852:Y 0.000163783
4 *99:12 0.00117985
5 *3857:A *3852:C 4.78678e-05
6 *3857:A *523:22 1.52352e-05
7 *3929:A2 *3922:B 0.000122801
8 *3929:A2 *3929:A1 2.68526e-05
9 *3929:A2 *3929:A3 0
10 *3929:A2 *3929:B1 0.000229802
11 *3929:A2 *3929:C1 2.97802e-05
12 *3929:A2 *4357:B 2.54898e-05
13 *3929:A2 *4357:C_N 5.47426e-05
14 *3929:A2 *4402:CLK 0.000130669
15 *3929:A2 *154:38 1.08758e-05
16 *99:12 *3852:C 0.000156474
17 *99:12 *3936:A3 2.49909e-05
18 *99:12 *4402:CLK 4.9803e-05
19 *99:12 *103:10 0.000114196
*RES
1 *3852:Y *99:12 7.155 
2 *99:12 *3929:A2 20.83 
3 *99:12 *3857:A 6.84 
*END

*D_NET *100 0.00408566
*CONN
*I *3855:B I *D sky130_fd_sc_hd__nor2_2
*I *3929:A3 I *D sky130_fd_sc_hd__a311o_2
*I *3853:Y O *D sky130_fd_sc_hd__nor3_2
*CAP
1 *3855:B 2.09808e-05
2 *3929:A3 0.000607592
3 *3853:Y 0.000439941
4 *100:14 0.00106851
5 *3929:A3 *3929:A1 3.09164e-05
6 *3929:A3 *3939:A3 8.32746e-05
7 *3929:A3 *3939:B1 4.92047e-05
8 *3929:A3 *4357:B 0.000230876
9 *3929:A3 *4402:CLK 0.000114858
10 *3929:A3 *102:10 0.000160314
11 *3929:A3 *102:34 3.75126e-05
12 *100:14 *3855:A 0.000200185
13 *100:14 *3865:A 0
14 *100:14 *3868:B1 7.21296e-06
15 *100:14 *4402:CLK 0.000779088
16 *100:14 *4636:A 4.66108e-05
17 *100:14 *102:34 0.000119242
18 *100:14 *103:18 0
19 *100:14 *529:23 0
20 *100:14 *529:57 0
21 *3929:A2 *3929:A3 0
22 *3939:A2 *3929:A3 2.10433e-05
23 *4408:D *100:14 6.8296e-05
24 *4752:A *100:14 0
*RES
1 *3853:Y *100:14 16.475 
2 *100:14 *3929:A3 17.195 
3 *100:14 *3855:B 1.96 
*END

*D_NET *101 0.00184302
*CONN
*I *3864:A I *D sky130_fd_sc_hd__and2_2
*I *3865:A I *D sky130_fd_sc_hd__nand2_2
*I *3854:X O *D sky130_fd_sc_hd__or3_2
*CAP
1 *3864:A 0
2 *3865:A 0.000161718
3 *3854:X 0.000282765
4 *101:8 0.000444483
5 *3865:A *3868:B1 5.26518e-05
6 *3865:A *103:18 0.000101049
7 *3865:A *103:29 0.000113177
8 *101:8 *3854:A 0.000155988
9 *101:8 *3868:B1 0.000269309
10 *101:8 *103:29 4.55864e-06
11 *101:8 *103:42 0.000153945
12 *4408:D *101:8 0.000103378
13 *100:14 *3865:A 0
*RES
1 *3854:X *101:8 11.1 
2 *101:8 *3865:A 7.485 
3 *101:8 *3864:A 3.6 
*END

*D_NET *102 0.00540359
*CONN
*I *3935:A2 I *D sky130_fd_sc_hd__o21a_2
*I *3940:A2 I *D sky130_fd_sc_hd__o21ai_2
*I *3860:A2 I *D sky130_fd_sc_hd__o21a_2
*I *3857:B I *D sky130_fd_sc_hd__nor2_2
*I *3855:Y O *D sky130_fd_sc_hd__nor2_2
*CAP
1 *3935:A2 0.000154651
2 *3940:A2 0
3 *3860:A2 0.000502032
4 *3857:B 0
5 *3855:Y 0
6 *102:34 0.000806906
7 *102:10 0.000793097
8 *102:4 0.000943321
9 *3860:A2 *3868:A1 0.000175374
10 *3860:A2 *3868:A2 6.00003e-05
11 *3860:A2 *3939:A3 0.000130554
12 *3860:A2 *3950:A1 0.000369644
13 *3860:A2 *4635:A 0
14 *3860:A2 *4636:A 0.00017618
15 *3860:A2 *109:10 0.000101495
16 *3860:A2 *521:18 8.23457e-05
17 *3860:A2 *521:22 0
18 *3860:A2 *521:32 0
19 *3935:A2 *3873:A0 0.000160752
20 *3935:A2 *529:57 5.83121e-06
21 *102:10 *3939:A3 6.55328e-05
22 *102:10 *4400:RESET_B 5.15909e-05
23 *102:34 *3855:A 2.05056e-05
24 *102:34 *3873:A0 3.25831e-05
25 *102:34 *3941:B 0
26 *102:34 *4400:D 0
27 *102:34 *4400:RESET_B 0.000347004
28 *102:34 *523:47 0
29 *3929:A3 *102:10 0.000160314
30 *3929:A3 *102:34 3.75126e-05
31 *4404:D *3935:A2 0
32 *89:10 *3935:A2 1.17409e-05
33 *90:10 *102:34 9.53803e-05
34 *100:14 *102:34 0.000119242
*RES
1 *3855:Y *102:4 1.6 
2 *102:4 *102:10 6.245 
3 *102:10 *3857:B 3.6 
4 *102:10 *3860:A2 16.02 
5 *102:4 *102:34 10.73 
6 *102:34 *3940:A2 3.6 
7 *102:34 *3935:A2 6.39 
*END

*D_NET *103 0.005766
*CONN
*I *3865:B I *D sky130_fd_sc_hd__nand2_2
*I *3951:B I *D sky130_fd_sc_hd__nand2_2
*I *3948:B I *D sky130_fd_sc_hd__and3b_2
*I *3864:B I *D sky130_fd_sc_hd__and2_2
*I *3946:B I *D sky130_fd_sc_hd__nand2_2
*I *3856:Y O *D sky130_fd_sc_hd__o31ai_2
*CAP
1 *3865:B 2.12996e-05
2 *3951:B 0.000343312
3 *3948:B 0.000440737
4 *3864:B 2.12949e-05
5 *3946:B 0.000124827
6 *3856:Y 0.000199859
7 *103:42 0.000924983
8 *103:29 0.000268202
9 *103:18 0.000513091
10 *103:10 0.00050345
11 *3864:B *3952:A2 4.77769e-05
12 *3865:B *4402:CLK 5.1875e-05
13 *3948:B *520:23 0.000185127
14 *3948:B *520:36 0.000123832
15 *3948:B *984:36 4.30166e-05
16 *3951:B *3854:C 0.0001635
17 *3951:B *4774:A 6.04372e-05
18 *3951:B *520:36 5.83121e-06
19 *3951:B *528:47 5.51127e-05
20 *103:10 *3852:B 8.74345e-06
21 *103:10 *4402:CLK 0.00023756
22 *103:10 *109:10 0
23 *103:10 *523:22 0.000120923
24 *103:18 *109:8 2.65814e-06
25 *103:42 *3952:A2 0.000148153
26 *3865:A *103:18 0.000101049
27 *3865:A *103:29 0.000113177
28 *3951:A *3951:B 0.000543609
29 *4818:A *3948:B 0.000119866
30 *89:23 *103:18 0
31 *89:23 *103:29 0
32 *99:12 *103:10 0.000114196
33 *100:14 *103:18 0
34 *101:8 *103:29 4.55864e-06
35 *101:8 *103:42 0.000153945
*RES
1 *3856:Y *103:10 7.65 
2 *103:10 *103:18 7.48 
3 *103:18 *3946:B 5.43 
4 *103:18 *103:29 2.4 
5 *103:29 *3864:B 4.05 
6 *103:29 *103:42 5.675 
7 *103:42 *3948:B 8.965 
8 *103:42 *3951:B 14.255 
9 *103:10 *3865:B 4.215 
*END

*D_NET *104 0.00594451
*CONN
*I *3934:A3 I *D sky130_fd_sc_hd__a32o_2
*I *3924:B I *D sky130_fd_sc_hd__nand2_2
*I *3925:A3 I *D sky130_fd_sc_hd__a31oi_2
*I *3926:A2 I *D sky130_fd_sc_hd__a22o_2
*I *3859:C I *D sky130_fd_sc_hd__and3_2
*I *3858:B I *D sky130_fd_sc_hd__nand2_2
*I *3857:Y O *D sky130_fd_sc_hd__nor2_2
*CAP
1 *3934:A3 0.000120683
2 *3924:B 4.06537e-05
3 *3925:A3 0.000331712
4 *3926:A2 0.000153494
5 *3859:C 0
6 *3858:B 9.56205e-05
7 *3857:Y 0.000108702
8 *104:40 0.000630137
9 *104:38 0.000691736
10 *104:16 0.000478121
11 *104:6 0.000876671
12 *3858:B *3859:A 0.000172547
13 *3858:B *3945:A2 2.97004e-06
14 *3858:B *4410:RESET_B 0.000116165
15 *3858:B *583:10 4.24292e-06
16 *3924:B *741:12 4.8854e-05
17 *3925:A3 *3934:A1 0
18 *3925:A3 *3934:A2 0.000379301
19 *3925:A3 *154:6 2.8185e-05
20 *3925:A3 *154:38 4.80182e-05
21 *3925:A3 *157:10 6.27438e-05
22 *3926:A2 *3926:B1 1.62619e-05
23 *3926:A2 *4357:A 0
24 *3926:A2 *4452:CLK 2.65729e-05
25 *3926:A2 *154:16 3.98952e-05
26 *3926:A2 *745:27 4.1652e-06
27 *3934:A3 *3934:A1 0.000154098
28 *3934:A3 *3934:A2 4.43682e-05
29 *3934:A3 *157:10 0.000272984
30 *104:6 *584:10 0.000224463
31 *104:16 *3859:B 6.77734e-05
32 *104:16 *4782:A 8.23457e-05
33 *104:16 *4783:A 0.000237243
34 *104:16 *583:10 4.82919e-05
35 *104:16 *584:10 0.000161529
36 *104:38 *3934:A2 0
37 *104:38 *584:10 0
38 *104:38 *713:12 0
39 *104:40 *3934:A2 0
40 *3921:B1 *3925:A3 0.000120655
41 *4452:D *3926:A2 5.33085e-05
*RES
1 *3857:Y *104:6 4.12 
2 *104:6 *104:16 7.5 
3 *104:16 *3858:B 8.12 
4 *104:16 *3859:C 1.6 
5 *104:6 *104:38 7.715 
6 *104:38 *104:40 3.93 
7 *104:40 *3926:A2 6.51 
8 *104:40 *3925:A3 8.895 
9 *104:38 *3924:B 4.395 
10 *3925:A3 *3934:A3 6.755 
*END

*D_NET *105 0.000898437
*CONN
*I *3938:A2 I *D sky130_fd_sc_hd__a22o_2
*I *3858:Y O *D sky130_fd_sc_hd__nand2_2
*CAP
1 *3938:A2 0.000228052
2 *3858:Y 0.000228052
3 *3938:A2 *3867:C 1.2818e-05
4 *3938:A2 *3938:B1 4.43871e-06
5 *3938:A2 *4403:RESET_B 4.62396e-05
6 *3938:A2 *4410:RESET_B 0
7 *3938:A2 *4415:CLK 6.73751e-05
8 *3938:A2 *449:13 0.000274601
9 *3925:B1 *3938:A2 3.68596e-05
*RES
1 *3858:Y *3938:A2 13.0387 
*END

*D_NET *106 0.00278334
*CONN
*I *4207:A I *D sky130_fd_sc_hd__nand2_2
*I *3869:B I *D sky130_fd_sc_hd__nand2_2
*I *3870:B1 I *D sky130_fd_sc_hd__o211a_2
*I *3861:Y O *D sky130_fd_sc_hd__nor2_2
*CAP
1 *4207:A 0
2 *3869:B 9.88163e-05
3 *3870:B1 0.000238097
4 *3861:Y 0.000114159
5 *106:16 0.000584115
6 *106:10 0.000361361
7 *3869:B *4359:B 0
8 *3869:B *495:23 0
9 *3869:B *495:33 3.09233e-05
10 *3870:B1 *3851:A2 4.14369e-05
11 *3870:B1 *3870:A2 3.26889e-05
12 *3870:B1 *3870:C1 4.66108e-05
13 *3870:B1 *4360:B1 0
14 *3870:B1 *4409:CLK 1.47347e-05
15 *3870:B1 *4529:CLK 2.67184e-05
16 *3870:B1 *495:33 0.000148455
17 *3870:B1 *747:40 0
18 *3870:B1 *747:55 9.37731e-05
19 *106:10 *4207:B 0.000289691
20 *106:10 *4353:A3 4.68199e-05
21 *106:10 *150:37 3.09233e-05
22 *106:10 *459:12 0.000115464
23 *106:10 *681:63 0
24 *106:16 *4207:B 3.70488e-05
25 *106:16 *4425:RESET_B 0.00016129
26 *3851:A3 *3869:B 9.60974e-05
27 *3851:A3 *3870:B1 0.000103192
28 *3:16 *106:10 7.09279e-05
*RES
1 *3861:Y *106:10 9.53 
2 *106:10 *106:16 6.605 
3 *106:16 *3870:B1 9.12 
4 *106:16 *3869:B 5.745 
5 *106:10 *4207:A 1.6 
*END

*D_NET *107 0.017648
*CONN
*I *3934:B1 I *D sky130_fd_sc_hd__a32o_2
*I *3863:B1_N I *D sky130_fd_sc_hd__o21ba_2
*I *4151:A I *D sky130_fd_sc_hd__nand2_2
*I *4353:A3 I *D sky130_fd_sc_hd__o32a_2
*I *4354:A3 I *D sky130_fd_sc_hd__o31a_2
*I *4356:A1 I *D sky130_fd_sc_hd__o21a_2
*I *4355:A1 I *D sky130_fd_sc_hd__o21a_2
*I *3862:X O *D sky130_fd_sc_hd__or3_2
*CAP
1 *3934:B1 0.000879044
2 *3863:B1_N 0
3 *4151:A 0.000202896
4 *4353:A3 0.000960727
5 *4354:A3 0.000170418
6 *4356:A1 2.29884e-05
7 *4355:A1 3.66442e-05
8 *3862:X 0
9 *107:111 0.00133319
10 *107:92 0.0015041
11 *107:47 0.00109522
12 *107:24 0.00172269
13 *107:8 0.00189071
14 *107:4 0.000992802
15 *3934:B1 *3863:A2 3.85599e-05
16 *3934:B1 *3934:B2 0
17 *3934:B1 *3945:B1 1.1561e-05
18 *3934:B1 *3945:B2 0.000469613
19 *3934:B1 *4094:A 0
20 *3934:B1 *4531:RESET_B 0
21 *3934:B1 *167:35 0
22 *3934:B1 *519:26 0
23 *3934:B1 *694:10 0
24 *3934:B1 *694:14 0
25 *4151:A *4360:B2 8.65905e-05
26 *4151:A *162:16 0
27 *4353:A3 *3916:A 5.23759e-05
28 *4353:A3 *3919:A1 0.000156244
29 *4353:A3 *3919:B1 1.7635e-05
30 *4353:A3 *3919:B2 0.000157501
31 *4353:A3 *4045:B 8.77729e-05
32 *4353:A3 *4052:A 7.44375e-05
33 *4353:A3 *4353:A2 0.000198355
34 *4353:A3 *4693:A 1.47347e-05
35 *4353:A3 *4838:A 6.28765e-05
36 *4353:A3 *150:37 0.000141587
37 *4353:A3 *671:16 3.05373e-05
38 *4353:A3 *673:10 0
39 *4353:A3 *673:23 0
40 *4353:A3 *749:8 0
41 *4353:A3 *750:14 0.00011741
42 *4354:A3 *4350:A3 8.76033e-05
43 *4354:A3 *4352:A1 7.4027e-05
44 *4354:A3 *4356:B1 0.000106655
45 *4354:A3 *127:12 0
46 *4355:A1 *4355:A2 0.000140912
47 *4356:A1 *4356:A2 4.99619e-05
48 *4356:A1 *4701:A 8.65961e-05
49 *107:8 *150:18 0.000121901
50 *107:24 *3843:A 0.00023468
51 *107:24 *3909:B 1.83847e-05
52 *107:24 *4529:D 0.000109028
53 *107:24 *4842:A 2.49909e-05
54 *107:24 *150:18 9.16774e-05
55 *107:24 *749:14 0.000209846
56 *107:47 *4355:A2 0.000318265
57 *107:47 *4356:B1 9.50342e-06
58 *107:47 *4423:RESET_B 4.24575e-05
59 *107:47 *4696:A 2.75757e-05
60 *107:47 *127:12 0
61 *107:47 *138:25 3.26735e-05
62 *107:47 *138:40 0
63 *107:47 *494:12 8.60912e-05
64 *107:47 *494:23 0.000281004
65 *107:47 *676:6 0.000453634
66 *107:47 *676:16 0
67 *107:47 *735:12 0
68 *107:47 *739:8 0
69 *107:92 *3850:B 2.75229e-05
70 *107:92 *3862:B 4.66108e-05
71 *107:92 *3870:A2 3.39151e-05
72 *107:92 *3915:A1 0
73 *107:92 *4360:B2 0
74 *107:92 *4409:RESET_B 0.000131852
75 *107:92 *150:18 0.000255125
76 *107:92 *162:16 0.000167219
77 *107:92 *519:38 4.35348e-05
78 *107:111 *3849:A2 0.000431794
79 *107:111 *3863:A2 0
80 *107:111 *4409:RESET_B 4.76281e-05
81 *107:111 *4531:RESET_B 0
82 *107:111 *500:10 0.000174201
83 *4261:A1 *4355:A1 0.000139238
84 *4261:A1 *107:24 1.9405e-05
85 *4261:A1 *107:47 9.78082e-05
86 *4406:D *3934:B1 5.50989e-05
87 *4409:D *107:111 5.83121e-06
88 *4418:D *107:47 7.23602e-05
89 *4419:D *4354:A3 0
90 *4419:D *107:47 0
91 *4741:A *4353:A3 8.8266e-05
92 *3:16 *4353:A3 0.000472686
93 *98:16 *107:92 0.000154364
94 *106:10 *4353:A3 4.68199e-05
*RES
1 *3862:X *107:4 1.6 
2 *107:4 *107:8 2.19 
3 *107:8 *107:24 13.76 
4 *107:24 *4355:A1 5.235 
5 *107:24 *107:47 20.695 
6 *107:47 *4356:A1 4.395 
7 *107:47 *4354:A3 7.275 
8 *107:8 *4353:A3 27.59 
9 *107:4 *107:92 16.88 
10 *107:92 *4151:A 6.54 
11 *107:92 *107:111 14.53 
12 *107:111 *3863:B1_N 3.6 
13 *107:111 *3934:B1 19.605 
*END

*D_NET *108 0.00195803
*CONN
*I *4686:A I *D sky130_fd_sc_hd__clkdlybuf4s25_1
*I *3864:X O *D sky130_fd_sc_hd__and2_2
*CAP
1 *4686:A 0.000571516
2 *3864:X 0.000571516
3 *4686:A *3872:A0 7.17267e-05
4 *4686:A *3873:A1 0.00019685
5 *4686:A *3947:B1 5.49535e-05
6 *4686:A *3947:B2 6.80167e-05
7 *4686:A *3952:A1 1.33293e-05
8 *4686:A *3952:A2 2.11084e-05
9 *4686:A *4412:D 3.56402e-05
10 *4686:A *665:14 3.57349e-05
11 *4686:A *665:16 7.40446e-05
12 *4686:A *665:22 0.000219926
13 *3947:A2 *4686:A 2.36716e-05
*RES
1 *3864:X *4686:A 18.09 
*END

*D_NET *109 0.00327291
*CONN
*I *3868:A2 I *D sky130_fd_sc_hd__o21a_2
*I *3936:A3 I *D sky130_fd_sc_hd__a31o_2
*I *3939:A3 I *D sky130_fd_sc_hd__a32o_2
*I *3865:Y O *D sky130_fd_sc_hd__nand2_2
*CAP
1 *3868:A2 0.000112645
2 *3936:A3 0.00047622
3 *3939:A3 0.000268778
4 *3865:Y 0.000215234
5 *109:10 0.000839877
6 *109:8 0.00042276
7 *3868:A2 *3868:B1 8.49205e-05
8 *3936:A3 *529:57 2.75229e-05
9 *3939:A3 *3856:A1 0.000112393
10 *3939:A3 *521:32 5.02126e-06
11 *3860:A2 *3868:A2 6.00003e-05
12 *3860:A2 *3939:A3 0.000130554
13 *3860:A2 *109:10 0.000101495
14 *3929:A3 *3939:A3 8.32746e-05
15 *3941:A *3939:A3 5.97809e-05
16 *4402:D *3939:A3 0.000165795
17 *4404:D *3936:A3 1.34594e-05
18 *99:12 *3936:A3 2.49909e-05
19 *102:10 *3939:A3 6.55328e-05
20 *103:10 *109:10 0
21 *103:18 *109:8 2.65814e-06
*RES
1 *3865:Y *109:8 6.465 
2 *109:8 *109:10 2.145 
3 *109:10 *3939:A3 10.635 
4 *109:10 *3936:A3 9.915 
5 *109:8 *3868:A2 5.775 
*END

*D_NET *110 0.000773394
*CONN
*I *3949:A2 I *D sky130_fd_sc_hd__a21o_2
*I *3866:Y O *D sky130_fd_sc_hd__nand2_2
*CAP
1 *3949:A2 0.000101968
2 *3866:Y 0.000101968
3 *3949:A2 *3949:A1 0.000346161
4 *3949:A2 *3949:B1 8.52972e-05
5 *3949:A2 *449:125 0.000137999
*RES
1 *3866:Y *3949:A2 7.1 
*END

*D_NET *111 0.0159524
*CONN
*I *4349:A3 I *D sky130_fd_sc_hd__o32a_2
*I *4094:A I *D sky130_fd_sc_hd__nand2_2
*I *3945:B1 I *D sky130_fd_sc_hd__a32o_2
*I *4351:A1 I *D sky130_fd_sc_hd__o21a_2
*I *4350:A3 I *D sky130_fd_sc_hd__o31a_2
*I *4352:A1 I *D sky130_fd_sc_hd__o21a_2
*I *3869:Y O *D sky130_fd_sc_hd__nand2_2
*CAP
1 *4349:A3 0.000620765
2 *4094:A 0.000428736
3 *3945:B1 0.00012213
4 *4351:A1 0
5 *4350:A3 0.000422994
6 *4352:A1 4.03761e-05
7 *3869:Y 0.000244161
8 *111:65 0.00165919
9 *111:61 0.00180539
10 *111:28 0.00137346
11 *111:18 0.00204274
12 *111:10 0.0014531
13 *3945:B1 *3945:B2 0.000142051
14 *4094:A *3943:A 4.82863e-05
15 *4094:A *3944:A2 4.66108e-05
16 *4094:A *167:35 0.000116158
17 *4094:A *694:10 2.14129e-05
18 *4094:A *694:12 0.000203002
19 *4094:A *694:14 0.00018305
20 *4349:A3 *3919:B2 0
21 *4349:A3 *4057:B 0.00019996
22 *4349:A3 *4349:B2 8.53113e-06
23 *4349:A3 *4353:B2 7.89767e-05
24 *4349:A3 *4420:RESET_B 0.000235585
25 *4349:A3 *4449:CLK 4.19797e-05
26 *4349:A3 *261:69 3.05373e-05
27 *4349:A3 *264:8 0.000303088
28 *4349:A3 *673:10 0.000293719
29 *4349:A3 *673:23 0.000177352
30 *4349:A3 *732:10 5.65627e-05
31 *4349:A3 *748:23 0.000132655
32 *4349:A3 *751:10 0.000229904
33 *4350:A3 *3892:A 0
34 *4350:A3 *3911:D 0
35 *4350:A3 *4350:A2 4.82863e-05
36 *4350:A3 *127:8 0
37 *4352:A1 *127:12 0
38 *111:10 *3942:A_N 3.67779e-05
39 *111:10 *4449:CLK 6.15428e-05
40 *111:10 *669:50 5.30673e-05
41 *111:10 *747:25 0
42 *111:18 *3847:B1 0.000309618
43 *111:18 *3909:B 3.86529e-05
44 *111:18 *3919:A1 8.23457e-05
45 *111:18 *4448:CLK 0.000168213
46 *111:18 *4448:SET_B 1.53577e-05
47 *111:18 *494:23 2.24905e-05
48 *111:18 *747:19 8.49205e-05
49 *111:28 *3912:B1 0
50 *111:28 *4352:A2 0.000161529
51 *111:28 *4352:B1 0.000153474
52 *111:28 *4450:D 0.000409118
53 *111:28 *494:23 0.000103192
54 *111:28 *494:32 0.000229584
55 *111:61 *3942:A_N 3.4222e-05
56 *111:61 *4449:CLK 7.25036e-05
57 *111:61 *748:23 6.74157e-05
58 *111:65 *3847:A2 5.05437e-05
59 *111:65 *3931:C 9.50433e-05
60 *111:65 *161:10 5.47413e-05
61 *111:65 *518:10 1.16762e-05
62 *3851:A3 *111:10 9.2414e-05
63 *3934:B1 *3945:B1 1.1561e-05
64 *3934:B1 *4094:A 0
65 *4065:B *4350:A3 3.64741e-05
66 *4354:A1 *4350:A3 0.000186297
67 *4354:A3 *4350:A3 8.76033e-05
68 *4354:A3 *4352:A1 7.4027e-05
69 *4406:D *3945:B1 0.00011852
70 *4414:D *3945:B1 6.20667e-05
71 *86:36 *4350:A3 5.88148e-05
72 *98:16 *111:10 9.7872e-05
*RES
1 *3869:Y *111:10 8.58 
2 *111:10 *111:18 18.16 
3 *111:18 *111:28 18.88 
4 *111:28 *4352:A1 4.47 
5 *111:28 *4350:A3 12.615 
6 *111:18 *4351:A1 3.6 
7 *111:10 *111:61 2.145 
8 *111:61 *111:65 14.525 
9 *111:65 *3945:B1 8.6375 
10 *111:65 *4094:A 13.265 
11 *111:61 *4349:A3 21.75 
*END

*D_NET *112 0.00313743
*CONN
*I *3888:A2 I *D sky130_fd_sc_hd__a32o_2
*I *3874:A I *D sky130_fd_sc_hd__nand2_2
*I *4366:A2 I *D sky130_fd_sc_hd__o21a_2
*I *3872:X O *D sky130_fd_sc_hd__mux2_1
*CAP
1 *3888:A2 0.000107391
2 *3874:A 0
3 *4366:A2 0.000410219
4 *3872:X 0.000124634
5 *112:25 0.000281779
6 *112:8 0.000709242
7 *3888:A2 *3874:B 4.77769e-05
8 *3888:A2 *3888:A3 0.000148586
9 *3888:A2 *113:21 2.85623e-05
10 *3888:A2 *114:8 2.68037e-05
11 *4366:A2 *3875:C 5.51245e-05
12 *4366:A2 *4366:A1 0.000300109
13 *4366:A2 *4367:A2 0
14 *4366:A2 *113:21 0
15 *4366:A2 *115:12 0.000245451
16 *4366:A2 *707:10 0
17 *112:8 *665:14 0.000238919
18 *112:8 *707:8 4.82863e-05
19 *112:25 *3874:B 2.93201e-05
20 *112:25 *3875:C 2.97004e-06
21 *112:25 *4724:A 0.000134875
22 *112:25 *114:8 1.49811e-05
23 *112:25 *665:14 0.000182403
*RES
1 *3872:X *112:8 6.12 
2 *112:8 *4366:A2 13.14 
3 *112:8 *112:25 5.99 
4 *112:25 *3874:A 1.6 
5 *112:25 *3888:A2 8.195 
*END

*D_NET *113 0.00341967
*CONN
*I *3888:A3 I *D sky130_fd_sc_hd__a32o_2
*I *3874:B I *D sky130_fd_sc_hd__nand2_2
*I *4367:A2 I *D sky130_fd_sc_hd__o21a_2
*I *3873:X O *D sky130_fd_sc_hd__mux2_1
*CAP
1 *3888:A3 8.00217e-05
2 *3874:B 5.62574e-05
3 *4367:A2 0.00035811
4 *3873:X 0.000414439
5 *113:21 0.000564437
6 *113:8 0.00120071
7 *3874:B *114:36 0.000119873
8 *4367:A2 *4366:A1 0
9 *4367:A2 *4367:A1 0
10 *4367:A2 *4367:B1 8.8266e-05
11 *4367:A2 *4795:A 0
12 *113:8 *4366:A1 6.47192e-05
13 *113:8 *4786:A 8.94622e-05
14 *113:21 *3875:C 5.51245e-05
15 *113:21 *4640:A 0
16 *113:21 *114:8 7.40041e-05
17 *3888:A2 *3874:B 4.77769e-05
18 *3888:A2 *3888:A3 0.000148586
19 *3888:A2 *113:21 2.85623e-05
20 *4366:A2 *4367:A2 0
21 *4366:A2 *113:21 0
22 *4429:D *4367:A2 0
23 *112:25 *3874:B 2.93201e-05
*RES
1 *3873:X *113:8 8.535 
2 *113:8 *4367:A2 9.18 
3 *113:8 *113:21 7.755 
4 *113:21 *3874:B 5.1 
5 *113:21 *3888:A3 5.49 
*END

*D_NET *114 0.00612394
*CONN
*I *3890:B I *D sky130_fd_sc_hd__and2_2
*I *4368:A2 I *D sky130_fd_sc_hd__a221o_2
*I *4074:A I *D sky130_fd_sc_hd__or2_2
*I *4085:B2 I *D sky130_fd_sc_hd__o2bb2a_2
*I *3875:C I *D sky130_fd_sc_hd__or3_2
*I *3874:Y O *D sky130_fd_sc_hd__nand2_2
*CAP
1 *3890:B 3.24824e-05
2 *4368:A2 0.000398294
3 *4074:A 0.00030566
4 *4085:B2 0.000492458
5 *3875:C 0.00028842
6 *3874:Y 0
7 *114:51 0.000522575
8 *114:36 0.000794593
9 *114:8 0.000896938
10 *114:4 0.000513194
11 *3875:C *115:12 1.83847e-05
12 *3890:B *3887:A1 4.60814e-05
13 *3890:B *126:10 1.91597e-05
14 *4074:A *3888:B2 2.76356e-05
15 *4074:A *4074:B 2.69153e-05
16 *4074:A *1024:29 1.56428e-05
17 *4085:B2 *4657:A 6.96579e-05
18 *4368:A2 *3887:A1 6.62684e-05
19 *4368:A2 *3887:B2 0
20 *4368:A2 *4368:A1 8.45991e-05
21 *4368:A2 *4398:A_N 1.2818e-05
22 *4368:A2 *123:67 0.000702213
23 *4368:A2 *126:10 5.83121e-06
24 *4368:A2 *456:12 0
25 *114:8 *4724:A 0.000111329
26 *114:36 *3888:A1 0
27 *114:36 *3888:B2 3.06743e-05
28 *114:36 *123:37 9.54116e-05
29 *114:51 *3888:A1 0
30 *114:51 *123:37 5.53549e-06
31 *114:51 *123:67 9.29821e-05
32 *114:51 *126:10 5.05981e-05
33 *3874:B *114:36 0.000119873
34 *3875:A *3875:C 3.70488e-05
35 *3875:B *3875:C 1.16578e-05
36 *3888:A2 *114:8 2.68037e-05
37 *4366:A2 *3875:C 5.51245e-05
38 *112:25 *3875:C 2.97004e-06
39 *112:25 *114:8 1.49811e-05
40 *113:21 *3875:C 5.51245e-05
41 *113:21 *114:8 7.40041e-05
*RES
1 *3874:Y *114:4 1.6 
2 *114:4 *114:8 4.91 
3 *114:8 *3875:C 8.805 
4 *114:8 *4085:B2 10.605 
5 *114:4 *114:36 8.795 
6 *114:36 *4074:A 8.205 
7 *114:36 *114:51 4.145 
8 *114:51 *4368:A2 15.1287 
9 *114:51 *3890:B 2.395 
*END

*D_NET *115 0.00214271
*CONN
*I *4367:B1 I *D sky130_fd_sc_hd__o21a_2
*I *4366:B1 I *D sky130_fd_sc_hd__o21a_2
*I *3876:A I *D sky130_fd_sc_hd__inv_2
*I *3875:X O *D sky130_fd_sc_hd__or3_2
*CAP
1 *4367:B1 0.000137291
2 *4366:B1 0
3 *3876:A 0.000100425
4 *3875:X 0.000268357
5 *115:23 0.000158511
6 *115:12 0.000390002
7 *3876:A *4476:D 0.000118294
8 *4367:B1 *4476:D 2.96334e-05
9 *115:12 *4366:A1 0
10 *115:12 *4476:RESET_B 2.68721e-05
11 *115:12 *707:10 4.94404e-05
12 *115:12 *707:12 2.4997e-05
13 *115:23 *4476:D 1.61831e-05
14 *3875:C *115:12 1.83847e-05
15 *4366:A2 *115:12 0.000245451
16 *4367:A2 *4367:B1 8.8266e-05
17 *4428:D *115:12 0.0004706
*RES
1 *3875:X *115:12 13.55 
2 *115:12 *3876:A 3.79 
3 *115:12 *115:23 0.45 
4 *115:23 *4366:B1 1.6 
5 *115:23 *4367:B1 4.12 
*END

*D_NET *116 0.00108691
*CONN
*I *4081:B I *D sky130_fd_sc_hd__nand2_2
*I *4080:A1 I *D sky130_fd_sc_hd__a21oi_2
*I *3877:X O *D sky130_fd_sc_hd__or3_2
*CAP
1 *4081:B 3.44672e-05
2 *4080:A1 0.000132258
3 *3877:X 0.000145947
4 *116:8 0.000312672
5 *4080:A1 *3877:A 0.000139238
6 *4080:A1 *4076:B 3.25831e-05
7 *4080:A1 *4079:A2 0
8 *4080:A1 *4480:CLK 5.39961e-05
9 *4080:A1 *272:20 0
10 *4080:A1 *999:16 3.84331e-05
11 *4081:B *4480:CLK 0.00011852
12 *4081:B *999:12 1.89685e-05
13 *4081:B *999:16 4.76581e-05
14 *116:8 *3877:C 3.64998e-06
15 *116:8 *4079:A2 8.51589e-06
*RES
1 *3877:X *116:8 5.085 
2 *116:8 *4080:A1 6.51 
3 *116:8 *4081:B 4.98 
*END

*D_NET *117 0.00280532
*CONN
*I *3880:D I *D sky130_fd_sc_hd__or4_2
*I *3879:B I *D sky130_fd_sc_hd__or2_2
*I *4083:B I *D sky130_fd_sc_hd__nand2_2
*I *4082:A1 I *D sky130_fd_sc_hd__a21oi_2
*I *3878:X O *D sky130_fd_sc_hd__or4_2
*CAP
1 *3880:D 0.000186416
2 *3879:B 0
3 *4083:B 0.000112252
4 *4082:A1 6.66613e-05
5 *3878:X 0.000365376
6 *117:41 0.000236081
7 *117:28 0.000460632
8 *3880:D *3880:A 4.77807e-05
9 *3880:D *3880:B 0.000135074
10 *3880:D *4084:C 8.08153e-06
11 *3880:D *4483:RESET_B 0.000249864
12 *3880:D *119:10 8.00775e-05
13 *3880:D *272:12 0
14 *4082:A1 *4081:A 4.82919e-05
15 *4082:A1 *4480:RESET_B 0.000141606
16 *4082:A1 *998:36 5.72091e-05
17 *4083:B *4084:C 0.000165698
18 *4083:B *1004:10 3.72916e-05
19 *117:28 *3878:A 2.75145e-05
20 *117:28 *3878:B 2.66586e-05
21 *117:28 *3878:C 4.9253e-06
22 *117:28 *4077:A1 0.000116853
23 *117:28 *4084:C 2.24423e-05
24 *117:28 *272:12 0
25 *117:41 *4084:C 6.5265e-05
26 *117:41 *4483:RESET_B 0.000143266
*RES
1 *3878:X *4082:A1 9.285 
2 *3878:X *117:28 8.505 
3 *117:28 *4083:B 6.48 
4 *117:28 *117:41 1.89 
5 *117:41 *3879:B 3.6 
6 *117:41 *3880:D 8.535 
*END

*D_NET *118 0.00303487
*CONN
*I *4084:A I *D sky130_fd_sc_hd__nand3_2
*I *4086:A2 I *D sky130_fd_sc_hd__o21ai_2
*I *4087:A2 I *D sky130_fd_sc_hd__o21ai_2
*I *4085:A2_N I *D sky130_fd_sc_hd__o2bb2a_2
*I *3879:X O *D sky130_fd_sc_hd__or2_2
*CAP
1 *4084:A 0
2 *4086:A2 0.000127598
3 *4087:A2 0.000388281
4 *4085:A2_N 3.37765e-05
5 *3879:X 0.000203042
6 *118:25 0.000563183
7 *118:14 0.000503231
8 *118:8 0.000625193
9 *4085:A2_N *4657:A 4.77807e-05
10 *4086:A2 *4086:B1 2.47547e-05
11 *4086:A2 *4482:CLK 0.000101637
12 *4087:A2 *4482:CLK 3.33839e-05
13 *4087:A2 *4482:SET_B 0.000232584
14 *4087:A2 *1003:6 2.88357e-05
15 *118:8 *4084:B 4.66108e-05
16 *118:8 *4084:C 4.99619e-05
17 *118:14 *4086:B1 2.69443e-06
18 *118:14 *4640:A 0
19 *118:14 *487:73 0
20 *118:25 *4086:B1 2.23253e-05
*RES
1 *3879:X *118:8 4.825 
2 *118:8 *118:14 8.465 
3 *118:14 *4085:A2_N 4.05 
4 *118:14 *118:25 0.87 
5 *118:25 *4087:A2 8.91 
6 *118:25 *4086:A2 6.51 
7 *118:8 *4084:A 1.6 
*END

*D_NET *119 0.00411909
*CONN
*I *3882:C I *D sky130_fd_sc_hd__or3_2
*I *3881:B I *D sky130_fd_sc_hd__or2_2
*I *4090:A2 I *D sky130_fd_sc_hd__a21o_2
*I *4088:A1 I *D sky130_fd_sc_hd__a21oi_2
*I *3880:X O *D sky130_fd_sc_hd__or4_2
*CAP
1 *3882:C 0.000260796
2 *3881:B 0
3 *4090:A2 0
4 *4088:A1 2.23024e-05
5 *3880:X 0.000516452
6 *119:34 0.000315768
7 *119:25 0.000198005
8 *119:10 0.000681786
9 *3882:C *3881:A 0
10 *3882:C *3882:A 0.000162325
11 *3882:C *4089:A 2.38055e-05
12 *3882:C *4089:B 1.54665e-05
13 *3882:C *4090:B1 0.000204586
14 *3882:C *4092:A2 0
15 *3882:C *4794:A 1.34361e-05
16 *4088:A1 *4088:A2 4.77769e-05
17 *119:10 *3880:A 0.000160342
18 *119:10 *3880:B 5.54412e-05
19 *119:10 *3880:C 2.54431e-05
20 *119:10 *4088:A2 6.29313e-05
21 *119:10 *4481:SET_B 0.000304702
22 *119:10 *4483:RESET_B 4.20673e-05
23 *119:10 *1003:35 6.29313e-05
24 *119:25 *4075:A 3.98126e-05
25 *119:25 *4089:B 2.49909e-05
26 *119:25 *4090:B1 4.66108e-05
27 *119:25 *4481:SET_B 0.000350827
28 *119:25 *123:10 0.000168099
29 *119:34 *4089:B 0.000118647
30 *119:34 *4090:B1 0.000113668
31 *3880:D *119:10 8.00775e-05
*RES
1 *3880:X *119:10 12.555 
2 *119:10 *4088:A1 4.05 
3 *119:10 *119:25 6.635 
4 *119:25 *4090:A2 1.6 
5 *119:25 *119:34 2.19 
6 *119:34 *3881:B 1.6 
7 *119:34 *3882:C 11.36 
*END

*D_NET *120 0.00204752
*CONN
*I *4089:A I *D sky130_fd_sc_hd__nand2_2
*I *4092:A2 I *D sky130_fd_sc_hd__a21o_2
*I *3881:X O *D sky130_fd_sc_hd__or2_2
*CAP
1 *4089:A 0.000185894
2 *4092:A2 0.00028331
3 *3881:X 0.000469204
4 *4089:A *4089:B 0.000191899
5 *4089:A *4090:B1 1.22325e-05
6 *4092:A2 *3881:A 8.591e-05
7 *4092:A2 *4092:A1 0.000131069
8 *4092:A2 *4481:SET_B 0.000109489
9 *4092:A2 *4486:RESET_B 1.07797e-05
10 *4092:A2 *708:10 0.000385857
11 *4092:A2 *710:26 0.000158066
12 *3882:C *4089:A 2.38055e-05
13 *3882:C *4092:A2 0
*RES
1 *3881:X *4092:A2 14.835 
2 *3881:X *4089:A 6.245 
*END

*D_NET *121 0.0041759
*CONN
*I *4093:B I *D sky130_fd_sc_hd__and3_2
*I *3884:B I *D sky130_fd_sc_hd__or2_2
*I *3883:B I *D sky130_fd_sc_hd__nor2_2
*I *4091:A I *D sky130_fd_sc_hd__nand2_2
*I *3882:X O *D sky130_fd_sc_hd__or3_2
*CAP
1 *4093:B 0
2 *3884:B 0.000215681
3 *3883:B 0
4 *4091:A 0
5 *3882:X 0.00094769
6 *121:32 0.000510004
7 *121:19 0.000411454
8 *121:10 0.00106482
9 *3884:B *3871:A1 0.000316421
10 *3884:B *3884:A 4.99619e-05
11 *3884:B *4486:CLK 0
12 *3884:B *4857:A 0.00018171
13 *3884:B *123:10 0
14 *121:10 *4485:CLK 3.72916e-05
15 *121:10 *271:56 4.40899e-05
16 *121:10 *486:10 0
17 *121:10 *1006:6 1.67341e-05
18 *121:19 *4093:C 6.02191e-05
19 *121:19 *4486:CLK 3.25831e-05
20 *121:19 *271:56 1.22676e-05
21 *121:19 *486:8 0
22 *121:19 *486:10 0
23 *121:32 *3871:B1 0
24 *121:32 *4093:C 4.10576e-05
25 *121:32 *4486:CLK 0.000233918
26 *121:32 *486:8 0
*RES
1 *3882:X *121:10 14.4 
2 *121:10 *4091:A 3.6 
3 *121:10 *121:19 2.4 
4 *121:19 *3883:B 3.6 
5 *121:19 *121:32 6.83 
6 *121:32 *3884:B 11.045 
7 *121:32 *4093:B 1.6 
*END

*D_NET *122 0.00234276
*CONN
*I *3891:A2 I *D sky130_fd_sc_hd__a21o_2
*I *3889:B1 I *D sky130_fd_sc_hd__a2bb2o_2
*I *3883:Y O *D sky130_fd_sc_hd__nor2_2
*CAP
1 *3891:A2 0
2 *3889:B1 0.000410351
3 *3883:Y 0.000244597
4 *122:8 0.000654948
5 *3889:B1 *3871:B1 0
6 *3889:B1 *3889:B2 0.000570045
7 *3889:B1 *3891:A1 5.16348e-05
8 *3889:B1 *4389:A2_N 0.000185398
9 *3889:B1 *715:8 1.56428e-05
10 *122:8 *3891:A1 4.66108e-05
11 *122:8 *3891:B1 4.00541e-06
12 *122:8 *4733:A 5.46217e-05
13 *122:8 *716:22 0.00010491
*RES
1 *3883:Y *122:8 5.86 
2 *122:8 *3889:B1 14.06 
3 *122:8 *3891:A2 1.6 
*END

*D_NET *123 0.0117033
*CONN
*I *4390:A2 I *D sky130_fd_sc_hd__a21oi_2
*I *3886:B I *D sky130_fd_sc_hd__nor3_2
*I *4368:B1 I *D sky130_fd_sc_hd__a221o_2
*I *3888:B1 I *D sky130_fd_sc_hd__a32o_2
*I *3887:A2 I *D sky130_fd_sc_hd__a22o_2
*I *4075:A I *D sky130_fd_sc_hd__nand2_2
*I *3884:X O *D sky130_fd_sc_hd__or2_2
*CAP
1 *4390:A2 0.000140547
2 *3886:B 0.000311365
3 *4368:B1 6.36517e-05
4 *3888:B1 0
5 *3887:A2 0.000306665
6 *4075:A 0.000175026
7 *3884:X 0.000676675
8 *123:88 0.000812253
9 *123:67 0.000749558
10 *123:37 0.000530571
11 *123:27 0.00167718
12 *123:10 0.00197941
13 *3886:B *3886:C 3.00381e-05
14 *3886:B *125:10 0.000278111
15 *3887:A2 *3887:A1 1.45464e-05
16 *3887:A2 *3888:B2 6.33828e-05
17 *3887:A2 *4412:CLK 9.91274e-05
18 *3887:A2 *4724:A 0.00015526
19 *4075:A *271:43 0
20 *4075:A *272:10 8.52972e-05
21 *4368:B1 *4368:A1 4.35648e-05
22 *4368:B1 *4398:A_N 1.19928e-05
23 *4368:B1 *716:22 1.69451e-05
24 *4390:A2 *4390:A1 3.08151e-05
25 *4390:A2 *443:6 4.99619e-05
26 *4390:A2 *709:40 9.30787e-05
27 *123:10 *3884:A 0
28 *123:10 *4090:A1 7.1624e-05
29 *123:10 *4093:C 0
30 *123:10 *4430:RESET_B 0
31 *123:10 *4481:SET_B 3.0816e-05
32 *123:10 *4485:SET_B 9.30717e-05
33 *123:10 *4486:CLK 0
34 *123:10 *4486:D 0
35 *123:10 *4486:RESET_B 0.000266838
36 *123:10 *4725:A 7.67479e-05
37 *123:10 *4857:A 4.82919e-05
38 *123:10 *271:43 0
39 *123:10 *271:56 0
40 *123:10 *708:10 0.000136267
41 *123:10 *1007:19 0
42 *123:37 *3888:B2 0.000224771
43 *123:67 *4073:A 0.000379174
44 *123:67 *126:10 0.000123318
45 *123:67 *431:10 4.18603e-06
46 *123:67 *456:12 0
47 *123:67 *716:41 4.21314e-05
48 *123:88 *125:10 5.39961e-05
49 *123:88 *431:10 0.000112382
50 *123:88 *709:33 5.4003e-05
51 *123:88 *709:40 2.14129e-05
52 *123:88 *716:41 0.00011852
53 *123:88 *716:52 0.00017354
54 *3884:B *123:10 0
55 *4368:A2 *123:67 0.000702213
56 *4446:D *3887:A2 0.000156916
57 *4447:D *3887:A2 1.61983e-05
58 *114:36 *123:37 9.54116e-05
59 *114:51 *123:37 5.53549e-06
60 *114:51 *123:67 9.29821e-05
61 *119:25 *4075:A 3.98126e-05
62 *119:25 *123:10 0.000168099
*RES
1 *3884:X *123:10 17.7975 
2 *123:10 *4075:A 6.6075 
3 *123:10 *123:27 3.01907 
4 *123:27 *123:37 6.9875 
5 *123:37 *3887:A2 12.6838 
6 *123:37 *3888:B1 1.6 
7 *123:27 *123:67 10.6875 
8 *123:67 *4368:B1 4.665 
9 *123:67 *123:88 11.5 
10 *123:88 *3886:B 8.22 
11 *123:88 *4390:A2 5.985 
*END

*D_NET *124 0.00202501
*CONN
*I *3886:C I *D sky130_fd_sc_hd__nor3_2
*I *4395:A2 I *D sky130_fd_sc_hd__a21bo_2
*I *3885:Y O *D sky130_fd_sc_hd__nand3_2
*CAP
1 *3886:C 0.000359913
2 *4395:A2 0
3 *3885:Y 0.000172706
4 *124:10 0.000532618
5 *3886:C *4391:A2 5.83121e-06
6 *3886:C *4396:B1 6.28765e-05
7 *124:10 *3834:A 5.33085e-05
8 *124:10 *3885:B 7.22354e-05
9 *124:10 *4392:A2 0.000160635
10 *124:10 *4397:B 0
11 *124:10 *4399:B1 0.0001249
12 *124:10 *715:31 2.75145e-05
13 *124:10 *715:44 0.000141599
14 *3886:B *3886:C 3.00381e-05
15 *4391:A1 *3886:C 0.000129735
16 *83:10 *3886:C 9.50342e-06
17 *83:10 *124:10 0.000141599
*RES
1 *3885:Y *124:10 8.865 
2 *124:10 *4395:A2 3.6 
3 *124:10 *3886:C 9.495 
*END

*D_NET *125 0.00272901
*CONN
*I *3889:A2_N I *D sky130_fd_sc_hd__a2bb2o_2
*I *4398:C I *D sky130_fd_sc_hd__and4bb_2
*I *3887:B1 I *D sky130_fd_sc_hd__a22o_2
*I *3886:Y O *D sky130_fd_sc_hd__nor3_2
*CAP
1 *3889:A2_N 3.37585e-05
2 *4398:C 3.5468e-05
3 *3887:B1 0.000358357
4 *3886:Y 0.000192722
5 *125:12 0.000456157
6 *125:10 0.000288813
7 *3887:B1 *3887:B2 4.24292e-06
8 *3887:B1 *4398:B_N 5.33085e-05
9 *3887:B1 *4445:CLK 0
10 *3887:B1 *4447:CLK 0
11 *3887:B1 *4724:A 0.000358336
12 *3887:B1 *449:192 0
13 *3887:B1 *709:33 0.00016844
14 *4398:C *715:25 1.08758e-05
15 *4398:C *715:31 4.82863e-05
16 *125:10 *4445:CLK 0
17 *125:10 *709:33 0.000100316
18 *125:12 *4445:CLK 0
19 *125:12 *709:33 6.36578e-05
20 *3886:B *125:10 0.000278111
21 *4445:D *125:10 4.70343e-05
22 *4447:D *3887:B1 0.00017713
23 *123:88 *125:10 5.39961e-05
*RES
1 *3886:Y *125:10 8.775 
2 *125:10 *125:12 1.38 
3 *125:12 *3887:B1 12.12 
4 *125:12 *4398:C 4.05 
5 *125:10 *3889:A2_N 4.05 
*END

*D_NET *126 0.00466119
*CONN
*I *4389:A1_N I *D sky130_fd_sc_hd__a2bb2o_2
*I *3891:B1 I *D sky130_fd_sc_hd__a21o_2
*I *4398:B_N I *D sky130_fd_sc_hd__and4bb_2
*I *3890:X O *D sky130_fd_sc_hd__and2_2
*CAP
1 *4389:A1_N 0.000308371
2 *3891:B1 9.54953e-05
3 *4398:B_N 0.000251787
4 *3890:X 0.000271416
5 *126:12 0.000347282
6 *126:10 0.000579787
7 *3891:B1 *4368:C1 5.4155e-06
8 *3891:B1 *4398:A_N 4.66108e-05
9 *3891:B1 *4733:A 0
10 *3891:B1 *716:22 0.000113585
11 *3891:B1 *1025:34 3.57349e-05
12 *4389:A1_N *4073:A 2.34423e-05
13 *4389:A1_N *4369:B 0.000133075
14 *4389:A1_N *4370:B 0.000136877
15 *4389:A1_N *4387:B 5.83121e-06
16 *4389:A1_N *4639:A 0.000180682
17 *4389:A1_N *433:14 0
18 *4389:A1_N *650:25 6.64317e-06
19 *4389:A1_N *716:41 9.16237e-05
20 *4389:A1_N *716:52 0.000301473
21 *4389:A1_N *1024:44 0
22 *4389:A1_N *1024:57 0
23 *4398:B_N *4398:A_N 0.000449989
24 *4398:B_N *709:33 5.16418e-05
25 *126:10 *3888:A1 1.83205e-05
26 *126:10 *4073:A 0.000107154
27 *126:10 *4639:A 0.000486523
28 *126:10 *4779:A 1.22777e-05
29 *126:10 *1022:31 5.15607e-05
30 *3887:B1 *4398:B_N 5.33085e-05
31 *3890:B *126:10 1.91597e-05
32 *4368:A2 *126:10 5.83121e-06
33 *4444:D *3891:B1 0.000108886
34 *4444:D *4398:B_N 4.66108e-05
35 *4444:D *126:10 0.000136877
36 *114:51 *126:10 5.05981e-05
37 *122:8 *3891:B1 4.00541e-06
38 *123:67 *126:10 0.000123318
*RES
1 *3890:X *126:10 12.315 
2 *126:10 *126:12 2 
3 *126:12 *4398:B_N 10.46 
4 *126:12 *3891:B1 4.255 
5 *126:10 *4389:A1_N 12.3975 
*END

*D_NET *127 0.00186181
*CONN
*I *4352:A2 I *D sky130_fd_sc_hd__o21a_2
*I *3912:A3 I *D sky130_fd_sc_hd__o311a_2
*I *4356:A2 I *D sky130_fd_sc_hd__o21a_2
*I *3892:Y O *D sky130_fd_sc_hd__nand2_2
*CAP
1 *4352:A2 4.92367e-05
2 *3912:A3 3.8314e-05
3 *4356:A2 5.39767e-05
4 *3892:Y 0.000217401
5 *127:12 0.000253105
6 *127:8 0.000427452
7 *3912:A3 *3912:A1 9.61248e-05
8 *3912:A3 *3913:B2 0.000124895
9 *3912:A3 *4701:A 1.12578e-05
10 *4352:A2 *4352:B1 0.000197264
11 *4356:A2 *3913:B2 2.30292e-05
12 *4356:A2 *4701:A 6.6564e-05
13 *127:8 *3911:D 1.71013e-05
14 *127:8 *3912:C1 0
15 *127:8 *4845:A 0
16 *127:12 *3912:C1 0
17 *127:12 *4846:A 6.23206e-05
18 *127:12 *739:8 1.22762e-05
19 *4350:A3 *127:8 0
20 *4352:A1 *127:12 0
21 *4354:A3 *127:12 0
22 *4356:A1 *4356:A2 4.99619e-05
23 *107:47 *127:12 0
24 *111:28 *4352:A2 0.000161529
*RES
1 *3892:Y *127:8 7.02 
2 *127:8 *127:12 4.655 
3 *127:12 *4356:A2 3.085 
4 *127:12 *3912:A3 3.1 
5 *127:8 *4352:A2 5.43 
*END

*D_NET *128 0.000527592
*CONN
*I *3905:B1 I *D sky130_fd_sc_hd__a31o_2
*I *3893:X O *D sky130_fd_sc_hd__o311a_2
*CAP
1 *3905:B1 0.000127926
2 *3893:X 0.000127926
3 *3905:B1 *3893:C1 0.00027174
*RES
1 *3893:X *3905:B1 6.065 
*END

*D_NET *129 0.00488282
*CONN
*I *3895:D I *D sky130_fd_sc_hd__or4_2
*I *3894:Y O *D sky130_fd_sc_hd__nor2_2
*CAP
1 *3895:D 0.00218438
2 *3894:Y 0.00218438
3 *3895:D *3894:A 5.30673e-05
4 *3895:D *3895:A 4.00541e-06
5 *3895:D *3913:A1 8.23457e-05
6 *3895:D *3913:A2 8.26048e-06
7 *3895:D *4416:D 4.66108e-05
8 *3895:D *4474:RESET_B 4.24575e-05
9 *3895:D *4691:A 9.66021e-05
10 *3895:D *732:10 4.82863e-05
11 *3895:D *758:12 0.000132423
*RES
1 *3894:Y *3895:D 28.4 
*END

*D_NET *130 0.00114127
*CONN
*I *3906:D_N I *D sky130_fd_sc_hd__or4b_2
*I *3895:X O *D sky130_fd_sc_hd__or4_2
*CAP
1 *3906:D_N 0.000147367
2 *3895:X 0.000147367
3 *3906:D_N *3904:A_N 1.67226e-05
4 *3906:D_N *3906:A 0.000194299
5 *3906:D_N *138:25 0.00015639
6 *3906:D_N *670:10 2.63406e-05
7 *3906:D_N *670:23 0.000164679
8 *3906:D_N *670:25 0.000117832
9 *3906:D_N *672:37 0
10 *87:14 *3906:D_N 0.000103192
11 *87:30 *3906:D_N 6.70801e-05
*RES
1 *3895:X *3906:D_N 12.705 
*END

*D_NET *131 0.00438303
*CONN
*I *4056:A I *D sky130_fd_sc_hd__or2_2
*I *4055:A I *D sky130_fd_sc_hd__nor2_2
*I *4050:A1 I *D sky130_fd_sc_hd__o21a_2
*I *4051:A1 I *D sky130_fd_sc_hd__o21a_2
*I *3896:Y O *D sky130_fd_sc_hd__nand2_2
*CAP
1 *4056:A 0.000229319
2 *4055:A 2.08101e-05
3 *4050:A1 2.51513e-05
4 *4051:A1 5.39088e-05
5 *3896:Y 0
6 *131:26 0.000850723
7 *131:17 0.000680312
8 *131:4 0.000108475
9 *4051:A1 *4047:B 9.50342e-06
10 *4051:A1 *4051:B1 5.12942e-05
11 *4051:A1 *259:50 0.000138551
12 *4056:A *4055:B 0
13 *4056:A *4058:A2 2.42236e-05
14 *4056:A *4058:A3 0.000208805
15 *4056:A *4059:B1 0.000163199
16 *4056:A *4753:A 6.89164e-05
17 *4056:A *4759:A 7.9642e-06
18 *4056:A *691:32 0.000138799
19 *131:17 *4050:B1 1.91597e-05
20 *131:17 *259:50 0.000235573
21 *131:26 *3902:C_N 3.42871e-05
22 *131:26 *4050:B1 0.000161837
23 *131:26 *686:10 4.66108e-05
24 *131:26 *691:32 0.000834297
25 *3896:B *131:17 0.000271308
*RES
1 *3896:Y *131:4 1.6 
2 *131:4 *4051:A1 7.235 
3 *131:4 *131:17 2.52 
4 *131:17 *4050:A1 1.96 
5 *131:17 *131:26 11.835 
6 *131:26 *4055:A 1.96 
7 *131:26 *4056:A 11.705 
*END

*D_NET *132 0.00294132
*CONN
*I *3905:A3 I *D sky130_fd_sc_hd__a31o_2
*I *3897:X O *D sky130_fd_sc_hd__o21a_2
*CAP
1 *3905:A3 0.00101734
2 *3897:X 0.00101734
3 *3905:A3 *3901:B 0.000134756
4 *3905:A3 *3904:B 1.10435e-05
5 *3905:A3 *668:25 0.000451435
6 *3905:A3 *668:29 0.000264222
7 *3905:A3 *668:31 4.51928e-05
*RES
1 *3897:X *3905:A3 21.36 
*END

*D_NET *133 0.00229944
*CONN
*I *3900:C I *D sky130_fd_sc_hd__and4_2
*I *3898:X O *D sky130_fd_sc_hd__or3_2
*CAP
1 *3900:C 0.000645079
2 *3898:X 0.000645079
3 *3900:C *3898:C 0.000187759
4 *3900:C *3899:A 6.73665e-05
5 *3900:C *3899:C_N 0
6 *3900:C *3900:D 8.65961e-05
7 *3900:C *3906:A 2.05056e-05
8 *3900:C *4649:A 2.75229e-05
9 *3900:C *4746:A 0.000120186
10 *3900:C *266:10 0.000499346
*RES
1 *3898:X *3900:C 18.435 
*END

*D_NET *134 0.000654713
*CONN
*I *3900:D I *D sky130_fd_sc_hd__and4_2
*I *3899:X O *D sky130_fd_sc_hd__or3b_2
*CAP
1 *3900:D 0.000102814
2 *3899:X 0.000102814
3 *3900:D *3899:A 2.60908e-05
4 *3900:D *3899:B 0.000138596
5 *3900:D *3899:C_N 3.24046e-05
6 *3900:D *3906:A 8.53011e-05
7 *3900:D *261:41 8.00957e-05
8 *3900:C *3900:D 8.65961e-05
*RES
1 *3899:X *3900:D 10.905 
*END

*D_NET *135 0.00196072
*CONN
*I *3906:A I *D sky130_fd_sc_hd__or4b_2
*I *3900:X O *D sky130_fd_sc_hd__and4_2
*CAP
1 *3906:A 0.00051716
2 *3900:X 0.00051716
3 *3906:A *3900:A 0.000197858
4 *3906:A *3903:A_N 4.77807e-05
5 *3906:A *3903:B 1.61831e-05
6 *3906:A *138:25 4.21973e-05
7 *3906:A *670:10 8.57321e-05
8 *3900:B *3906:A 0.000236541
9 *3900:C *3906:A 2.05056e-05
10 *3900:D *3906:A 8.53011e-05
11 *3906:D_N *3906:A 0.000194299
*RES
1 *3900:X *3906:A 13.34 
*END

*D_NET *136 0.00110854
*CONN
*I *3904:C I *D sky130_fd_sc_hd__and3b_2
*I *3901:X O *D sky130_fd_sc_hd__or3_2
*CAP
1 *3904:C 0.000109609
2 *3901:X 0.000109609
3 *3904:C *3837:A 0.000142013
4 *3904:C *3904:A_N 0.000157394
5 *3904:C *666:64 0.000158213
6 *3905:A2 *3904:C 0.000431706
*RES
1 *3901:X *3904:C 11.9888 
*END

*D_NET *137 0.0024628
*CONN
*I *3904:B I *D sky130_fd_sc_hd__and3b_2
*I *3902:X O *D sky130_fd_sc_hd__or3b_2
*CAP
1 *3904:B 0.000627996
2 *3902:X 0.000627996
3 *3904:B *3837:A 0.00016212
4 *3904:B *3893:C1 2.93136e-05
5 *3904:B *3906:B 0.000264606
6 *3904:B *4583:CLK 0
7 *3904:B *4738:A 0.000105654
8 *3904:B *259:38 0
9 *3904:B *265:12 0.000273102
10 *3904:B *449:113 0
11 *3904:B *463:8 9.47454e-05
12 *3896:B *3904:B 0
13 *3905:A1 *3904:B 0.000176515
14 *3905:A2 *3904:B 8.97085e-05
15 *3905:A3 *3904:B 1.10435e-05
*RES
1 *3902:X *3904:B 22.2 
*END

*D_NET *138 0.00659327
*CONN
*I *3909:C I *D sky130_fd_sc_hd__or3_2
*I *4351:A2 I *D sky130_fd_sc_hd__o21a_2
*I *4355:A2 I *D sky130_fd_sc_hd__o21a_2
*I *3904:A_N I *D sky130_fd_sc_hd__and3b_2
*I *3903:Y O *D sky130_fd_sc_hd__nand2b_2
*CAP
1 *3909:C 5.88149e-05
2 *4351:A2 1.33957e-05
3 *4355:A2 0.000260195
4 *3904:A_N 0.000395635
5 *3903:Y 0
6 *138:40 0.000199184
7 *138:25 0.00126907
8 *138:4 0.00127753
9 *3904:A_N *3837:A 4.66108e-05
10 *3904:A_N *666:64 0.000111958
11 *3904:A_N *672:37 0
12 *3909:C *3909:A 4.21973e-05
13 *4351:A2 *3909:A 9.53428e-06
14 *4355:A2 *4355:B1 7.63125e-05
15 *138:25 *3895:B 0.000189426
16 *138:25 *3903:B 4.82863e-05
17 *138:25 *3912:C1 0
18 *138:25 *3913:A1 8.4828e-05
19 *138:25 *3913:B2 0.000592655
20 *138:25 *4352:B1 0
21 *138:25 *4354:A2 0
22 *138:25 *494:23 0
23 *138:25 *494:32 0
24 *138:25 *666:14 0.000206824
25 *138:25 *666:58 0.000114492
26 *138:25 *670:10 0.000192125
27 *138:25 *735:12 0
28 *138:40 *3909:A 0.000144467
29 *3904:C *3904:A_N 0.000157394
30 *3906:A *138:25 4.21973e-05
31 *3906:D_N *3904:A_N 1.67226e-05
32 *3906:D_N *138:25 0.00015639
33 *4355:A1 *4355:A2 0.000140912
34 *4418:D *4355:A2 7.23602e-05
35 *87:14 *138:25 0.000322813
36 *107:47 *4355:A2 0.000318265
37 *107:47 *138:25 3.26735e-05
38 *107:47 *138:40 0
*RES
1 *3903:Y *138:4 1.6 
2 *138:4 *3904:A_N 12.56 
3 *138:4 *138:25 24.62 
4 *138:25 *4355:A2 10.335 
5 *138:25 *138:40 3.935 
6 *138:40 *4351:A2 1.96 
7 *138:40 *3909:C 2.755 
*END

*D_NET *139 0.000671668
*CONN
*I *3906:C I *D sky130_fd_sc_hd__or4b_2
*I *3904:X O *D sky130_fd_sc_hd__and3b_2
*CAP
1 *3906:C 9.42176e-05
2 *3904:X 9.42176e-05
3 *3906:C *3906:B 0.000281406
4 *3906:C *4064:B1 0.000153058
5 *86:8 *3906:C 4.87683e-05
*RES
1 *3904:X *3906:C 10.62 
*END

*D_NET *140 0.00142324
*CONN
*I *3906:B I *D sky130_fd_sc_hd__or4b_2
*I *3905:X O *D sky130_fd_sc_hd__a31o_2
*CAP
1 *3906:B 0.000344645
2 *3905:X 0.000344645
3 *3906:B *3913:A2 0.000176843
4 *3906:B *4064:B1 1.10951e-05
5 *3904:B *3906:B 0.000264606
6 *3906:C *3906:B 0.000281406
7 *86:8 *3906:B 0
*RES
1 *3905:X *3906:B 14.16 
*END

*D_NET *141 0.000940172
*CONN
*I *3913:A1 I *D sky130_fd_sc_hd__a22o_2
*I *3906:X O *D sky130_fd_sc_hd__or4b_2
*CAP
1 *3913:A1 0.000193748
2 *3906:X 0.000193748
3 *3913:A1 *3895:B 4.94326e-05
4 *3913:A1 *3913:A2 4.70729e-05
5 *3913:A1 *3913:B1 0.000288997
6 *3913:A1 *666:58 0
7 *3895:D *3913:A1 8.23457e-05
8 *138:25 *3913:A1 8.4828e-05
*RES
1 *3906:X *3913:A1 12.435 
*END

*D_NET *142 0.00489088
*CONN
*I *4047:A I *D sky130_fd_sc_hd__or2_2
*I *3908:D I *D sky130_fd_sc_hd__or4_2
*I *4054:A1 I *D sky130_fd_sc_hd__o21a_2
*I *4053:A1 I *D sky130_fd_sc_hd__o21a_2
*I *3907:Y O *D sky130_fd_sc_hd__nand2_2
*CAP
1 *4047:A 0.000129405
2 *3908:D 7.09686e-05
3 *4054:A1 0.000146349
4 *4053:A1 0.000112103
5 *3907:Y 3.34704e-05
6 *142:20 0.000734553
7 *142:14 0.000933116
8 *142:8 0.000548923
9 *3908:D *3899:B 4.14392e-05
10 *3908:D *3908:B 2.41231e-05
11 *3908:D *4735:A 3.72007e-05
12 *4047:A *3908:C 4.95554e-05
13 *4047:A *4047:B 1.14192e-05
14 *4047:A *4457:CLK 7.58382e-05
15 *4053:A1 *4053:A2 0.000104652
16 *4053:A1 *4053:B1 4.77769e-05
17 *4054:A1 *4054:A2 0.00030856
18 *4054:A1 *4054:B1 9.12494e-06
19 *4054:A1 *4467:CLK 8.53011e-05
20 *142:14 *3908:C 0.000150581
21 *142:14 *4457:CLK 8.87304e-05
22 *142:14 *4650:A 3.64998e-06
23 *142:14 *497:10 8.33066e-06
24 *142:14 *672:89 8.80289e-05
25 *142:20 *4053:A2 4.66108e-05
26 *142:20 *4054:A2 4.22675e-05
27 *142:20 *4650:A 3.94628e-05
28 *142:20 *4843:A 0.000455159
29 *142:20 *261:41 2.85623e-05
30 *4464:D *4054:A1 0.000278193
31 *4464:D *142:20 7.21262e-05
32 *4467:D *4054:A1 8.53011e-05
*RES
1 *3907:Y *142:8 4.05 
2 *142:8 *142:14 9.215 
3 *142:14 *142:20 8.84 
4 *142:20 *4053:A1 5.775 
5 *142:20 *4054:A1 8.58 
6 *142:14 *3908:D 7.235 
7 *142:8 *4047:A 6.39 
*END

*D_NET *143 0.0028565
*CONN
*I *3913:A2 I *D sky130_fd_sc_hd__a22o_2
*I *3908:X O *D sky130_fd_sc_hd__or4_2
*CAP
1 *3913:A2 0.000818528
2 *3908:X 0.000818528
3 *3913:A2 *3913:B1 0.000309715
4 *3913:A2 *4064:A2 3.20857e-05
5 *3913:A2 *4064:B1 8.52972e-05
6 *3913:A2 *666:64 1.91597e-05
7 *3913:A2 *672:59 1.08105e-05
8 *3895:D *3913:A2 8.26048e-06
9 *3906:B *3913:A2 0.000176843
10 *3908:A *3913:A2 0.000160338
11 *3913:A1 *3913:A2 4.70729e-05
12 *86:8 *3913:A2 0
13 *87:34 *3913:A2 0.000369862
*RES
1 *3908:X *3913:A2 20.5837 
*END

*D_NET *144 0.00210235
*CONN
*I *3912:B1 I *D sky130_fd_sc_hd__o311a_2
*I *3909:X O *D sky130_fd_sc_hd__or3_2
*CAP
1 *3912:B1 0.000488545
2 *3909:X 0.000488545
3 *3912:B1 *3912:A1 3.15199e-05
4 *3912:B1 *3913:B2 1.03323e-05
5 *3912:B1 *3918:B 4.82863e-05
6 *3912:B1 *4450:D 0
7 *3912:B1 *4701:A 0.000726769
8 *3912:B1 *4739:A 0.000184866
9 *3912:B1 *148:12 9.67791e-05
10 *3912:B1 *149:12 2.67022e-05
11 *3912:B1 *149:18 0
12 *111:28 *3912:B1 0
*RES
1 *3909:X *3912:B1 18.6 
*END

*D_NET *145 0.00297612
*CONN
*I *3913:B1 I *D sky130_fd_sc_hd__a22o_2
*I *3910:X O *D sky130_fd_sc_hd__or4_2
*CAP
1 *3913:B1 0.000923573
2 *3910:X 0.000923573
3 *3913:B1 *3893:B1 0.000161829
4 *3913:B1 *3893:C1 0.000113872
5 *3913:B1 *3895:B 5.98004e-06
6 *3913:B1 *3910:A 1.91597e-05
7 *3913:B1 *3913:B2 5.53249e-06
8 *3913:B1 *4690:A 2.75145e-05
9 *3913:B1 *670:10 0.00019637
10 *3913:A1 *3913:B1 0.000288997
11 *3913:A2 *3913:B1 0.000309715
*RES
1 *3910:X *3913:B1 23.745 
*END

*D_NET *146 0.00136135
*CONN
*I *3912:C1 I *D sky130_fd_sc_hd__o311a_2
*I *3911:X O *D sky130_fd_sc_hd__or4_2
*CAP
1 *3912:C1 0.000366528
2 *3911:X 0.000366528
3 *3912:C1 *3911:B 4.66108e-05
4 *3912:C1 *3911:D 0
5 *3912:C1 *4352:B1 0.000183036
6 *3912:C1 *4354:A2 0.00013994
7 *3912:C1 *4845:A 6.28765e-05
8 *3912:C1 *4846:A 6.14602e-05
9 *3912:C1 *670:31 0.000131401
10 *3912:C1 *739:8 2.97004e-06
11 *127:8 *3912:C1 0
12 *127:12 *3912:C1 0
13 *138:25 *3912:C1 0
*RES
1 *3911:X *3912:C1 15.15 
*END

*D_NET *147 0.00326144
*CONN
*I *3913:B2 I *D sky130_fd_sc_hd__a22o_2
*I *3912:X O *D sky130_fd_sc_hd__o311a_2
*CAP
1 *3913:B2 0.00076952
2 *3912:X 0.00076952
3 *3913:B2 *3895:B 7.87426e-05
4 *3913:B2 *3912:A1 4.21973e-05
5 *3913:B2 *4469:D 0.000320834
6 *3913:B2 *4470:CLK 7.18738e-05
7 *3913:B2 *4739:A 0.000179035
8 *3913:B2 *148:12 0
9 *3913:B2 *494:32 0.000273272
10 *3912:A3 *3913:B2 0.000124895
11 *3912:B1 *3913:B2 1.03323e-05
12 *3913:B1 *3913:B2 5.53249e-06
13 *4356:A2 *3913:B2 2.30292e-05
14 *86:8 *3913:B2 0
15 *138:25 *3913:B2 0.000592655
*RES
1 *3912:X *3913:B2 25.59 
*END

*D_NET *148 0.00377537
*CONN
*I *3918:B I *D sky130_fd_sc_hd__nor2_2
*I *3914:B I *D sky130_fd_sc_hd__and2_2
*I *3913:X O *D sky130_fd_sc_hd__a22o_2
*CAP
1 *3918:B 0.000363467
2 *3914:B 0
3 *3913:X 0.000422308
4 *148:12 0.000785775
5 *3918:B *3914:A 0.000237243
6 *3918:B *4700:A 6.45236e-05
7 *3918:B *4701:A 0.000153482
8 *3918:B *149:18 4.92096e-05
9 *3918:B *682:14 0.000292053
10 *3918:B *749:42 5.83121e-06
11 *148:12 *3954:B 0.000163992
12 *148:12 *4450:D 0.000364625
13 *148:12 *4470:CLK 0
14 *148:12 *4470:D 0.000296088
15 *148:12 *149:18 0
16 *148:12 *494:32 0
17 *3912:B1 *3918:B 4.82863e-05
18 *3912:B1 *148:12 9.67791e-05
19 *3913:B2 *148:12 0
20 *3953:A *148:12 0.000226943
21 *4448:D *3918:B 6.83538e-05
22 *86:8 *148:12 0.000136406
*RES
1 *3913:X *148:12 17.975 
2 *148:12 *3914:B 1.6 
3 *148:12 *3918:B 14.48 
*END

*D_NET *149 0.00373946
*CONN
*I *3917:B1 I *D sky130_fd_sc_hd__a21o_2
*I *4052:B I *D sky130_fd_sc_hd__or3_2
*I *4046:B I *D sky130_fd_sc_hd__or3_2
*I *3914:X O *D sky130_fd_sc_hd__and2_2
*CAP
1 *3917:B1 0.000582107
2 *4052:B 0.000110419
3 *4046:B 0
4 *3914:X 0.000265248
5 *149:18 0.000625717
6 *149:12 0.00136265
7 *3917:B1 *3916:A 2.75145e-05
8 *3917:B1 *3917:A1 2.16917e-05
9 *3917:B1 *3917:A2 0.000263062
10 *3917:B1 *4045:B 8.8266e-05
11 *3917:B1 *4450:RESET_B 4.66108e-05
12 *4052:B *4046:C 2.36716e-05
13 *4052:B *261:12 8.8266e-05
14 *149:12 *4450:D 7.4027e-05
15 *149:18 *4045:C_N 0
16 *149:18 *4700:A 0
17 *149:18 *258:12 0
18 *149:18 *259:8 0
19 *149:18 *261:12 0
20 *149:18 *748:52 0
21 *3912:B1 *149:12 2.67022e-05
22 *3912:B1 *149:18 0
23 *3918:B *149:18 4.92096e-05
24 *3953:A *149:18 0
25 *3:22 *3917:B1 8.42954e-05
26 *148:12 *149:18 0
*RES
1 *3914:X *149:12 8.99 
2 *149:12 *149:18 12.265 
3 *149:18 *4046:B 1.6 
4 *149:18 *4052:B 3.085 
5 *149:12 *3917:B1 11.515 
*END

*D_NET *150 0.00506869
*CONN
*I *3916:A I *D sky130_fd_sc_hd__inv_2
*I *3919:B1 I *D sky130_fd_sc_hd__a221o_2
*I *4207:B I *D sky130_fd_sc_hd__nand2_2
*I *3915:X O *D sky130_fd_sc_hd__mux2_1
*CAP
1 *3916:A 0.000101922
2 *3919:B1 0.000152371
3 *4207:B 0.000132799
4 *3915:X 0.000454133
5 *150:37 0.00044659
6 *150:18 0.000779229
7 *3916:A *3917:A2 4.99619e-05
8 *3916:A *749:8 0
9 *3919:B1 *3919:B2 2.48445e-05
10 *3919:B1 *3919:C1 0.000133592
11 *4207:B *4425:RESET_B 8.23457e-05
12 *4207:B *681:53 0.000270647
13 *4207:B *681:63 0
14 *150:18 *3846:A 0.000122331
15 *150:18 *3846:B 0.000131441
16 *150:18 *3850:A_N 9.2006e-05
17 *150:18 *3850:B 2.49909e-05
18 *150:18 *3861:A 4.99619e-05
19 *150:18 *3862:C 9.37973e-05
20 *150:18 *519:38 4.35432e-05
21 *150:18 *747:34 0.000113237
22 *150:18 *749:14 4.41506e-05
23 *150:37 *3919:A1 0.00015555
24 *150:37 *3919:C1 0
25 *150:37 *681:53 6.76053e-05
26 *150:37 *749:8 0
27 *3917:B1 *3916:A 2.75145e-05
28 *3918:A *3919:B1 1.1392e-05
29 *3919:A2 *150:18 4.43682e-05
30 *3919:A2 *150:37 0.000309438
31 *4353:A3 *3916:A 5.23759e-05
32 *4353:A3 *3919:B1 1.7635e-05
33 *4353:A3 *150:37 0.000141587
34 *98:16 *150:18 7.09587e-05
35 *106:10 *4207:B 0.000289691
36 *106:10 *150:37 3.09233e-05
37 *106:16 *4207:B 3.70488e-05
38 *107:8 *150:18 0.000121901
39 *107:24 *150:18 9.16774e-05
40 *107:92 *150:18 0.000255125
*RES
1 *3915:X *150:18 14.91 
2 *150:18 *4207:B 8.175 
3 *150:18 *150:37 5.8875 
4 *150:37 *3919:B1 5.8553 
5 *150:37 *3916:A 5.8575 
*END

*D_NET *151 0.00170313
*CONN
*I *4045:B I *D sky130_fd_sc_hd__or3b_2
*I *3917:A2 I *D sky130_fd_sc_hd__a21o_2
*I *3916:Y O *D sky130_fd_sc_hd__inv_2
*CAP
1 *4045:B 0.000288835
2 *3917:A2 0.000187082
3 *3916:Y 0.000475916
4 *3917:A2 *3917:A1 4.82863e-05
5 *4045:B *3914:A 0
6 *4045:B *4045:C_N 0
7 *4045:B *4838:A 7.06865e-05
8 *4045:B *681:12 0
9 *4045:B *748:52 0
10 *4045:B *749:8 0
11 *4045:B *750:14 0.000143266
12 *3916:A *3917:A2 4.99619e-05
13 *3917:B1 *3917:A2 0.000263062
14 *3917:B1 *4045:B 8.8266e-05
15 *4353:A3 *4045:B 8.77729e-05
*RES
1 *3916:Y *3917:A2 6.755 
2 *3916:Y *4045:B 12.945 
*END

*D_NET *152 0.0019461
*CONN
*I *3919:C1 I *D sky130_fd_sc_hd__a221o_2
*I *3918:Y O *D sky130_fd_sc_hd__nor2_2
*CAP
1 *3919:C1 0.000798429
2 *3918:Y 0.000798429
3 *3919:C1 *3835:A 4.52157e-05
4 *3919:C1 *3919:B2 5.05733e-05
5 *3919:C1 *3931:A 2.66586e-05
6 *3919:C1 *748:23 4.01535e-05
7 *3919:C1 *749:8 2.51475e-05
8 *3919:C1 *749:42 6.33985e-06
9 *3918:A *3919:C1 7.28902e-06
10 *3919:B1 *3919:C1 0.000133592
11 *3:16 *3919:C1 1.42744e-05
12 *150:37 *3919:C1 0
*RES
1 *3918:Y *3919:C1 12.6632 
*END

*D_NET *153 0.000710854
*CONN
*I *3950:B1 I *D sky130_fd_sc_hd__a32o_2
*I *3920:Y O *D sky130_fd_sc_hd__nand2_2
*CAP
1 *3950:B1 0.000182316
2 *3920:Y 0.000182316
3 *3950:B1 *3921:A2 9.71067e-05
4 *3950:B1 *3925:A2 3.17699e-05
5 *3950:B1 *3945:A2 0
6 *3950:B1 *4782:A 0.000217345
*RES
1 *3920:Y *3950:B1 11.3888 
*END

*D_NET *154 0.00453278
*CONN
*I *3922:B I *D sky130_fd_sc_hd__nand2_2
*I *4357:B I *D sky130_fd_sc_hd__or3b_2
*I *3927:A_N I *D sky130_fd_sc_hd__and2b_2
*I *3923:B1 I *D sky130_fd_sc_hd__a22o_2
*I *3921:Y O *D sky130_fd_sc_hd__a31oi_2
*CAP
1 *3922:B 7.40011e-05
2 *4357:B 0.00013974
3 *3927:A_N 0.000187123
4 *3923:B1 0
5 *3921:Y 5.16822e-05
6 *154:38 0.00048679
7 *154:16 0.000742593
8 *154:6 0.000880201
9 *3922:B *3929:B1 3.07407e-05
10 *3927:A_N *3923:B2 7.9642e-06
11 *3927:A_N *3926:B2 5.83121e-06
12 *3927:A_N *4793:A 0
13 *4357:B *3929:A1 2.50049e-05
14 *154:16 *3923:A1 0.000265068
15 *154:16 *3923:A2 6.87301e-05
16 *154:16 *4357:A 0.000200063
17 *154:16 *4452:CLK 0.00035825
18 *154:16 *696:10 0
19 *154:16 *696:16 0
20 *154:16 *743:10 5.20968e-05
21 *154:38 *3929:A1 2.8185e-05
22 *3921:B1 *154:6 5.83121e-06
23 *3925:A3 *154:6 2.8185e-05
24 *3925:A3 *154:38 4.80182e-05
25 *3926:A2 *154:16 3.98952e-05
26 *3929:A2 *3922:B 0.000122801
27 *3929:A2 *4357:B 2.54898e-05
28 *3929:A2 *154:38 1.08758e-05
29 *3929:A3 *4357:B 0.000230876
30 *4451:D *3922:B 0.000185793
31 *4451:D *154:38 0.000122872
32 *4452:D *154:16 3.95269e-05
33 *4453:D *3927:A_N 5.7957e-05
34 *4453:D *154:16 1.05984e-05
*RES
1 *3921:Y *154:6 2.395 
2 *154:6 *154:16 15.415 
3 *154:16 *3923:B1 1.6 
4 *154:16 *3927:A_N 8.645 
5 *154:6 *154:38 4.59 
6 *154:38 *4357:B 8.765 
7 *154:38 *3922:B 4.045 
*END

*D_NET *155 0.00227324
*CONN
*I *4358:A1 I *D sky130_fd_sc_hd__a22o_2
*I *3922:Y O *D sky130_fd_sc_hd__nand2_2
*CAP
1 *4358:A1 0.000513111
2 *3922:Y 0.000513111
3 *4358:A1 *3922:A 4.66108e-05
4 *4358:A1 *4358:A2 3.19777e-05
5 *4358:A1 *4569:CLK 0
6 *4358:A1 *4570:CLK 0.000314178
7 *4358:A1 *476:34 0.000292066
8 *4358:A1 *476:36 7.06865e-05
9 *4358:A1 *480:31 0
10 *4358:A1 *695:14 2.42236e-05
11 *4358:A1 *744:34 0.000467273
12 *4424:D *4358:A1 0
*RES
1 *3922:Y *4358:A1 18.96 
*END

*D_NET *156 0.000285922
*CONN
*I *3939:B1 I *D sky130_fd_sc_hd__a32o_2
*I *3924:Y O *D sky130_fd_sc_hd__nand2_2
*CAP
1 *3939:B1 0.00011336
2 *3924:Y 0.00011336
3 *3929:A3 *3939:B1 4.92047e-05
4 *3941:A *3939:B1 9.99636e-06
*RES
1 *3924:Y *3939:B1 9.015 
*END

*D_NET *157 0.00250453
*CONN
*I *3926:B1 I *D sky130_fd_sc_hd__a22o_2
*I *3928:A_N I *D sky130_fd_sc_hd__and2b_2
*I *3925:Y O *D sky130_fd_sc_hd__a31oi_2
*CAP
1 *3926:B1 0.000396193
2 *3928:A_N 8.44512e-05
3 *3925:Y 0.000358933
4 *157:10 0.000839577
5 *3926:B1 *3929:A1 5.8188e-05
6 *3926:B1 *4452:CLK 4.32064e-05
7 *3926:B1 *4714:A 9.66106e-05
8 *3926:B1 *4719:A 1.4237e-05
9 *3928:A_N *4451:SET_B 4.82919e-05
10 *3928:A_N *696:10 9.30717e-05
11 *157:10 *3923:A2 1.07797e-05
12 *157:10 *3934:A2 7.68414e-06
13 *157:10 *4357:A 0
14 *157:10 *4714:A 0
15 *157:10 *664:45 0.000101317
16 *157:10 *713:12 0
17 *3925:A3 *157:10 6.27438e-05
18 *3926:A2 *3926:B1 1.62619e-05
19 *3934:A3 *157:10 0.000272984
*RES
1 *3925:Y *157:10 10.245 
2 *157:10 *3928:A_N 5.175 
3 *157:10 *3926:B1 8.55 
*END

*D_NET *158 0.0031359
*CONN
*I *3929:B1 I *D sky130_fd_sc_hd__a311o_2
*I *3927:X O *D sky130_fd_sc_hd__and2b_2
*CAP
1 *3929:B1 0.000618202
2 *3927:X 0.000618202
3 *3929:B1 *3922:A 8.52845e-05
4 *3929:B1 *3927:B 0.00065887
5 *3929:B1 *4357:C_N 2.01779e-05
6 *3929:B1 *4793:A 0.000239205
7 *3929:B1 *746:10 0.000103976
8 *3929:B1 *746:32 0.000231791
9 *3922:B *3929:B1 3.07407e-05
10 *3929:A2 *3929:B1 0.000229802
11 *4451:D *3929:B1 0.000299647
*RES
1 *3927:X *3929:B1 21.96 
*END

*D_NET *159 0.00467148
*CONN
*I *3929:C1 I *D sky130_fd_sc_hd__a311o_2
*I *4358:A2 I *D sky130_fd_sc_hd__a22o_2
*I *3928:X O *D sky130_fd_sc_hd__and2b_2
*CAP
1 *3929:C1 0.000536536
2 *4358:A2 0.000205634
3 *3928:X 0.00043926
4 *159:14 0.00118143
5 *3929:C1 *3929:A1 0
6 *3929:C1 *4358:B1 0.000261889
7 *3929:C1 *4713:A 6.21553e-05
8 *3929:C1 *4719:A 0.000219426
9 *3929:C1 *746:10 0
10 *3929:C1 *746:32 0
11 *4358:A2 *4358:B1 0.000292381
12 *4358:A2 *4358:B2 8.7152e-06
13 *4358:A2 *4629:A 9.39388e-06
14 *4358:A2 *4713:A 0.000202095
15 *4358:A2 *4760:A 5.17863e-05
16 *159:14 *3923:B2 0.000386351
17 *159:14 *4424:RESET_B 2.3937e-05
18 *159:14 *4451:CLK 0.00022957
19 *159:14 *4451:SET_B 0.000267416
20 *159:14 *476:70 0.000107791
21 *3929:A2 *3929:C1 2.97802e-05
22 *4358:A1 *4358:A2 3.19777e-05
23 *4451:D *159:14 0.000123955
*RES
1 *3928:X *159:14 14.19 
2 *159:14 *4358:A2 9.36375 
3 *159:14 *3929:C1 15.955 
*END

*D_NET *160 0.00261566
*CONN
*I *4069:C I *D sky130_fd_sc_hd__nor3_2
*I *4057:C_N I *D sky130_fd_sc_hd__or3b_2
*I *4070:C I *D sky130_fd_sc_hd__or3_2
*I *3931:C I *D sky130_fd_sc_hd__or3_2
*I *3930:X O *D sky130_fd_sc_hd__a21bo_2
*CAP
1 *4069:C 0.000181152
2 *4057:C_N 1.85725e-05
3 *4070:C 0
4 *3931:C 0.000144861
5 *3930:X 0.000117957
6 *160:38 0.000287224
7 *160:27 0.000287645
8 *160:10 0.000462964
9 *3931:C *3931:A 2.75229e-05
10 *3931:C *161:10 5.88762e-05
11 *4069:C *4069:B 8.40269e-05
12 *160:10 *3846:B 5.05437e-05
13 *160:10 *3847:A1 0
14 *160:10 *3847:B1 0.000137578
15 *160:10 *518:46 4.43871e-06
16 *160:27 *3847:A1 4.18603e-06
17 *160:27 *3847:A2 0
18 *160:27 *3847:B1 1.26626e-05
19 *160:27 *4070:B 2.60908e-05
20 *160:27 *4449:CLK 5.12017e-06
21 *160:27 *4688:A 0
22 *160:27 *751:10 0
23 *160:38 *4057:B 0
24 *160:38 *264:8 2.45182e-05
25 *160:38 *751:10 0
26 *96:12 *160:27 0.000316806
27 *96:18 *160:27 3.09233e-05
28 *96:18 *160:38 0.000159964
29 *96:27 *4057:C_N 4.82863e-05
30 *96:27 *4069:C 2.8694e-05
31 *111:65 *3931:C 9.50433e-05
*RES
1 *3930:X *160:10 6.03 
2 *160:10 *3931:C 6.585 
3 *160:10 *160:27 4.89 
4 *160:27 *4070:C 3.6 
5 *160:27 *160:38 3.89 
6 *160:38 *4057:C_N 2.05 
7 *160:38 *4069:C 4.495 
*END

*D_NET *161 0.00323825
*CONN
*I *3932:A I *D sky130_fd_sc_hd__inv_2
*I *3933:A2 I *D sky130_fd_sc_hd__a21o_2
*I *3931:X O *D sky130_fd_sc_hd__or3_2
*CAP
1 *3932:A 1.41866e-05
2 *3933:A2 0.000409955
3 *3931:X 0.000625995
4 *161:10 0.00105014
5 *3932:A *3930:A2 8.65905e-05
6 *3932:A *167:35 8.65905e-05
7 *3933:A2 *3915:A1 1.07797e-05
8 *3933:A2 *3930:A2 0.000126679
9 *3933:A2 *4688:A 0
10 *3933:A2 *669:46 0.000162318
11 *3933:A2 *669:76 0.000137571
12 *3933:A2 *752:19 0.000354215
13 *161:10 *3847:A2 3.03684e-05
14 *161:10 *3930:A2 2.92496e-05
15 *161:10 *4688:A 0
16 *3931:C *161:10 5.88762e-05
17 *111:65 *161:10 5.47413e-05
*RES
1 *3931:X *161:10 11.205 
2 *161:10 *3933:A2 12.18 
3 *161:10 *3932:A 4.395 
*END

*D_NET *162 0.00294802
*CONN
*I *4151:B I *D sky130_fd_sc_hd__nand2_2
*I *4360:A2 I *D sky130_fd_sc_hd__a22o_2
*I *3932:Y O *D sky130_fd_sc_hd__inv_2
*CAP
1 *4151:B 0
2 *4360:A2 8.89512e-05
3 *3932:Y 0.00070895
4 *162:16 0.000797901
5 *4360:A2 *4360:B2 0.000215593
6 *162:16 *3870:A1 0.000289772
7 *162:16 *3870:A2 9.30787e-05
8 *162:16 *3915:A1 0
9 *162:16 *4471:D 7.08403e-05
10 *162:16 *4688:A 0
11 *162:16 *167:35 0.000272984
12 *162:16 *518:46 4.43871e-06
13 *162:16 *518:48 6.10014e-05
14 *162:16 *519:49 0.000137578
15 *3851:B1 *162:16 3.97171e-05
16 *4151:A *162:16 0
17 *107:92 *162:16 0.000167219
*RES
1 *3932:Y *162:16 20.51 
2 *162:16 *4360:A2 3.58 
3 *162:16 *4151:B 1.6 
*END

*D_NET *163 0.0023657
*CONN
*I *3934:B2 I *D sky130_fd_sc_hd__a32o_2
*I *3933:X O *D sky130_fd_sc_hd__a21o_2
*CAP
1 *3934:B2 0.000625687
2 *3933:X 0.000625687
3 *3934:B2 *3915:A0 5.92191e-05
4 *3934:B2 *3945:B2 5.84989e-05
5 *3934:B2 *4772:A 8.65961e-05
6 *3934:B2 *501:14 0.00011741
7 *3934:B2 *518:10 7.06865e-05
8 *3934:B2 *518:14 0.000248268
9 *3934:B2 *694:10 0
10 *3934:B1 *3934:B2 0
11 *4406:D *3934:B2 0.000473648
12 *3:22 *3934:B2 0
*RES
1 *3933:X *3934:B2 21.225 
*END

*D_NET *164 0.00028258
*CONN
*I *3936:B1 I *D sky130_fd_sc_hd__a31o_2
*I *3935:X O *D sky130_fd_sc_hd__o21a_2
*CAP
1 *3936:B1 1.47197e-05
2 *3935:X 1.47197e-05
3 *3936:B1 *529:57 0.00012657
4 *89:10 *3936:B1 0.00012657
*RES
1 *3935:X *3936:B1 4.34 
*END

*D_NET *165 0.0034735
*CONN
*I *3938:B1 I *D sky130_fd_sc_hd__a22o_2
*I *4363:A2 I *D sky130_fd_sc_hd__a221o_2
*I *4365:A2 I *D sky130_fd_sc_hd__a221o_2
*I *3937:Y O *D sky130_fd_sc_hd__nor2_2
*CAP
1 *3938:B1 0.000227436
2 *4363:A2 0.000226239
3 *4365:A2 0.000262161
4 *3937:Y 0.000291984
5 *165:8 0.000533755
6 *165:6 0.000564776
7 *3938:B1 *4403:RESET_B 0.000324815
8 *3938:B1 *449:13 0
9 *3938:B1 *703:8 6.4428e-05
10 *4363:A2 *4363:B1 2.90206e-05
11 *4363:A2 *4365:A1 1.5868e-05
12 *4363:A2 *4365:B1 8.33066e-06
13 *4363:A2 *4365:B2 3.3625e-05
14 *4363:A2 *449:13 6.90972e-05
15 *4363:A2 *541:10 1.63826e-05
16 *4365:A2 *3949:B1 3.3625e-05
17 *4365:A2 *4427:CLK 6.62709e-05
18 *4365:A2 *171:20 0.000181917
19 *4365:A2 *449:13 0.000264189
20 *4365:A2 *703:8 2.61744e-05
21 *4365:A2 *703:25 4.59022e-06
22 *165:6 *3950:A1 4.77807e-05
23 *165:6 *4411:RESET_B 1.19928e-05
24 *165:6 *4744:A 2.69217e-05
25 *165:6 *526:8 4.77769e-05
26 *165:6 *541:10 2.93836e-05
27 *165:8 *4411:RESET_B 1.55562e-05
28 *165:8 *541:10 1.37141e-05
29 *3938:A2 *3938:B1 4.43871e-06
30 *4411:D *4363:A2 2.03719e-05
31 *4427:D *4365:A2 1.08758e-05
*RES
1 *3937:Y *165:6 6.19 
2 *165:6 *165:8 0.795 
3 *165:8 *4365:A2 12.1925 
4 *165:8 *4363:A2 9.3575 
5 *165:6 *3938:B1 10.295 
*END

*D_NET *166 0.00148935
*CONN
*I *3941:B I *D sky130_fd_sc_hd__nand2_2
*I *3940:Y O *D sky130_fd_sc_hd__o21ai_2
*CAP
1 *3941:B 0.000323808
2 *3940:Y 0.000323808
3 *3941:B *3939:A1 4.82863e-05
4 *3941:B *4400:D 9.78876e-05
5 *3941:B *4404:CLK 2.75145e-05
6 *3941:B *523:16 2.30292e-05
7 *3941:B *523:22 0.0001249
8 *3941:B *529:6 0.000160641
9 *3941:B *744:34 2.50049e-05
10 *4404:D *3941:B 0.000334476
11 *102:34 *3941:B 0
*RES
1 *3940:Y *3941:B 15.315 
*END

*D_NET *167 0.00553218
*CONN
*I *4094:B I *D sky130_fd_sc_hd__nand2_2
*I *3943:A I *D sky130_fd_sc_hd__inv_2
*I *4359:B I *D sky130_fd_sc_hd__nand2_2
*I *3942:X O *D sky130_fd_sc_hd__and4b_2
*CAP
1 *4094:B 0
2 *3943:A 0.000117033
3 *4359:B 0.000423537
4 *3942:X 0
5 *167:35 0.000929967
6 *167:4 0.00123647
7 *3943:A *3944:A1 1.85674e-05
8 *3943:A *3944:A2 8.69098e-05
9 *4359:B *3846:B 9.30787e-05
10 *4359:B *3851:A1 4.66108e-05
11 *4359:B *3851:A2 4.66108e-05
12 *4359:B *3870:A1 0.000550981
13 *4359:B *4359:A 2.94433e-05
14 *4359:B *4449:CLK 0.000126561
15 *4359:B *449:226 8.08869e-05
16 *4359:B *495:23 7.17811e-05
17 *4359:B *495:33 0
18 *4359:B *518:46 1.07797e-05
19 *4359:B *518:48 5.65627e-05
20 *4359:B *747:53 0.000197264
21 *167:35 *3846:B 0.000184063
22 *167:35 *3930:A2 8.57321e-05
23 *167:35 *3942:B 8.49205e-05
24 *167:35 *518:38 0.000146192
25 *167:35 *518:42 4.7101e-05
26 *167:35 *519:53 1.32064e-05
27 *3869:B *4359:B 0
28 *3932:A *167:35 8.65905e-05
29 *3934:B1 *167:35 0
30 *4094:A *3943:A 4.82863e-05
31 *4094:A *167:35 0.000116158
32 *4406:D *167:35 9.13951e-05
33 *4425:D *4359:B 0.000232504
34 *162:16 *167:35 0.000272984
*RES
1 *3942:X *167:4 1.6 
2 *167:4 *4359:B 17.99 
3 *167:4 *167:35 18.715 
4 *167:35 *3943:A 4.15 
5 *167:35 *4094:B 1.6 
*END

*D_NET *168 0.000469687
*CONN
*I *3944:A2 I *D sky130_fd_sc_hd__a21o_2
*I *3943:Y O *D sky130_fd_sc_hd__inv_2
*CAP
1 *3944:A2 0.000168083
2 *3943:Y 0.000168083
3 *3943:A *3944:A2 8.69098e-05
4 *4094:A *3944:A2 4.66108e-05
*RES
1 *3943:Y *3944:A2 5.72 
*END

*D_NET *169 0.00123107
*CONN
*I *3945:B2 I *D sky130_fd_sc_hd__a32o_2
*I *3944:X O *D sky130_fd_sc_hd__a21o_2
*CAP
1 *3945:B2 0.000179414
2 *3944:X 0.000179414
3 *3945:B2 *3944:A1 3.00381e-05
4 *3945:B2 *3944:B1 4.82863e-05
5 *3934:B1 *3945:B2 0.000469613
6 *3934:B2 *3945:B2 5.84989e-05
7 *3945:B1 *3945:B2 0.000142051
8 *4406:D *3945:B2 0.000123751
*RES
1 *3944:X *3945:B2 13.56 
*END

*D_NET *170 0.000405168
*CONN
*I *3947:B1 I *D sky130_fd_sc_hd__a32o_2
*I *3946:Y O *D sky130_fd_sc_hd__nand2_2
*CAP
1 *3947:B1 0.00014763
2 *3946:Y 0.00014763
3 *3947:B1 *3873:S 0
4 *3947:B1 *665:22 5.49535e-05
5 *4686:A *3947:B1 5.49535e-05
6 *89:23 *3947:B1 0
*RES
1 *3946:Y *3947:B1 9.6 
*END

*D_NET *171 0.00482368
*CONN
*I *4363:C1 I *D sky130_fd_sc_hd__a221o_2
*I *3949:B1 I *D sky130_fd_sc_hd__a21o_2
*I *4365:C1 I *D sky130_fd_sc_hd__a221o_2
*I *3948:X O *D sky130_fd_sc_hd__and3b_2
*CAP
1 *4363:C1 1.551e-05
2 *3949:B1 0.000196091
3 *4365:C1 0.00040836
4 *3948:X 0.00026097
5 *171:20 0.000806715
6 *171:10 0.000478743
7 *3949:B1 *3949:A1 2.21074e-05
8 *3949:B1 *4427:RESET_B 0.000114399
9 *3949:B1 *449:39 2.69153e-05
10 *3949:B1 *449:125 8.54923e-05
11 *4363:C1 *4363:B2 9.06748e-06
12 *4365:C1 *4427:CLK 0.000252913
13 *171:10 *4363:B2 8.73589e-05
14 *171:10 *4365:B2 0.0006481
15 *171:10 *4720:A 0.000239839
16 *171:10 *520:12 9.19395e-05
17 *171:10 *521:66 9.65055e-05
18 *171:10 *622:6 1.91597e-05
19 *171:10 *984:36 0.000267533
20 *171:20 *4363:B1 3.5678e-06
21 *171:20 *4363:B2 2.69153e-05
22 *171:20 *4365:B2 4.15046e-05
23 *171:20 *4427:RESET_B 0.000127679
24 *171:20 *703:25 0.00019545
25 *3949:A2 *3949:B1 8.52972e-05
26 *4365:A2 *3949:B1 3.3625e-05
27 *4365:A2 *171:20 0.000181917
*RES
1 *3948:X *171:10 11.14 
2 *171:10 *171:20 7.19 
3 *171:20 *4365:C1 9.165 
4 *171:20 *3949:B1 8.085 
5 *171:10 *4363:C1 1.96 
*END

*D_NET *172 0.00228603
*CONN
*I *3952:A2 I *D sky130_fd_sc_hd__a21o_2
*I *3951:Y O *D sky130_fd_sc_hd__nand2_2
*CAP
1 *3952:A2 0.000458221
2 *3951:Y 0.000458221
3 *3952:A2 *3854:A 0.000192184
4 *3952:A2 *3868:B1 1.34503e-05
5 *3952:A2 *3952:A1 0.000844057
6 *3864:B *3952:A2 4.77769e-05
7 *3951:A *3952:A2 6.98275e-05
8 *4408:D *3952:A2 2.75145e-05
9 *4686:A *3952:A2 2.11084e-05
10 *89:23 *3952:A2 5.51406e-06
11 *103:42 *3952:A2 0.000148153
*RES
1 *3951:Y *3952:A2 19.71 
*END

*D_NET *173 0.003035
*CONN
*I *3973:C I *D sky130_fd_sc_hd__or4_2
*I *4346:A2 I *D sky130_fd_sc_hd__o31a_2
*I *3972:A I *D sky130_fd_sc_hd__nor2_2
*I *3955:X O *D sky130_fd_sc_hd__or2_2
*CAP
1 *3973:C 8.70807e-05
2 *4346:A2 0.000332304
3 *3972:A 0
4 *3955:X 0.000144727
5 *173:19 0.00062564
6 *173:8 0.000350982
7 *3973:C *3973:D 0.000161467
8 *3973:C *4344:A 6.41594e-05
9 *3973:C *972:27 0.000235339
10 *4346:A2 *4345:B 0
11 *4346:A2 *4346:A1 0.00014186
12 *4346:A2 *4346:B1 2.03649e-05
13 *4346:A2 *4595:D 0.000164679
14 *4346:A2 *972:27 0.000104774
15 *173:8 *3972:B 5.4155e-06
16 *173:8 *3973:D 4.57009e-05
17 *173:8 *4340:B 5.07419e-05
18 *173:8 *189:54 2.54522e-05
19 *173:19 *3973:D 0.000332701
20 *173:19 *4595:D 0.000141606
*RES
1 *3955:X *173:8 4.48 
2 *173:8 *3972:A 1.6 
3 *173:8 *173:19 7.01 
4 *173:19 *4346:A2 10.725 
5 *173:19 *3973:C 6.465 
*END

*D_NET *174 0.0039291
*CONN
*I *3957:B I *D sky130_fd_sc_hd__or2_2
*I *4310:B I *D sky130_fd_sc_hd__nand2_2
*I *4309:A1 I *D sky130_fd_sc_hd__a21oi_2
*I *3956:X O *D sky130_fd_sc_hd__or2_2
*CAP
1 *3957:B 0
2 *4310:B 0.000415162
3 *4309:A1 0
4 *3956:X 0.000884277
5 *174:27 0.000752628
6 *174:14 0.00122174
7 *4310:B *4310:A 0
8 *4310:B *4311:A2 0
9 *174:14 *3956:B 0.000108724
10 *174:14 *4309:A2 0.00011852
11 *174:14 *4577:CLK 5.05521e-05
12 *174:14 *4577:D 2.1261e-05
13 *174:14 *471:23 0.00011852
14 *174:27 *4313:B1 4.82919e-05
15 *174:27 *4576:CLK 0.000156842
16 *174:27 *471:23 3.25831e-05
*RES
1 *3956:X *174:14 15.21 
2 *174:14 *4309:A1 3.6 
3 *174:14 *174:27 8.105 
4 *174:27 *4310:B 11.735 
5 *174:27 *3957:B 1.6 
*END

*D_NET *175 0.00254641
*CONN
*I *4312:B I *D sky130_fd_sc_hd__nand2_2
*I *4311:A1 I *D sky130_fd_sc_hd__a21oi_2
*I *3957:X O *D sky130_fd_sc_hd__or2_2
*CAP
1 *4312:B 0.000121672
2 *4311:A1 0.000230012
3 *3957:X 3.97337e-05
4 *175:6 0.000391419
5 *4311:A1 *4311:A2 0.000378332
6 *4311:A1 *4313:A1 1.1561e-05
7 *4311:A1 *176:10 0.00034443
8 *4311:A1 *647:43 0
9 *4311:A1 *690:73 0
10 *4312:B *3957:A 0.000302518
11 *4312:B *4313:A2 4.60584e-05
12 *4312:B *4835:A 7.57202e-05
13 *4312:B *176:16 0.00042877
14 *175:6 *3957:A 4.21973e-05
15 *175:6 *4313:B1 4.82863e-05
16 *175:6 *4578:D 8.57024e-05
*RES
1 *3957:X *175:6 2.74 
2 *175:6 *4311:A1 13.61 
3 *175:6 *4312:B 6.55 
*END

*D_NET *176 0.00743466
*CONN
*I *4313:A1 I *D sky130_fd_sc_hd__a21oi_2
*I *3960:D I *D sky130_fd_sc_hd__or4_2
*I *4314:B I *D sky130_fd_sc_hd__and2_2
*I *3959:B I *D sky130_fd_sc_hd__nor2_2
*I *4318:A3 I *D sky130_fd_sc_hd__o31ai_2
*I *3958:X O *D sky130_fd_sc_hd__or4_2
*CAP
1 *4313:A1 3.45556e-05
2 *3960:D 2.61242e-05
3 *4314:B 4.44512e-05
4 *3959:B 0.000206399
5 *4318:A3 3.5135e-05
6 *3958:X 0.000268419
7 *176:37 0.000296218
8 *176:35 0.000448604
9 *176:16 0.0012737
10 *176:10 0.00116442
11 *3959:B *3959:A 4.99619e-05
12 *3959:B *4315:A1 0.000202781
13 *3959:B *4316:A 0.000160071
14 *3959:B *177:10 0.000202758
15 *3959:B *688:36 0
16 *3959:B *979:23 2.03245e-05
17 *3960:D *3960:C 4.66108e-05
18 *4313:A1 *976:23 0
19 *4314:B *4315:A2 4.66108e-05
20 *4314:B *472:50 4.47209e-05
21 *4314:B *979:8 4.66108e-05
22 *4318:A3 *4318:A2 0
23 *176:10 *4311:A2 7.00889e-06
24 *176:10 *4576:RESET_B 0.000235585
25 *176:10 *647:18 8.88108e-06
26 *176:10 *690:73 9.24049e-05
27 *176:10 *690:82 5.36866e-05
28 *176:10 *976:23 0
29 *176:16 *4313:A2 1.61831e-05
30 *176:16 *4319:A2 0.000211757
31 *176:35 *4315:A1 0.000307296
32 *176:35 *4315:B1 0.000145686
33 *176:35 *4318:A1 8.58968e-05
34 *176:35 *4318:A2 0.00028276
35 *176:35 *4579:D 0.000201508
36 *176:35 *979:23 7.23602e-05
37 *176:37 *4315:A1 0.00015212
38 *176:37 *979:23 0.00015829
39 *4311:A1 *4313:A1 1.1561e-05
40 *4311:A1 *176:10 0.00034443
41 *4312:B *176:16 0.00042877
*RES
1 *3958:X *176:10 11.385 
2 *176:10 *176:16 13.16 
3 *176:16 *4318:A3 2.41 
4 *176:16 *176:35 11.42 
5 *176:35 *176:37 1.89 
6 *176:37 *3959:B 9.03 
7 *176:37 *4314:B 4.74 
8 *176:35 *3960:D 4.05 
9 *176:10 *4313:A1 4.215 
*END

*D_NET *177 0.00234177
*CONN
*I *4315:A1 I *D sky130_fd_sc_hd__o21a_2
*I *4316:B I *D sky130_fd_sc_hd__xnor2_2
*I *3959:Y O *D sky130_fd_sc_hd__nor2_2
*CAP
1 *4315:A1 0.000241624
2 *4316:B 1.71225e-05
3 *3959:Y 0.000154553
4 *177:10 0.000413299
5 *4315:A1 *4315:A2 0.000489644
6 *4315:A1 *4318:A2 2.34423e-05
7 *4315:A1 *4580:RESET_B 0
8 *4316:B *4316:A 8.65905e-05
9 *4316:B *4585:RESET_B 5.05437e-05
10 *177:10 *4580:RESET_B 0
11 *177:10 *688:36 0
12 *3959:B *4315:A1 0.000202781
13 *3959:B *177:10 0.000202758
14 *176:35 *4315:A1 0.000307296
15 *176:37 *4315:A1 0.00015212
*RES
1 *3959:Y *177:10 6.12 
2 *177:10 *4316:B 4.395 
3 *177:10 *4315:A1 11.865 
*END

*D_NET *178 0.00460267
*CONN
*I *3963:D I *D sky130_fd_sc_hd__or4_2
*I *3961:B I *D sky130_fd_sc_hd__or2_2
*I *4320:B I *D sky130_fd_sc_hd__nand2_2
*I *4322:A2 I *D sky130_fd_sc_hd__o21ai_2
*I *4319:A1 I *D sky130_fd_sc_hd__a21oi_2
*I *3960:X O *D sky130_fd_sc_hd__or4_2
*CAP
1 *3963:D 0.000107295
2 *3961:B 0
3 *4320:B 0.000188888
4 *4322:A2 0.000130917
5 *4319:A1 0.000338017
6 *3960:X 0.000603216
7 *178:38 0.000296183
8 *178:25 0.000510113
9 *178:10 0.00132043
10 *3963:D *3963:A 7.10578e-05
11 *3963:D *981:25 4.21973e-05
12 *4319:A1 *4581:D 0.000112023
13 *4320:B *4320:A 0.000164874
14 *4320:B *981:25 4.35348e-05
15 *4322:A2 *3963:B 5.42473e-05
16 *4322:A2 *4321:A2 0
17 *4322:A2 *4323:A2 5.4003e-05
18 *4322:A2 *4325:B1 0
19 *4322:A2 *4707:A 4.82863e-05
20 *4322:A2 *179:8 0
21 *4322:A2 *647:84 0
22 *4322:A2 *981:21 7.07801e-05
23 *4322:A2 *982:25 4.18603e-06
24 *178:10 *3960:A 2.75145e-05
25 *178:10 *3960:C 0.000269515
26 *178:10 *4816:A 4.99619e-05
27 *178:25 *4325:B1 0
28 *178:25 *4579:CLK 0
29 *178:25 *4580:D 9.5433e-05
30 *178:25 *4669:A 0
31 *178:25 *472:56 0
32 *178:25 *647:84 0
*RES
1 *3960:X *178:10 10.105 
2 *178:10 *4319:A1 6.13 
3 *178:10 *178:25 8.48 
4 *178:25 *4322:A2 6.705 
5 *178:25 *178:38 2 
6 *178:38 *4320:B 4.825 
7 *178:38 *3961:B 1.6 
8 *178:38 *3963:D 3.43 
*END

*D_NET *179 0.00236398
*CONN
*I *4321:A1 I *D sky130_fd_sc_hd__a21oi_2
*I *3962:B I *D sky130_fd_sc_hd__or2_2
*I *3961:X O *D sky130_fd_sc_hd__or2_2
*CAP
1 *4321:A1 3.22325e-05
2 *3962:B 0.00027875
3 *3961:X 7.07227e-05
4 *179:8 0.000381705
5 *3962:B *4323:A1 0.000369348
6 *3962:B *4323:B1 0.000207194
7 *3962:B *4583:CLK 0
8 *3962:B *4583:D 0.000141599
9 *3962:B *4841:A 0
10 *3962:B *463:8 0
11 *3962:B *982:25 0.000427312
12 *4321:A1 *4321:A2 4.82863e-05
13 *4321:A1 *4582:D 5.05437e-05
14 *4321:A1 *4707:A 4.15966e-05
15 *179:8 *3963:B 0.000128353
16 *179:8 *4321:A2 0.000139245
17 *179:8 *4323:B1 8.08153e-06
18 *179:8 *647:84 8.09021e-06
19 *179:8 *982:25 3.09164e-05
20 *4322:A2 *179:8 0
*RES
1 *3961:X *179:8 5.745 
2 *179:8 *3962:B 13.395 
3 *179:8 *4321:A1 4.755 
*END

*D_NET *180 0.00105477
*CONN
*I *4324:B I *D sky130_fd_sc_hd__nand2_2
*I *4323:A1 I *D sky130_fd_sc_hd__a21oi_2
*I *3962:X O *D sky130_fd_sc_hd__or2_2
*CAP
1 *4324:B 2.65106e-05
2 *4323:A1 0.000186269
3 *3962:X 0
4 *180:4 0.000212779
5 *4323:A1 *3962:A 0.000157678
6 *4323:A1 *4325:A2 0
7 *4323:A1 *4325:B1 0
8 *4323:A1 *4583:CLK 0
9 *4323:A1 *982:25 0.000102184
10 *3962:B *4323:A1 0.000369348
*RES
1 *3962:X *180:4 1.6 
2 *180:4 *4323:A1 11.54 
3 *180:4 *4324:B 2.05 
*END

*D_NET *181 0.0070206
*CONN
*I *4326:B I *D sky130_fd_sc_hd__and2_2
*I *3970:A I *D sky130_fd_sc_hd__or4_2
*I *3966:B I *D sky130_fd_sc_hd__or3_2
*I *4330:A1 I *D sky130_fd_sc_hd__o21ai_2
*I *3964:B I *D sky130_fd_sc_hd__nor2_2
*I *4325:A1 I *D sky130_fd_sc_hd__a21oi_2
*I *3963:X O *D sky130_fd_sc_hd__or4_2
*CAP
1 *4326:B 0.000158369
2 *3970:A 0.00018834
3 *3966:B 0.000286925
4 *4330:A1 0
5 *3964:B 0
6 *4325:A1 0.000477985
7 *3963:X 8.33634e-05
8 *181:49 0.00063186
9 *181:40 0.00037443
10 *181:36 0.00040778
11 *181:27 0.00096118
12 *181:10 0.00149095
13 *3966:B *3966:A 7.35813e-05
14 *3966:B *3966:C 0
15 *3966:B *3967:B 0
16 *3966:B *183:12 0
17 *3966:B *184:14 3.67779e-05
18 *3966:B *484:42 0
19 *3970:A *4330:A2 6.19997e-05
20 *3970:A *4337:A1 3.17194e-05
21 *3970:A *4819:A 0.000114024
22 *3970:A *188:10 1.16578e-05
23 *4325:A1 *3963:C 0
24 *4325:A1 *4325:A2 4.99619e-05
25 *4325:A1 *4325:B1 0
26 *4325:A1 *4583:RESET_B 0
27 *4325:A1 *4584:D 0.000296088
28 *4325:A1 *4584:RESET_B 0.000454597
29 *4325:A1 *688:36 0.000113732
30 *4325:A1 *983:10 0
31 *4326:B *3964:A 8.26783e-05
32 *4326:B *4327:A2 5.83121e-06
33 *4326:B *4328:B 5.53249e-06
34 *4326:B *4586:RESET_B 0
35 *4326:B *182:8 0.000102411
36 *181:10 *3963:C 0
37 *181:10 *688:36 7.06865e-05
38 *181:40 *3964:A 2.97004e-06
39 *181:40 *3967:B 0.000187071
40 *181:40 *4586:RESET_B 0
41 *181:40 *484:12 0
42 *181:49 *4330:A2 6.38806e-05
43 *181:49 *4331:A2 3.26889e-05
44 *181:49 *4819:A 0.000161529
*RES
1 *3963:X *181:10 4.92 
2 *181:10 *4325:A1 14.865 
3 *181:10 *181:27 12.29 
4 *181:27 *3964:B 1.6 
5 *181:27 *181:36 2.45 
6 *181:36 *181:40 5.93 
7 *181:40 *4330:A1 1.6 
8 *181:40 *181:49 2.88 
9 *181:49 *3966:B 9.905 
10 *181:49 *3970:A 5.08 
11 *181:36 *4326:B 6.795 
*END

*D_NET *182 0.00113621
*CONN
*I *4328:B I *D sky130_fd_sc_hd__xnor2_2
*I *4327:A1 I *D sky130_fd_sc_hd__o21a_2
*I *3964:Y O *D sky130_fd_sc_hd__nor2_2
*CAP
1 *4328:B 0.000280521
2 *4327:A1 0
3 *3964:Y 5.95306e-05
4 *182:8 0.000340052
5 *4328:B *4327:B1 3.26735e-05
6 *4328:B *4328:A 0
7 *4328:B *4586:RESET_B 0.000210431
8 *4328:B *648:41 0
9 *4328:B *939:27 0
10 *4328:B *963:10 0
11 *182:8 *4586:RESET_B 0.00010506
12 *4326:B *4328:B 5.53249e-06
13 *4326:B *182:8 0.000102411
*RES
1 *3964:Y *182:8 5.745 
2 *182:8 *4327:A1 3.6 
3 *182:8 *4328:B 9.57 
*END

*D_NET *183 0.00270841
*CONN
*I *3970:B I *D sky130_fd_sc_hd__or4_2
*I *4330:A2 I *D sky130_fd_sc_hd__o21ai_2
*I *3966:C I *D sky130_fd_sc_hd__or3_2
*I *3965:X O *D sky130_fd_sc_hd__or2_2
*CAP
1 *3970:B 0
2 *4330:A2 0.000241891
3 *3966:C 0.000131433
4 *3965:X 0.000389955
5 *183:12 0.000401685
6 *183:10 0.000418316
7 *3966:C *484:36 7.26629e-05
8 *3966:C *484:42 4.43871e-06
9 *4330:A2 *4330:B1 4.82919e-05
10 *4330:A2 *4331:A2 1.16578e-05
11 *4330:A2 *4819:A 0.000260278
12 *4330:A2 *184:14 0.000107415
13 *183:10 *3970:C 6.28498e-05
14 *183:10 *3970:D 1.07797e-05
15 *183:10 *3971:A 0
16 *183:10 *4338:B 0.000154488
17 *183:10 *4805:A 0
18 *183:10 *188:10 0.000140912
19 *183:10 *484:12 0
20 *183:12 *3970:C 5.33085e-05
21 *183:12 *3970:D 1.34361e-05
22 *183:12 *188:10 9.50342e-06
23 *183:12 *484:36 4.92284e-05
24 *3966:B *3966:C 0
25 *3966:B *183:12 0
26 *3970:A *4330:A2 6.19997e-05
27 *181:49 *4330:A2 6.38806e-05
*RES
1 *3965:X *183:10 11.295 
2 *183:10 *183:12 1.125 
3 *183:12 *3966:C 6.03 
4 *183:12 *4330:A2 9.345 
5 *183:10 *3970:B 3.6 
*END

*D_NET *184 0.00315185
*CONN
*I *4331:A1 I *D sky130_fd_sc_hd__a21oi_2
*I *4332:B I *D sky130_fd_sc_hd__nand2_2
*I *3968:B I *D sky130_fd_sc_hd__or2_2
*I *3966:X O *D sky130_fd_sc_hd__or3_2
*CAP
1 *4331:A1 3.55506e-05
2 *4332:B 7.39821e-05
3 *3968:B 0.000223407
4 *3966:X 0.000443626
5 *184:18 0.00044296
6 *184:14 0.000624748
7 *3968:B *4586:RESET_B 9.42224e-05
8 *3968:B *4706:A 1.52184e-05
9 *3968:B *470:64 0
10 *3968:B *648:30 1.52184e-05
11 *3968:B *691:32 8.49205e-05
12 *4332:B *4332:A 4.82919e-05
13 *4332:B *4333:A2 1.60203e-05
14 *4332:B *648:30 8.49205e-05
15 *184:14 *3966:A 4.92935e-05
16 *184:14 *4330:B1 4.82919e-05
17 *184:14 *4331:A2 4.58257e-05
18 *184:14 *965:22 3.67779e-05
19 *184:18 *4586:RESET_B 0.000265376
20 *184:18 *4588:RESET_B 0.000231564
21 *184:18 *648:30 0.000127443
22 *3966:B *184:14 3.67779e-05
23 *4330:A2 *184:14 0.000107415
*RES
1 *3966:X *184:14 11.51 
2 *184:14 *184:18 7.46 
3 *184:18 *3968:B 7.83 
4 *184:18 *4332:B 5.085 
5 *184:14 *4331:A1 2.215 
*END

*D_NET *185 0.000933545
*CONN
*I *3970:C I *D sky130_fd_sc_hd__or4_2
*I *3967:X O *D sky130_fd_sc_hd__or2_2
*CAP
1 *3970:C 0.000308114
2 *3967:X 0.000308114
3 *3970:C *3970:D 0.000162769
4 *3970:C *484:12 3.83895e-05
5 *183:10 *3970:C 6.28498e-05
6 *183:12 *3970:C 5.33085e-05
*RES
1 *3967:X *3970:C 11.79 
*END

*D_NET *186 0.00226218
*CONN
*I *4333:A1 I *D sky130_fd_sc_hd__a21oi_2
*I *4336:A2 I *D sky130_fd_sc_hd__o21ai_2
*I *4334:B I *D sky130_fd_sc_hd__xor2_2
*I *3968:X O *D sky130_fd_sc_hd__or2_2
*CAP
1 *4333:A1 0.000250875
2 *4336:A2 0
3 *4334:B 0.000397135
4 *3968:X 0.000416816
5 *186:8 0.000563076
6 *4333:A1 *4333:A2 5.30673e-05
7 *4333:A1 *4335:A 9.53428e-06
8 *4333:A1 *4335:B 8.8266e-05
9 *4333:A1 *648:18 0.000154196
10 *4333:A1 *648:24 0.000264512
11 *4334:B *4336:A1 0
12 *4334:B *4337:A2 5.92849e-05
13 *186:8 *4336:A1 5.4155e-06
*RES
1 *3968:X *186:8 7.93 
2 *186:8 *4334:B 6.4 
3 *186:8 *4336:A2 1.6 
4 *4334:B *4333:A1 7.9975 
*END

*D_NET *187 0.000851635
*CONN
*I *3970:D I *D sky130_fd_sc_hd__or4_2
*I *3969:X O *D sky130_fd_sc_hd__or2_2
*CAP
1 *3970:D 0.0002515
2 *3969:X 0.0002515
3 *3970:D *3967:A 0
4 *3970:D *3971:A 4.60584e-05
5 *3970:D *189:10 4.99619e-05
6 *3970:D *484:6 9.80943e-06
7 *3970:D *484:12 5.58206e-05
8 *3970:C *3970:D 0.000162769
9 *183:10 *3970:D 1.07797e-05
10 *183:12 *3970:D 1.34361e-05
*RES
1 *3969:X *3970:D 11.955 
*END

*D_NET *188 0.00145909
*CONN
*I *4337:A1 I *D sky130_fd_sc_hd__a21oi_2
*I *4338:B I *D sky130_fd_sc_hd__nand2_2
*I *3971:B I *D sky130_fd_sc_hd__or2_2
*I *3970:X O *D sky130_fd_sc_hd__or4_2
*CAP
1 *4337:A1 0.000132657
2 *4338:B 0.000223565
3 *3971:B 0
4 *3970:X 0
5 *188:10 0.000334164
6 *188:4 0.000243257
7 *4337:A1 *4590:D 7.00889e-06
8 *4338:B *3971:A 0
9 *4338:B *484:36 3.09164e-05
10 *188:10 *484:36 0.000139245
11 *3970:A *4337:A1 3.17194e-05
12 *3970:A *188:10 1.16578e-05
13 *183:10 *4338:B 0.000154488
14 *183:10 *188:10 0.000140912
15 *183:12 *188:10 9.50342e-06
*RES
1 *3970:X *188:4 1.6 
2 *188:4 *188:10 4.43 
3 *188:10 *3971:B 3.6 
4 *188:10 *4338:B 7.665 
5 *188:4 *4337:A1 3.955 
*END

*D_NET *189 0.00728265
*CONN
*I *4346:A3 I *D sky130_fd_sc_hd__o31a_2
*I *3973:D I *D sky130_fd_sc_hd__or4_2
*I *3972:B I *D sky130_fd_sc_hd__nor2_2
*I *4340:B I *D sky130_fd_sc_hd__xor2_2
*I *4342:A2 I *D sky130_fd_sc_hd__o21a_2
*I *4339:A1 I *D sky130_fd_sc_hd__a21oi_2
*I *3971:X O *D sky130_fd_sc_hd__or2_2
*CAP
1 *4346:A3 0.000223436
2 *3973:D 0.000393188
3 *3972:B 1.88809e-05
4 *4340:B 0.000351552
5 *4342:A2 0
6 *4339:A1 0.000162525
7 *3971:X 0.000555547
8 *189:54 0.000494485
9 *189:38 0.000643416
10 *189:16 0.000242343
11 *189:12 0.000372852
12 *189:10 0.000862568
13 *3973:D *4344:A 0.000160314
14 *3973:D *4595:D 0.000157947
15 *4339:A1 *4342:A1 5.10121e-06
16 *4339:A1 *4343:A2 7.7106e-05
17 *4346:A3 *4346:B1 1.9872e-05
18 *4346:A3 *4670:A 5.83121e-06
19 *4346:A3 *649:58 1.16578e-05
20 *189:10 *3969:A 4.82863e-05
21 *189:10 *3969:B 0.00045545
22 *189:10 *3971:A 8.8266e-05
23 *189:10 *4339:A2 0
24 *189:10 *4345:B 1.89685e-05
25 *189:10 *4591:RESET_B 0
26 *189:10 *4596:RESET_B 9.9535e-05
27 *189:10 *4670:A 0.00034058
28 *189:10 *484:6 3.07031e-05
29 *189:10 *485:51 0
30 *189:12 *4339:A2 0
31 *189:12 *4345:B 4.10568e-05
32 *189:12 *649:58 6.24871e-05
33 *189:16 *4343:A2 6.6925e-05
34 *189:38 *3955:A 0
35 *189:38 *4342:B1 0.00015974
36 *189:38 *4343:A1 0.000254644
37 *189:38 *4345:B 7.69411e-05
38 *189:38 *4591:D 0
39 *189:38 *190:8 0.000109009
40 *3970:D *189:10 4.99619e-05
41 *3973:C *3973:D 0.000161467
42 *173:8 *3972:B 5.4155e-06
43 *173:8 *3973:D 4.57009e-05
44 *173:8 *4340:B 5.07419e-05
45 *173:8 *189:54 2.54522e-05
46 *173:19 *3973:D 0.000332701
*RES
1 *3971:X *189:10 16.05 
2 *189:10 *189:12 1.635 
3 *189:12 *189:16 3.485 
4 *189:16 *4339:A1 4.42 
5 *189:16 *4342:A2 1.6 
6 *189:12 *189:38 7.97 
7 *189:38 *4340:B 4.3275 
8 *189:38 *189:54 1.155 
9 *189:54 *3972:B 1.96 
10 *189:54 *3973:D 14.135 
11 *189:10 *4346:A3 6.915 
*END

*D_NET *190 0.00263051
*CONN
*I *4344:B I *D sky130_fd_sc_hd__xnor2_2
*I *4343:A1 I *D sky130_fd_sc_hd__o21a_2
*I *3972:Y O *D sky130_fd_sc_hd__nor2_2
*CAP
1 *4344:B 0.000181427
2 *4343:A1 0.000549308
3 *3972:Y 7.75241e-05
4 *190:8 0.000808259
5 *4343:A1 *4342:A1 0
6 *4343:A1 *4345:B 0.000231564
7 *4343:A1 *4591:D 0
8 *4343:A1 *4831:A 1.47347e-05
9 *4343:A1 *705:52 0.000115464
10 *4343:A1 *970:6 0.000115474
11 *4344:B *4342:B1 1.19928e-05
12 *4344:B *4345:B 0.000161105
13 *190:8 *3955:A 0
14 *189:38 *4343:A1 0.000254644
15 *189:38 *190:8 0.000109009
*RES
1 *3972:Y *190:8 5.235 
2 *190:8 *4343:A1 16.825 
3 *190:8 *4344:B 6.81 
*END

*D_NET *191 0.00360941
*CONN
*I *4347:S I *D sky130_fd_sc_hd__mux2_1
*I *4348:B I *D sky130_fd_sc_hd__and2_2
*I *3974:B I *D sky130_fd_sc_hd__nor2_2
*I *3973:X O *D sky130_fd_sc_hd__or4_2
*CAP
1 *4347:S 0.000165495
2 *4348:B 0.000143898
3 *3974:B 0.000256357
4 *3973:X 3.98087e-05
5 *191:10 0.000477578
6 *191:8 0.000282626
7 *3974:B *3974:A 0.000235238
8 *3974:B *4346:B1 1.92281e-05
9 *3974:B *4347:A1 0.00018305
10 *3974:B *4595:RESET_B 0.000130057
11 *3974:B *4596:RESET_B 0.000118527
12 *3974:B *4671:A 0.000161467
13 *4347:S *4347:A0 0.000298349
14 *4347:S *4347:A1 0.000172852
15 *4348:B *4348:A 0.000312964
16 *4348:B *4601:A 2.0514e-05
17 *191:8 *4826:A 2.49909e-05
18 *191:10 *4347:A0 6.28498e-05
19 *191:10 *4347:A1 0.000284209
20 *191:10 *4348:A 0.000207783
21 *191:10 *4595:RESET_B 1.15688e-05
*RES
1 *3973:X *191:8 4.05 
2 *191:8 *191:10 3.42 
3 *191:10 *3974:B 10.755 
4 *191:10 *4348:B 6.81 
5 *191:8 *4347:S 7.995 
*END

*D_NET *192 0.00223668
*CONN
*I *4671:A I *D sky130_fd_sc_hd__clkdlybuf4s25_1
*I *3974:Y O *D sky130_fd_sc_hd__nor2_2
*CAP
1 *4671:A 0.000787501
2 *3974:Y 0.000787501
3 *4671:A *4346:B1 0.000344076
4 *4671:A *4594:RESET_B 0.000105911
5 *4671:A *4595:CLK 1.9872e-05
6 *4671:A *4596:RESET_B 3.03465e-05
7 *3974:B *4671:A 0.000161467
*RES
1 *3974:Y *4671:A 18.84 
*END

*D_NET *193 0.00399472
*CONN
*I *4267:B I *D sky130_fd_sc_hd__nand2_2
*I *3977:B I *D sky130_fd_sc_hd__or2_2
*I *4266:A1 I *D sky130_fd_sc_hd__a21oi_2
*I *3976:X O *D sky130_fd_sc_hd__or2_2
*CAP
1 *4267:B 0.000145028
2 *3977:B 0
3 *4266:A1 0.000693838
4 *3976:X 6.24278e-05
5 *193:27 0.000369478
6 *193:10 0.000980716
7 *4266:A1 *4265:B 4.93155e-05
8 *4266:A1 *4488:CLK 4.21579e-05
9 *4266:A1 *4488:D 0.000196052
10 *4266:A1 *4488:RESET_B 4.24575e-05
11 *4267:B *3977:A 4.77719e-05
12 *4267:B *194:10 1.93695e-05
13 *193:10 *4265:B 2.67184e-05
14 *193:10 *4270:A2 1.9291e-05
15 *193:10 *4488:RESET_B 0.000158072
16 *193:10 *194:10 4.9968e-05
17 *193:10 *917:42 8.40269e-05
18 *193:27 *3977:A 0.000113972
19 *193:27 *4270:A2 4.05363e-05
20 *193:27 *194:10 0.000619404
21 *193:27 *195:23 3.76596e-05
22 *193:27 *931:17 0.000196464
*RES
1 *3976:X *193:10 5.7 
2 *193:10 *4266:A1 11.91 
3 *193:10 *193:27 10.205 
4 *193:27 *3977:B 1.6 
5 *193:27 *4267:B 4.15 
*END

*D_NET *194 0.00343376
*CONN
*I *4268:A1 I *D sky130_fd_sc_hd__a21oi_2
*I *4269:B I *D sky130_fd_sc_hd__nand2_2
*I *3977:X O *D sky130_fd_sc_hd__or2_2
*CAP
1 *4268:A1 0.000221871
2 *4269:B 3.14934e-05
3 *3977:X 0.00043944
4 *194:10 0.000692805
5 *4268:A1 *4268:A2 4.64927e-05
6 *4268:A1 *4270:A2 0.000162684
7 *4268:A1 *466:8 0.000425273
8 *4269:B *917:42 5.16348e-05
9 *194:10 *3977:A 1.77595e-05
10 *194:10 *4269:A 6.81237e-05
11 *194:10 *195:10 0.000342247
12 *194:10 *195:23 0.000108322
13 *194:10 *675:48 0
14 *194:10 *917:42 0.000136877
15 *4267:B *194:10 1.93695e-05
16 *193:10 *194:10 4.9968e-05
17 *193:27 *194:10 0.000619404
*RES
1 *3977:X *194:10 14.715 
2 *194:10 *4269:B 4.215 
3 *194:10 *4268:A1 12.67 
*END

*D_NET *195 0.00596506
*CONN
*I *4271:B I *D sky130_fd_sc_hd__nand2_2
*I *3983:C I *D sky130_fd_sc_hd__or4_2
*I *4273:A2 I *D sky130_fd_sc_hd__o21ai_2
*I *3979:B I *D sky130_fd_sc_hd__or2_2
*I *4270:A1 I *D sky130_fd_sc_hd__a21oi_2
*I *3978:X O *D sky130_fd_sc_hd__or4_2
*CAP
1 *4271:B 0.000327088
2 *3983:C 0
3 *4273:A2 1.16297e-05
4 *3979:B 0.000152418
5 *4270:A1 0.0003011
6 *3978:X 0.000371162
7 *195:47 0.000518891
8 *195:25 0.000164047
9 *195:23 0.000346797
10 *195:10 0.000827257
11 *3979:B *3979:A 0.00013257
12 *3979:B *3980:A 0.000123225
13 *3979:B *3980:B 8.64421e-05
14 *3979:B *3983:D 4.82863e-05
15 *3979:B *4274:A2 4.21973e-05
16 *3979:B *197:12 3.38341e-05
17 *4270:A1 *4270:A2 0.000235335
18 *4270:A1 *4270:B1 1.08758e-05
19 *4271:B *3983:D 4.44927e-05
20 *4271:B *4271:A 0.000235335
21 *4271:B *4494:CLK 9.49958e-05
22 *4271:B *200:10 0
23 *4271:B *488:10 5.53249e-06
24 *4273:A2 *3983:D 2.16917e-05
25 *4273:A2 *197:12 3.25676e-05
26 *195:10 *3978:C 0.000122337
27 *195:10 *3978:D 0.000111285
28 *195:10 *675:46 6.23206e-05
29 *195:10 *675:48 7.25036e-05
30 *195:23 *4273:A1 5.16418e-05
31 *195:23 *675:46 0.000134807
32 *195:47 *3980:A 1.79098e-05
33 *195:47 *3983:D 0.000484929
34 *195:47 *4491:RESET_B 5.12017e-06
35 *195:47 *488:10 0.00017241
36 *195:47 *675:46 7.38016e-05
37 *193:27 *195:23 3.76596e-05
38 *194:10 *195:10 0.000342247
39 *194:10 *195:23 0.000108322
*RES
1 *3978:X *195:10 11.775 
2 *195:10 *4270:A1 8.55 
3 *195:10 *195:23 3.93 
4 *195:23 *195:25 2 
5 *195:25 *3979:B 5.89 
6 *195:25 *4273:A2 2.05 
7 *195:23 *195:47 6.225 
8 *195:47 *3983:C 3.6 
9 *195:47 *4271:B 9.645 
*END

*D_NET *196 0.00161644
*CONN
*I *4272:A1 I *D sky130_fd_sc_hd__a21oi_2
*I *3980:B I *D sky130_fd_sc_hd__or2_2
*I *3979:X O *D sky130_fd_sc_hd__or2_2
*CAP
1 *4272:A1 0.000386793
2 *3980:B 0.000103786
3 *3979:X 0.000490579
4 *3980:B *3979:A 4.2801e-05
5 *4272:A1 *4272:A2 5.18317e-06
6 *4272:A1 *4491:CLK 0
7 *4272:A1 *4491:D 0.000134878
8 *4272:A1 *4492:D 0.00028458
9 *4272:A1 *619:44 8.13946e-05
10 *3979:B *3980:B 8.64421e-05
*RES
1 *3979:X *3980:B 5.375 
2 *3979:X *4272:A1 14.055 
*END

*D_NET *197 0.00390236
*CONN
*I *3981:B I *D sky130_fd_sc_hd__or2_2
*I *4274:A1 I *D sky130_fd_sc_hd__a21oi_2
*I *4275:B I *D sky130_fd_sc_hd__nand2_2
*I *3980:X O *D sky130_fd_sc_hd__or2_2
*CAP
1 *3981:B 0.000430962
2 *4274:A1 0.000448666
3 *4275:B 6.47223e-05
4 *3980:X 0.000203582
5 *197:25 0.00103457
6 *197:12 0.000423249
7 *3981:B *3981:A 7.40446e-05
8 *3981:B *4493:D 3.72916e-05
9 *3981:B *198:8 8.25358e-05
10 *3981:B *935:25 8.40269e-05
11 *4274:A1 *4271:A 2.62303e-05
12 *4274:A1 *4491:RESET_B 0.000164196
13 *4274:A1 *4825:A 0.000119762
14 *4274:A1 *933:12 3.42332e-05
15 *4274:A1 *933:36 2.11702e-05
16 *4275:B *4276:A2 0
17 *4275:B *675:46 6.5525e-05
18 *197:12 *3980:A 4.99619e-05
19 *197:12 *3983:D 4.30766e-05
20 *197:12 *4273:A1 8.65905e-05
21 *197:12 *4273:B1 5.83121e-06
22 *197:25 *4273:B1 0.000126751
23 *197:25 *4276:A2 0
24 *197:25 *4491:RESET_B 7.44453e-05
25 *197:25 *675:36 0
26 *197:25 *675:46 0.000134531
27 *3979:B *197:12 3.38341e-05
28 *4273:A2 *197:12 3.25676e-05
*RES
1 *3980:X *197:12 6.93 
2 *197:12 *4275:B 4.98 
3 *197:12 *197:25 6.44 
4 *197:25 *4274:A1 12.845 
5 *197:25 *3981:B 8.26 
*END

*D_NET *198 0.002213
*CONN
*I *4277:B I *D sky130_fd_sc_hd__nand2_2
*I *4276:A1 I *D sky130_fd_sc_hd__a21oi_2
*I *3981:X O *D sky130_fd_sc_hd__or2_2
*CAP
1 *4277:B 0.000318273
2 *4276:A1 3.14155e-05
3 *3981:X 0.000397741
4 *198:8 0.00074743
5 *4276:A1 *4276:A2 5.53249e-06
6 *4276:A1 *675:36 4.58406e-05
7 *4276:A1 *677:14 0
8 *4277:B *4276:B1 0
9 *4277:B *4277:A 0.00011852
10 *4277:B *4278:A2 1.82563e-05
11 *4277:B *4493:RESET_B 4.7043e-05
12 *4277:B *4494:D 0
13 *4277:B *619:10 0
14 *4277:B *642:57 0
15 *4277:B *675:10 8.27265e-05
16 *4277:B *675:36 8.68724e-05
17 *4277:B *677:14 0
18 *4277:B *714:20 9.16237e-05
19 *198:8 *3981:A 1.47256e-05
20 *198:8 *4644:A 9.4087e-05
21 *198:8 *935:25 3.03775e-05
22 *3981:B *198:8 8.25358e-05
*RES
1 *3981:X *198:8 8.535 
2 *198:8 *4276:A1 4.47 
3 *198:8 *4277:B 11.1 
*END

*D_NET *199 0.00221995
*CONN
*I *3983:D I *D sky130_fd_sc_hd__or4_2
*I *3982:X O *D sky130_fd_sc_hd__or2_2
*CAP
1 *3983:D 0.000345394
2 *3982:X 0.000345394
3 *3983:D *3980:A 9.30717e-05
4 *3983:D *3983:A 0.000204456
5 *3983:D *4273:B1 7.10578e-05
6 *3983:D *4274:A2 0.000196376
7 *3983:D *200:10 1.01661e-05
8 *3983:D *619:25 8.40269e-05
9 *3983:D *934:21 0.000227536
10 *3979:B *3983:D 4.82863e-05
11 *4271:B *3983:D 4.44927e-05
12 *4273:A2 *3983:D 2.16917e-05
13 *195:47 *3983:D 0.000484929
14 *197:12 *3983:D 4.30766e-05
*RES
1 *3982:X *3983:D 17.775 
*END

*D_NET *200 0.00375242
*CONN
*I *4278:A1 I *D sky130_fd_sc_hd__a21oi_2
*I *3988:C I *D sky130_fd_sc_hd__or4_2
*I *3986:A I *D sky130_fd_sc_hd__or2_2
*I *3984:B I *D sky130_fd_sc_hd__or2_2
*I *4279:B I *D sky130_fd_sc_hd__nand2_2
*I *3983:X O *D sky130_fd_sc_hd__or4_2
*CAP
1 *4278:A1 7.41636e-05
2 *3988:C 0.000133092
3 *3986:A 4.98523e-05
4 *3984:B 0
5 *4279:B 0
6 *3983:X 0.000241683
7 *200:23 4.98523e-05
8 *200:21 0.000443728
9 *200:17 0.000479085
10 *200:10 0.000335969
11 *3986:A *3988:D 4.66108e-05
12 *3986:A *203:10 0.000119762
13 *3988:C *3988:A 0.000236723
14 *3988:C *3988:D 0
15 *3988:C *202:10 2.92496e-05
16 *3988:C *205:10 0.000167438
17 *3988:C *683:72 7.26629e-05
18 *200:10 *3983:A 1.26626e-05
19 *200:10 *4271:A 0.000218795
20 *200:10 *4274:A2 3.09164e-05
21 *200:10 *4494:D 0
22 *200:17 *4279:A 0.000161529
23 *200:21 *3984:A 0.000206817
24 *200:21 *4279:A 0.000118527
25 *200:21 *4280:A1 0
26 *200:21 *4820:A 0.000230876
27 *200:21 *201:8 0
28 *200:21 *202:10 0.000139238
29 *200:21 *642:57 0
30 *200:21 *683:72 3.40022e-05
31 *200:21 *937:25 0.000109016
32 *3983:D *200:10 1.01661e-05
33 *4271:B *200:10 0
*RES
1 *3983:X *200:10 10.295 
2 *200:10 *4279:B 1.6 
3 *200:10 *200:17 1.83 
4 *200:17 *200:21 10.265 
5 *200:21 *200:23 2 
6 *200:23 *3984:B 1.6 
7 *200:23 *3986:A 2.74 
8 *200:21 *3988:C 7.665 
9 *200:17 *4278:A1 2.74 
*END

*D_NET *201 0.00214655
*CONN
*I *4280:A1 I *D sky130_fd_sc_hd__a21oi_2
*I *4281:B I *D sky130_fd_sc_hd__nand2_2
*I *3984:X O *D sky130_fd_sc_hd__or2_2
*CAP
1 *4280:A1 0.000170895
2 *4281:B 0.000508343
3 *3984:X 0.000209326
4 *201:8 0.000888564
5 *4280:A1 *642:57 0.000170241
6 *4281:B *4281:A 3.7837e-05
7 *201:8 *3984:A 6.65066e-05
8 *201:8 *4496:RESET_B 6.13283e-05
9 *201:8 *4807:A 3.35139e-05
10 *200:21 *4280:A1 0
11 *200:21 *201:8 0
*RES
1 *3984:X *201:8 8.1675 
2 *201:8 *4281:B 9.9525 
3 *201:8 *4280:A1 6.6975 
*END

*D_NET *202 0.000978172
*CONN
*I *3986:B I *D sky130_fd_sc_hd__or2_2
*I *3988:D I *D sky130_fd_sc_hd__or4_2
*I *3985:X O *D sky130_fd_sc_hd__or2_2
*CAP
1 *3986:B 0
2 *3988:D 0.000193903
3 *3985:X 4.76804e-05
4 *202:10 0.000241584
5 *3988:D *3984:A 4.82863e-05
6 *3988:D *203:10 5.93869e-05
7 *3988:D *205:10 1.22762e-05
8 *202:10 *683:72 0.000159957
9 *3986:A *3988:D 4.66108e-05
10 *3988:C *3988:D 0
11 *3988:C *202:10 2.92496e-05
12 *200:21 *202:10 0.000139238
*RES
1 *3985:X *202:10 7.49 
2 *202:10 *3988:D 8.81 
3 *202:10 *3986:B 1.6 
*END

*D_NET *203 0.00267754
*CONN
*I *4283:B I *D sky130_fd_sc_hd__nand2_2
*I *3987:B I *D sky130_fd_sc_hd__or2_2
*I *4282:A1 I *D sky130_fd_sc_hd__a21oi_2
*I *3986:X O *D sky130_fd_sc_hd__or2_2
*CAP
1 *4283:B 0.000315844
2 *3987:B 0
3 *4282:A1 7.88582e-05
4 *3986:X 0.000449184
5 *203:21 0.000388395
6 *203:10 0.000600594
7 *4282:A1 *4281:A 2.76356e-05
8 *4283:B *4284:A2 2.61042e-05
9 *4283:B *4497:CLK 4.77757e-05
10 *4283:B *4498:D 3.64998e-06
11 *4283:B *496:22 2.84864e-05
12 *4283:B *496:24 0.000237667
13 *4283:B *496:46 8.35068e-05
14 *203:10 *3984:A 4.82863e-05
15 *203:10 *4281:A 2.61093e-05
16 *203:21 *496:24 0.000136296
17 *3986:A *203:10 0.000119762
18 *3988:D *203:10 5.93869e-05
*RES
1 *3986:X *203:10 9.07 
2 *203:10 *4282:A1 2.74 
3 *203:10 *203:21 3.635 
4 *203:21 *3987:B 3.6 
5 *203:21 *4283:B 12.865 
*END

*D_NET *204 0.00238126
*CONN
*I *4285:B I *D sky130_fd_sc_hd__nand2_2
*I *4284:A1 I *D sky130_fd_sc_hd__a21oi_2
*I *3987:X O *D sky130_fd_sc_hd__or2_2
*CAP
1 *4285:B 0
2 *4284:A1 6.73778e-05
3 *3987:X 0.000357167
4 *204:16 0.000424545
5 *4284:A1 *4284:A2 8.64421e-05
6 *4284:A1 *496:22 2.14655e-05
7 *4284:A1 *683:38 2.49909e-05
8 *204:16 *3987:A 0.00023701
9 *204:16 *3988:A 0.000201872
10 *204:16 *4285:A 0.000114492
11 *204:16 *4498:RESET_B 6.55328e-05
12 *204:16 *205:10 0.000516518
13 *204:16 *496:8 8.23457e-05
14 *204:16 *496:22 8.23457e-05
15 *204:16 *683:38 3.59784e-05
16 *204:16 *918:10 6.31804e-05
*RES
1 *3987:X *204:16 16.37 
2 *204:16 *4284:A1 3.085 
3 *204:16 *4285:B 1.6 
*END

*D_NET *205 0.00661758
*CONN
*I *3991:D I *D sky130_fd_sc_hd__or4_2
*I *4289:A2 I *D sky130_fd_sc_hd__o21ai_2
*I *3989:B I *D sky130_fd_sc_hd__or2_2
*I *4287:B I *D sky130_fd_sc_hd__nand2_2
*I *4286:A1 I *D sky130_fd_sc_hd__a21oi_2
*I *3988:X O *D sky130_fd_sc_hd__or4_2
*CAP
1 *3991:D 0.000127099
2 *4289:A2 0.000101657
3 *3989:B 2.0288e-05
4 *4287:B 6.03084e-05
5 *4286:A1 0.000199298
6 *3988:X 0.000533127
7 *205:49 0.000702862
8 *205:34 0.000548756
9 *205:23 0.00022907
10 *205:10 0.000846824
11 *3989:B *3989:A 4.77769e-05
12 *3991:D *3991:A 1.91597e-05
13 *3991:D *3991:C 8.52845e-05
14 *3991:D *4801:A 6.13951e-05
15 *3991:D *467:16 6.80075e-05
16 *3991:D *630:50 0.000195536
17 *4286:A1 *4286:A2 0.000122797
18 *4286:A1 *4498:D 0.000159453
19 *4287:B *4288:A1 0.000119873
20 *4289:A2 *4289:A1 0.000197822
21 *4289:A2 *4289:B1 0.000195432
22 *4289:A2 *4290:A2 4.77757e-05
23 *4289:A2 *4291:A 5.8322e-05
24 *205:10 *3988:A 0.000145156
25 *205:10 *4285:A 1.22839e-05
26 *205:10 *4499:CLK 1.37112e-05
27 *205:10 *4811:A 6.18754e-05
28 *205:10 *683:38 4.83032e-05
29 *205:10 *683:72 4.24292e-06
30 *205:23 *4288:A1 1.46781e-05
31 *205:23 *683:38 0.000118848
32 *205:34 *4288:A1 7.15997e-05
33 *205:34 *683:38 6.90545e-05
34 *205:49 *3990:B 5.4419e-05
35 *205:49 *3991:A 0.000235335
36 *205:49 *4288:A1 5.51127e-05
37 *205:49 *4289:B1 0.00015005
38 *205:49 *683:10 9.02962e-05
39 *205:49 *683:38 2.84549e-05
40 *3988:C *205:10 0.000167438
41 *3988:D *205:10 1.22762e-05
42 *204:16 *205:10 0.000516518
*RES
1 *3988:X *205:10 14.985 
2 *205:10 *4286:A1 7.17 
3 *205:10 *205:23 2.655 
4 *205:23 *4287:B 4.74 
5 *205:23 *205:34 1.635 
6 *205:34 *3989:B 4.05 
7 *205:34 *205:49 11.375 
8 *205:49 *4289:A2 4.81 
9 *205:49 *3991:D 9.14 
*END

*D_NET *206 0.00176378
*CONN
*I *3990:B I *D sky130_fd_sc_hd__or2_2
*I *4288:A1 I *D sky130_fd_sc_hd__a21oi_2
*I *3989:X O *D sky130_fd_sc_hd__or2_2
*CAP
1 *3990:B 0.000131323
2 *4288:A1 0.000380349
3 *3989:X 0
4 *206:6 0.000511672
5 *3990:B *3990:A 4.42148e-05
6 *3990:B *207:12 0.000115351
7 *3990:B *921:12 7.30505e-05
8 *4288:A1 *4287:A 3.79083e-05
9 *4288:A1 *4288:A2 4.89295e-05
10 *4288:A1 *4499:D 0.0001053
11 *4287:B *4288:A1 0.000119873
12 *205:23 *4288:A1 1.46781e-05
13 *205:34 *4288:A1 7.15997e-05
14 *205:49 *3990:B 5.4419e-05
15 *205:49 *4288:A1 5.51127e-05
*RES
1 *3989:X *206:6 3.6 
2 *206:6 *4288:A1 11.22 
3 *206:6 *3990:B 7.17 
*END

*D_NET *207 0.00219472
*CONN
*I *4290:A1 I *D sky130_fd_sc_hd__a21oi_2
*I *4291:B I *D sky130_fd_sc_hd__nand2_2
*I *3990:X O *D sky130_fd_sc_hd__or2_2
*CAP
1 *4290:A1 1.24183e-05
2 *4291:B 6.35176e-05
3 *3990:X 0.000864959
4 *207:12 0.000940895
5 *4291:B *4500:CLK 7.27003e-05
6 *207:12 *3990:A 2.38055e-05
7 *207:12 *4500:CLK 5.02929e-05
8 *207:12 *4500:D 1.29367e-05
9 *207:12 *921:12 3.78439e-05
10 *3990:B *207:12 0.000115351
*RES
1 *3990:X *207:12 13.135 
2 *207:12 *4291:B 3.1 
3 *207:12 *4290:A1 1.96 
*END

*D_NET *208 0.00686477
*CONN
*I *4292:A1 I *D sky130_fd_sc_hd__a21oi_2
*I *3992:B I *D sky130_fd_sc_hd__or2_2
*I *4293:B I *D sky130_fd_sc_hd__nand2_2
*I *3994:D I *D sky130_fd_sc_hd__or4_2
*I *3991:X O *D sky130_fd_sc_hd__or4_2
*CAP
1 *4292:A1 0
2 *3992:B 8.84794e-05
3 *4293:B 0
4 *3994:D 0.00046162
5 *3991:X 0.000443255
6 *208:30 0.000621554
7 *208:24 0.00101824
8 *208:14 0.00121308
9 *3992:B *3992:A 0.000101747
10 *3992:B *4298:A1 8.52845e-05
11 *3992:B *4298:A2 4.89295e-05
12 *3992:B *4298:B1 0.000138102
13 *3992:B *685:21 2.43962e-05
14 *3994:D *3994:A 9.07198e-05
15 *3994:D *3994:C 2.86975e-05
16 *3994:D *4294:A2 0.000561252
17 *3994:D *4298:A1 0.000160658
18 *3994:D *211:10 0.000755189
19 *208:14 *4292:A2 0.000473113
20 *208:14 *4454:D 1.1561e-05
21 *208:14 *467:16 2.50123e-05
22 *208:24 *4456:CLK 5.93889e-05
23 *208:24 *4456:RESET_B 2.5149e-05
24 *208:24 *4501:D 3.56804e-05
25 *208:24 *4839:A 0.000224171
26 *208:24 *530:18 0
27 *208:24 *685:21 6.87996e-05
28 *208:30 *4298:A1 1.74722e-05
29 *208:30 *4298:B1 7.8157e-05
30 *208:30 *4504:D 5.062e-06
*RES
1 *3991:X *208:14 13.955 
2 *208:14 *208:24 13.13 
3 *208:24 *208:30 4.355 
4 *208:30 *3994:D 18.26 
5 *208:30 *4293:B 1.6 
6 *208:24 *3992:B 6.51 
7 *208:14 *4292:A1 1.6 
*END

*D_NET *209 0.00268285
*CONN
*I *4295:B I *D sky130_fd_sc_hd__nand2_2
*I *3993:B I *D sky130_fd_sc_hd__or2_2
*I *4297:A2 I *D sky130_fd_sc_hd__o21ai_2
*I *4294:A1 I *D sky130_fd_sc_hd__a21oi_2
*I *3992:X O *D sky130_fd_sc_hd__or2_2
*CAP
1 *4295:B 0
2 *3993:B 1.24003e-05
3 *4297:A2 0
4 *4294:A1 9.33375e-05
5 *3992:X 0.000100957
6 *209:32 0.000281158
7 *209:12 0.000246032
8 *209:8 0.000522409
9 *3993:B *4296:A2 2.68464e-05
10 *3993:B *924:34 4.77719e-05
11 *4294:A1 *4503:CLK 5.97443e-05
12 *209:8 *4298:A2 8.23385e-05
13 *209:8 *4502:D 0.000177151
14 *209:8 *630:34 0.000329269
15 *209:12 *4297:A1 0.000122797
16 *209:12 *925:10 4.66108e-05
17 *209:32 *4296:B1 0.000156344
18 *209:32 *4297:A1 4.9515e-05
19 *209:32 *4502:D 0.000126569
20 *209:32 *630:34 0.000156973
21 *209:32 *924:23 4.46271e-05
*RES
1 *3992:X *209:8 7.53 
2 *209:8 *209:12 4.52 
3 *209:12 *4294:A1 7.49 
4 *209:12 *4297:A2 1.6 
5 *209:8 *209:32 7.97 
6 *209:32 *3993:B 2.05 
7 *209:32 *4295:B 1.6 
*END

*D_NET *210 0.00051553
*CONN
*I *4296:A1 I *D sky130_fd_sc_hd__a21oi_2
*I *3993:X O *D sky130_fd_sc_hd__or2_2
*CAP
1 *4296:A1 0.000144846
2 *3993:X 0.000144846
3 *4296:A1 *4296:A2 0.000225839
*RES
1 *3993:X *4296:A1 10.32 
*END

*D_NET *211 0.00695905
*CONN
*I *3995:C I *D sky130_fd_sc_hd__or3_2
*I *4299:B I *D sky130_fd_sc_hd__or2_2
*I *3996:D I *D sky130_fd_sc_hd__or4_2
*I *4300:B I *D sky130_fd_sc_hd__nand2_2
*I *4298:A1 I *D sky130_fd_sc_hd__a21oi_2
*I *3994:X O *D sky130_fd_sc_hd__or4_2
*CAP
1 *3995:C 0
2 *4299:B 0.000108738
3 *3996:D 0.000320133
4 *4300:B 0
5 *4298:A1 9.15449e-05
6 *3994:X 0.000229811
7 *211:44 0.000428872
8 *211:42 0.000363651
9 *211:25 0.000678967
10 *211:10 0.000636672
11 *3996:D *3995:A 0.00011379
12 *3996:D *4048:B 4.66742e-05
13 *3996:D *4299:A 7.21296e-06
14 *3996:D *4302:B 0.000113964
15 *3996:D *402:10 0.000301586
16 *3996:D *468:50 2.50049e-05
17 *3996:D *642:18 0.000140697
18 *3996:D *642:28 0.00034058
19 *3996:D *685:73 8.23457e-05
20 *3996:D *714:10 0
21 *3996:D *926:34 1.44177e-05
22 *4298:A1 *3992:A 0.000124473
23 *4298:A1 *4298:B1 5.48123e-05
24 *4298:A1 *4504:D 3.96653e-05
25 *4298:A1 *685:21 0.000137578
26 *4298:A1 *685:31 3.09233e-05
27 *4299:B *4299:A 0.000132356
28 *4299:B *402:10 0.000107634
29 *211:10 *3994:A 5.73362e-05
30 *211:10 *4503:RESET_B 0.00031848
31 *211:10 *685:31 0.000244453
32 *211:25 *4829:A 4.66108e-05
33 *211:42 *3995:A 4.66108e-05
34 *211:42 *4300:A 2.01885e-05
35 *211:42 *4301:A2 0.00016063
36 *211:42 *4303:A1 0.000122961
37 *211:42 *4304:B 6.71882e-05
38 *211:42 *4506:D 2.32597e-05
39 *211:42 *4508:CLK 3.05373e-05
40 *211:42 *4667:A 0
41 *211:42 *402:10 8.78892e-05
42 *211:42 *468:54 4.21973e-05
43 *3992:B *4298:A1 8.52845e-05
44 *3994:D *4298:A1 0.000160658
45 *3994:D *211:10 0.000755189
46 *208:30 *4298:A1 1.74722e-05
*RES
1 *3994:X *211:10 12.15 
2 *211:10 *4298:A1 7.32 
3 *211:10 *211:25 6.59 
4 *211:25 *4300:B 1.6 
5 *211:25 *211:42 11.545 
6 *211:42 *211:44 2 
7 *211:44 *3996:D 13.215 
8 *211:44 *4299:B 6.135 
9 *211:42 *3995:C 1.6 
*END

*D_NET *212 0.00370231
*CONN
*I *4304:B I *D sky130_fd_sc_hd__and2_2
*I *4303:A1 I *D sky130_fd_sc_hd__a21oi_2
*I *3995:X O *D sky130_fd_sc_hd__or3_2
*CAP
1 *4304:B 0.00114462
2 *4303:A1 6.13232e-05
3 *3995:X 0.00120594
4 *4303:A1 *4301:A2 1.70935e-05
5 *4303:A1 *4303:A2 8.53113e-06
6 *4303:A1 *4506:D 4.99619e-05
7 *4303:A1 *4667:A 4.11198e-05
8 *4303:A1 *402:10 1.44177e-05
9 *4304:B *3995:A 1.19928e-05
10 *4304:B *3995:B 3.1562e-06
11 *4304:B *3996:C 3.00381e-05
12 *4304:B *4668:A 0.000252282
13 *4304:B *468:54 2.04648e-05
14 *4304:B *692:18 0
15 *4304:B *929:12 0.000651223
16 *211:42 *4303:A1 0.000122961
17 *211:42 *4304:B 6.71882e-05
*RES
1 *3995:X *4303:A1 9.285 
2 *3995:X *4304:B 24.81 
*END

*D_NET *213 0.00306779
*CONN
*I *3997:B I *D sky130_fd_sc_hd__nor2_2
*I *4305:S I *D sky130_fd_sc_hd__mux2_1
*I *4306:B I *D sky130_fd_sc_hd__and2_2
*I *3996:X O *D sky130_fd_sc_hd__or4_2
*CAP
1 *3997:B 0.0001531
2 *4305:S 0
3 *4306:B 0.00020643
4 *3996:X 0.000344322
5 *213:12 0.000703852
6 *4306:B *4305:A0 9.24127e-05
7 *4306:B *4507:D 3.64998e-06
8 *4306:B *4508:CLK 0
9 *4306:B *4508:RESET_B 0
10 *213:12 *3996:C 4.66108e-05
11 *213:12 *4048:B 4.43871e-06
12 *213:12 *4299:A 0
13 *213:12 *4302:A 0.000160658
14 *213:12 *4305:A0 1.70935e-05
15 *213:12 *4305:A1 0.000824062
16 *213:12 *4508:RESET_B 0.000162318
17 *213:12 *4703:A 0
18 *213:12 *692:18 0.000348838
*RES
1 *3996:X *213:12 17.12 
2 *213:12 *4306:B 9.23 
3 *213:12 *4305:S 1.6 
4 *213:12 *3997:B 3.79 
*END

*D_NET *214 0.000911226
*CONN
*I *4668:A I *D sky130_fd_sc_hd__clkdlybuf4s25_1
*I *3997:Y O *D sky130_fd_sc_hd__nor2_2
*CAP
1 *4668:A 0.000279208
2 *3997:Y 0.000279208
3 *4668:A *4508:RESET_B 0
4 *4668:A *4709:A 0.000100528
5 *4668:A *692:18 0
6 *4304:B *4668:A 0.000252282
*RES
1 *3997:Y *4668:A 12.36 
*END

*D_NET *215 0.00246739
*CONN
*I *4210:A I *D sky130_fd_sc_hd__nor2_2
*I *4212:B I *D sky130_fd_sc_hd__xnor2_2
*I *3999:Y O *D sky130_fd_sc_hd__nor2_2
*CAP
1 *4210:A 0.000427797
2 *4212:B 0.000665787
3 *3999:Y 0.000237991
4 *4210:A *4000:A 4.96188e-05
5 *4210:A *4000:B 0.000202134
6 *4210:A *4000:C 0.000119251
7 *4210:A *4013:A 0.00014604
8 *4210:A *4211:A2 0
9 *4210:A *597:33 0.000214381
10 *4210:A *597:73 6.04839e-05
11 *4210:A *662:14 0
12 *4210:A *883:10 0.000129603
13 *4210:A *886:14 7.32625e-05
14 *4212:B *4000:D 4.66108e-05
15 *4212:B *4013:A 2.10905e-05
16 *4212:B *4214:B1 2.02316e-05
17 *4212:B *4599:A 1.8969e-05
18 *4212:B *886:12 4.28112e-06
19 *4212:B *887:8 2.98587e-05
*RES
1 *3999:Y *4212:B 10.335 
2 *4212:B *4210:A 18 
*END

*D_NET *216 0.00460737
*CONN
*I *4217:B I *D sky130_fd_sc_hd__and2_2
*I *4002:D I *D sky130_fd_sc_hd__or4_2
*I *4001:B I *D sky130_fd_sc_hd__nor2_2
*I *4222:A3 I *D sky130_fd_sc_hd__o31ai_2
*I *4215:A I *D sky130_fd_sc_hd__and2_2
*I *4000:X O *D sky130_fd_sc_hd__or4_2
*CAP
1 *4217:B 0
2 *4002:D 0.000329299
3 *4001:B 0
4 *4222:A3 0.000322632
5 *4215:A 0.000370634
6 *4000:X 4.85858e-05
7 *216:42 0.000514319
8 *216:27 0.000507652
9 *216:25 0.000480434
10 *216:8 0.000899654
11 *4002:D *4519:RESET_B 0
12 *4215:A *4216:A2 7.60965e-05
13 *4215:A *4216:B1 0.000110261
14 *4215:A *4512:CLK 0.000113097
15 *4222:A3 *4218:B 5.00391e-05
16 *4222:A3 *4222:A1 0.000198656
17 *4222:A3 *4222:A2 4.77769e-05
18 *216:8 *4213:A2 0.000136052
19 *216:8 *4512:CLK 2.98644e-05
20 *216:8 *492:18 0.000126927
21 *216:25 *4213:A1 4.88428e-05
22 *216:42 *4222:A1 1.28996e-05
23 *216:42 *888:12 0.000183653
*RES
1 *4000:X *216:8 5.49 
2 *216:8 *4215:A 10.485 
3 *216:8 *216:25 9.02 
4 *216:25 *216:27 2 
5 *216:27 *4222:A3 9.15 
6 *216:27 *216:42 4.185 
7 *216:42 *4001:B 3.6 
8 *216:42 *4002:D 8.52 
9 *216:25 *4217:B 1.6 
*END

*D_NET *217 0.00267877
*CONN
*I *4220:B I *D sky130_fd_sc_hd__xnor2_2
*I *4218:A I *D sky130_fd_sc_hd__nor2_2
*I *4001:Y O *D sky130_fd_sc_hd__nor2_2
*CAP
1 *4220:B 0
2 *4218:A 0.000471834
3 *4001:Y 0.000549964
4 *217:10 0.0010218
5 *4218:A *4002:C 2.47547e-05
6 *4218:A *4218:B 3.95724e-05
7 *4218:A *4219:A2 7.35813e-05
8 *4218:A *4221:A1 0.000123188
9 *4218:A *4222:B1 0.00010287
10 *4218:A *575:24 1.10435e-05
11 *217:10 *4002:A 1.14953e-05
12 *217:10 *4002:C 3.97492e-05
13 *217:10 *4513:RESET_B 7.95914e-05
14 *217:10 *575:24 5.47844e-05
15 *217:10 *674:79 4.11729e-05
16 *217:10 *888:8 3.33763e-05
*RES
1 *4001:Y *217:10 10.605 
2 *217:10 *4218:A 12.87 
3 *217:10 *4220:B 3.6 
*END

*D_NET *218 0.00641676
*CONN
*I *4230:A3 I *D sky130_fd_sc_hd__o31ai_2
*I *4004:D I *D sky130_fd_sc_hd__or4_2
*I *4003:B I *D sky130_fd_sc_hd__nor2_2
*I *4225:B I *D sky130_fd_sc_hd__and2_2
*I *4223:A I *D sky130_fd_sc_hd__and2_2
*I *4002:X O *D sky130_fd_sc_hd__or4_2
*CAP
1 *4230:A3 6.64871e-05
2 *4004:D 3.68808e-05
3 *4003:B 0.000499334
4 *4225:B 0.000222281
5 *4223:A 0
6 *4002:X 5.77622e-05
7 *218:35 0.000765864
8 *218:33 0.000425131
9 *218:25 0.00114973
10 *218:8 0.000797004
11 *4003:B *4003:A 7.57472e-05
12 *4003:B *4226:A 4.53396e-05
13 *4003:B *4229:A1 0.000154208
14 *4003:B *4229:A2 7.01303e-05
15 *4003:B *4517:D 7.6391e-05
16 *4003:B *4600:A 0
17 *4003:B *219:8 3.58034e-05
18 *4004:D *4228:A 5.83121e-06
19 *4225:B *4225:A 0.000161005
20 *4225:B *4600:A 0.000109449
21 *4225:B *674:53 0.000202102
22 *4230:A3 *4230:A2 0
23 *4230:A3 *4230:B1 0.000124895
24 *4230:A3 *4231:B 3.45588e-05
25 *218:8 *4223:B 0.00011852
26 *218:8 *4519:RESET_B 0
27 *218:25 *4519:RESET_B 0
28 *218:25 *4520:D 9.37731e-05
29 *218:25 *477:20 6.27529e-05
30 *218:25 *661:12 9.37731e-05
31 *218:25 *661:18 0.000120101
32 *218:33 *4230:A2 2.03356e-05
33 *218:33 *4230:B1 0.000276441
34 *218:33 *674:53 0.000140384
35 *218:33 *892:12 8.5242e-05
36 *218:35 *4600:A 2.86895e-05
37 *218:35 *674:53 0.000163012
38 *218:35 *892:12 9.78012e-05
*RES
1 *4002:X *218:8 4.98 
2 *218:8 *4223:A 3.6 
3 *218:8 *218:25 13.145 
4 *218:25 *218:33 7.385 
5 *218:33 *218:35 1.89 
6 *218:35 *4225:B 8.535 
7 *218:35 *4003:B 14.74 
8 *218:33 *4004:D 4.05 
9 *218:25 *4230:A3 3.445 
*END

*D_NET *219 0.00113508
*CONN
*I *4228:B I *D sky130_fd_sc_hd__xnor2_2
*I *4226:A I *D sky130_fd_sc_hd__nor2_2
*I *4003:Y O *D sky130_fd_sc_hd__nor2_2
*CAP
1 *4228:B 0.00012375
2 *4226:A 0.000202386
3 *4003:Y 7.19555e-05
4 *219:8 0.000398092
5 *4226:A *4517:D 8.30853e-06
6 *4228:B *4229:A2 8.35106e-05
7 *4228:B *4517:D 0.000155056
8 *219:8 *4003:A 1.08758e-05
9 *4003:B *4226:A 4.53396e-05
10 *4003:B *219:8 3.58034e-05
*RES
1 *4003:Y *219:8 4.74 
2 *219:8 *4226:A 6.45 
3 *219:8 *4228:B 6.285 
*END

*D_NET *220 0.00471528
*CONN
*I *4006:D I *D sky130_fd_sc_hd__or4_2
*I *4238:A3 I *D sky130_fd_sc_hd__o31ai_2
*I *4005:B I *D sky130_fd_sc_hd__nor2_2
*I *4233:B I *D sky130_fd_sc_hd__and2_2
*I *4231:A I *D sky130_fd_sc_hd__and2_2
*I *4004:X O *D sky130_fd_sc_hd__or4_2
*CAP
1 *4006:D 0.000159474
2 *4238:A3 0.000133642
3 *4005:B 0
4 *4233:B 0
5 *4231:A 0
6 *4004:X 0.000429915
7 *220:47 0.00044862
8 *220:38 0.000614832
9 *220:21 0.000580647
10 *220:12 0.000551233
11 *4006:D *4005:A 1.60203e-05
12 *4006:D *4006:A 7.37172e-05
13 *4006:D *4236:A 4.82863e-05
14 *4006:D *873:25 2.05056e-05
15 *4006:D *874:32 0.00021083
16 *4238:A3 *4238:A1 1.26626e-05
17 *4238:A3 *4238:A2 0.000160658
18 *4238:A3 *4240:B1 0
19 *220:12 *4004:C 0
20 *220:12 *4231:B 6.55328e-05
21 *220:12 *4234:B 0
22 *220:12 *4235:A2 0
23 *220:12 *893:8 0
24 *220:21 *4233:A 5.4155e-06
25 *220:21 *4234:B 5.30673e-05
26 *220:38 *4233:A 0.000158608
27 *220:38 *4234:B 1.34503e-05
28 *220:38 *4235:A1 1.01661e-05
29 *220:38 *4240:A1 0
30 *220:38 *4240:A2 8.49205e-05
31 *220:38 *4240:B1 3.07027e-05
32 *220:38 *4519:D 0.000189291
33 *220:38 *4630:A 6.47594e-05
34 *220:38 *477:10 0.000133075
35 *220:38 *477:12 0.000193564
36 *220:38 *477:20 8.53113e-06
37 *220:47 *4005:A 0.000120819
38 *220:47 *4236:B 0.000122331
*RES
1 *4004:X *220:12 11.195 
2 *220:12 *4231:A 1.6 
3 *220:12 *220:21 2.19 
4 *220:21 *4233:B 1.6 
5 *220:21 *220:38 14.245 
6 *220:38 *4005:B 1.6 
7 *220:38 *220:47 3.225 
8 *220:47 *4238:A3 8.195 
9 *220:47 *4006:D 5.17 
*END

*D_NET *221 0.00203963
*CONN
*I *4236:B I *D sky130_fd_sc_hd__xnor2_2
*I *4234:A I *D sky130_fd_sc_hd__nor2_2
*I *4005:Y O *D sky130_fd_sc_hd__nor2_2
*CAP
1 *4236:B 2.46411e-05
2 *4234:A 0.000410233
3 *4005:Y 0.000434875
4 *4234:A *4005:A 1.16578e-05
5 *4234:A *4235:A2 0.000557919
6 *4234:A *4240:A1 0.000255632
7 *4234:A *477:24 3.25831e-05
8 *4234:A *575:14 6.74234e-05
9 *4236:B *4005:A 0.000122331
10 *220:47 *4236:B 0.000122331
*RES
1 *4005:Y *4234:A 16.785 
2 *4005:Y *4236:B 4.34 
*END

*D_NET *222 0.00449385
*CONN
*I *4239:A I *D sky130_fd_sc_hd__and2_2
*I *4008:D I *D sky130_fd_sc_hd__or4_2
*I *4246:A3 I *D sky130_fd_sc_hd__o31ai_2
*I *4241:B I *D sky130_fd_sc_hd__and2_2
*I *4007:B I *D sky130_fd_sc_hd__nor2_2
*I *4006:X O *D sky130_fd_sc_hd__or4_2
*CAP
1 *4239:A 0
2 *4008:D 0.000118422
3 *4246:A3 0
4 *4241:B 0.000412238
5 *4007:B 0.000459726
6 *4006:X 0.000149394
7 *222:41 0.000547555
8 *222:33 0.000544618
9 *222:14 0.000774072
10 *222:12 0.00017286
11 *4007:B *4238:A1 4.43591e-05
12 *4007:B *4238:A2 8.40213e-05
13 *4007:B *4238:B1 1.12578e-05
14 *4007:B *4239:B 0.000211043
15 *4008:D *4246:B1 2.75145e-05
16 *4008:D *4247:A 0
17 *4008:D *663:10 0
18 *4241:B *4241:A 0.000202372
19 *4241:B *4242:B 2.20732e-05
20 *4241:B *4246:A2 4.92062e-05
21 *4241:B *4247:B 0
22 *4241:B *4248:A2 0.0001249
23 *4241:B *876:16 2.7441e-05
24 *4241:B *876:20 0.00014719
25 *222:12 *4006:B 3.09164e-05
26 *222:12 *4238:B1 6.30316e-05
27 *222:14 *4238:B1 2.49909e-05
28 *222:33 *4238:B1 5.23362e-05
29 *222:33 *4247:A 0
30 *222:33 *4248:A2 0
31 *222:33 *663:16 0
32 *222:33 *677:33 0
33 *222:41 *4247:B 0.000164874
34 *222:41 *4248:A2 2.7441e-05
*RES
1 *4006:X *222:12 8.375 
2 *222:12 *222:14 0.45 
3 *222:14 *4007:B 9.1 
4 *222:14 *222:33 6.5675 
5 *222:33 *222:41 4.8575 
6 *222:41 *4241:B 9.145 
7 *222:41 *4246:A3 1.6 
8 *222:33 *4008:D 5.5575 
9 *222:12 *4239:A 1.6 
*END

*D_NET *223 0.00267858
*CONN
*I *4242:A I *D sky130_fd_sc_hd__nor2_2
*I *4244:B I *D sky130_fd_sc_hd__xnor2_2
*I *4007:Y O *D sky130_fd_sc_hd__nor2_2
*CAP
1 *4242:A 0.000184076
2 *4244:B 0.000481733
3 *4007:Y 0.000297658
4 *4242:A *4243:A2 1.01661e-05
5 *4242:A *4245:A1 6.67166e-05
6 *4242:A *4522:D 7.81876e-05
7 *4242:A *450:10 0.000498395
8 *4242:A *457:10 0.000141606
9 *4242:A *488:67 0
10 *4242:A *491:18 0
11 *4244:B *4007:A 0
12 *4244:B *4240:A1 0.000162318
13 *4244:B *4242:B 7.34364e-05
14 *4244:B *4244:A 1.26626e-05
15 *4244:B *4245:A2 0.000319862
16 *4244:B *4523:CLK 0.000163992
17 *4244:B *586:39 0.000162332
18 *4244:B *677:14 2.54436e-05
*RES
1 *4007:Y *4244:B 15.405 
2 *4244:B *4242:A 13.17 
*END

*D_NET *224 0.00607289
*CONN
*I *4011:C I *D sky130_fd_sc_hd__or4_2
*I *4010:A I *D sky130_fd_sc_hd__nor2_2
*I *4260:A2 I *D sky130_fd_sc_hd__o31a_2
*I *4255:A3 I *D sky130_fd_sc_hd__o31a_2
*I *4249:B I *D sky130_fd_sc_hd__nor2_2
*I *4250:B I *D sky130_fd_sc_hd__nand2_2
*I *4247:A I *D sky130_fd_sc_hd__and2_2
*I *4008:X O *D sky130_fd_sc_hd__or4_2
*CAP
1 *4011:C 6.09033e-05
2 *4010:A 0
3 *4260:A2 3.23488e-05
4 *4255:A3 0.000435127
5 *4249:B 0
6 *4250:B 0.000156511
7 *4247:A 0.000185513
8 *4008:X 9.90189e-05
9 *224:49 0.000530411
10 *224:43 0.000954207
11 *224:39 0.000416336
12 *224:29 0.000391646
13 *224:23 0.000655986
14 *224:6 0.000726775
15 *4011:C *4260:B1 3.93301e-05
16 *4247:A *663:10 0.000108322
17 *4247:A *663:16 8.53113e-06
18 *4250:B *4249:A 2.14129e-05
19 *4250:B *4250:A 0.000116927
20 *4250:B *879:25 8.49205e-05
21 *4255:A3 *4255:A1 1.33293e-05
22 *4255:A3 *879:25 4.33703e-05
23 *4255:A3 *881:8 7.60965e-05
24 *4260:A2 *225:20 3.05373e-05
25 *4260:A2 *608:16 0
26 *224:6 *878:12 2.11084e-05
27 *224:23 *4011:A 3.64998e-06
28 *224:23 *227:10 2.17886e-05
29 *224:29 *4011:D 8.09021e-06
30 *224:29 *4260:B1 0.000167709
31 *224:29 *663:57 0.000119277
32 *224:39 *4011:D 2.63322e-05
33 *224:39 *4260:B1 2.30292e-05
34 *224:39 *225:20 1.34503e-05
35 *224:39 *225:26 0.000179897
36 *224:43 *4662:A 0
37 *224:43 *225:20 9.49958e-05
38 *224:43 *608:16 0
39 *224:43 *679:10 7.23602e-05
40 *224:49 *4527:CLK 8.88715e-05
41 *224:49 *879:25 4.47678e-05
42 *4008:D *4247:A 0
43 *222:33 *4247:A 0
*RES
1 *4008:X *224:6 2.74 
2 *224:6 *4247:A 8.81 
3 *224:6 *224:23 6.935 
4 *224:23 *224:29 6.125 
5 *224:29 *224:39 5.69 
6 *224:39 *224:43 4.91 
7 *224:43 *224:49 4.875 
8 *224:49 *4250:B 8.735 
9 *224:49 *4249:B 1.6 
10 *224:43 *4255:A3 6.895 
11 *224:39 *4260:A2 4.215 
12 *224:29 *4010:A 1.6 
13 *224:23 *4011:C 4.77 
*END

*D_NET *225 0.00373625
*CONN
*I *4260:A3 I *D sky130_fd_sc_hd__o31a_2
*I *4010:B I *D sky130_fd_sc_hd__nor2_2
*I *4011:D I *D sky130_fd_sc_hd__or4_2
*I *4009:X O *D sky130_fd_sc_hd__or3_2
*CAP
1 *4260:A3 0
2 *4010:B 0
3 *4011:D 9.52123e-05
4 *4009:X 0.000800213
5 *225:26 0.000162545
6 *225:20 0.000867546
7 *4011:D *4260:B1 0.000368139
8 *4011:D *4527:CLK 0.000337538
9 *225:20 *4253:A 0.000159112
10 *225:20 *4253:B 2.11084e-05
11 *225:20 *4258:B 8.8266e-05
12 *225:20 *4260:A1 4.82863e-05
13 *225:20 *4262:A 2.05056e-05
14 *225:20 *4535:RESET_B 5.83121e-06
15 *225:20 *4683:A 3.59311e-05
16 *225:20 *458:12 0
17 *225:20 *608:16 0
18 *225:20 *679:10 0.000162311
19 *225:20 *679:12 9.47454e-05
20 *225:20 *682:14 0
21 *225:20 *880:14 3.81908e-06
22 *225:26 *4258:B 1.12578e-05
23 *225:26 *4260:B1 0.000100575
24 *4260:A2 *225:20 3.05373e-05
25 *224:29 *4011:D 8.09021e-06
26 *224:39 *4011:D 2.63322e-05
27 *224:39 *225:20 1.34503e-05
28 *224:39 *225:26 0.000179897
29 *224:43 *225:20 9.49958e-05
*RES
1 *4009:X *225:20 19.415 
2 *225:20 *225:26 2.46 
3 *225:26 *4011:D 9.98 
4 *225:26 *4010:B 1.6 
5 *225:20 *4260:A3 1.6 
*END

*D_NET *226 0.000988463
*CONN
*I *4258:B I *D sky130_fd_sc_hd__xnor2_2
*I *4256:A I *D sky130_fd_sc_hd__nor2_2
*I *4010:Y O *D sky130_fd_sc_hd__nor2_2
*CAP
1 *4258:B 0.000188152
2 *4256:A 6.65052e-05
3 *4010:Y 0.000254657
4 *4256:A *4527:CLK 6.74079e-05
5 *4256:A *663:57 0
6 *4258:B *4260:A1 0
7 *4258:B *4260:B1 0.000122331
8 *4258:B *4262:A 0.000189886
9 *4258:B *608:16 0
10 *225:20 *4258:B 8.8266e-05
11 *225:26 *4258:B 1.12578e-05
*RES
1 *4010:Y *4256:A 8.58 
2 *4010:Y *4258:B 11.265 
*END

*D_NET *227 0.0023417
*CONN
*I *4263:A2 I *D sky130_fd_sc_hd__a21bo_2
*I *4012:B I *D sky130_fd_sc_hd__nor2_2
*I *4261:A2 I *D sky130_fd_sc_hd__o21ai_2
*I *4011:X O *D sky130_fd_sc_hd__or4_2
*CAP
1 *4263:A2 7.3454e-05
2 *4012:B 0.000133166
3 *4261:A2 0
4 *4011:X 0.000226932
5 *227:21 0.000426158
6 *227:10 0.000446469
7 *4012:B *4263:B1_N 0
8 *4012:B *4663:A 0.000117116
9 *4012:B *663:6 0.000119631
10 *4012:B *676:20 0.000187071
11 *4263:A2 *4263:A1 4.82919e-05
12 *4263:A2 *4263:B1_N 1.12643e-05
13 *4263:A2 *4663:A 0.000170472
14 *4263:A2 *350:12 0.000198945
15 *4263:A2 *663:6 7.85634e-05
16 *227:10 *494:60 0
17 *227:10 *663:10 0
18 *227:10 *884:10 0
19 *227:21 *4261:B1 0
20 *227:21 *4263:B1_N 0
21 *227:21 *4524:RESET_B 0
22 *227:21 *4530:D 7.81876e-05
23 *227:21 *663:10 0
24 *227:21 *676:20 0
25 *4261:A1 *227:10 0
26 *4261:A1 *227:21 0
27 *4422:D *4012:B 4.18603e-06
28 *224:23 *227:10 2.17886e-05
*RES
1 *4011:X *227:10 6.72 
2 *227:10 *4261:A2 3.6 
3 *227:10 *227:21 5.93 
4 *227:21 *4012:B 9.575 
5 *227:21 *4263:A2 4.81 
*END

*D_NET *228 0.00329999
*CONN
*I *4665:A I *D sky130_fd_sc_hd__clkdlybuf4s25_1
*I *4012:Y O *D sky130_fd_sc_hd__nor2_2
*CAP
1 *4665:A 0.000908725
2 *4012:Y 0.000908725
3 *4665:A *4012:A 0.000804115
4 *4665:A *449:226 5.83121e-06
5 *4665:A *449:228 3.05373e-05
6 *4665:A *449:266 0.000236303
7 *4665:A *681:63 8.65905e-05
8 *4665:A *682:14 0.00031916
*RES
1 *4012:Y *4665:A 21.78 
*END

*D_NET *229 0.00217445
*CONN
*I *4156:B I *D sky130_fd_sc_hd__xnor2_2
*I *4154:A I *D sky130_fd_sc_hd__nor2_2
*I *4014:Y O *D sky130_fd_sc_hd__nor2_2
*CAP
1 *4156:B 0.000196269
2 *4154:A 0.000245959
3 *4014:Y 1.36559e-05
4 *229:6 0.000455884
5 *4154:A *4154:B 8.8266e-05
6 *4154:A *4155:A2 0.000321265
7 *4154:A *4532:CLK 0.000137578
8 *4154:A *553:16 2.75229e-05
9 *4154:A *553:27 2.75145e-05
10 *4154:A *653:36 2.65814e-06
11 *4154:A *827:27 0.000271308
12 *4156:B *4152:B1 8.08153e-06
13 *4156:B *4158:A1 0
14 *4156:B *4532:CLK 0
15 *4156:B *4532:D 0
16 *4156:B *553:16 2.86623e-05
17 *4156:B *553:27 0.000189276
18 *4156:B *653:70 9.3062e-06
19 *229:6 *4155:B1 4.99619e-05
20 *229:6 *553:27 1.46828e-05
21 *229:6 *827:27 8.65961e-05
*RES
1 *4014:Y *229:6 2.395 
2 *229:6 *4154:A 11.93 
3 *229:6 *4156:B 10.04 
*END

*D_NET *230 0.00815704
*CONN
*I *4016:B I *D sky130_fd_sc_hd__nor2_2
*I *4161:B I *D sky130_fd_sc_hd__and2_2
*I *4017:D I *D sky130_fd_sc_hd__or4_2
*I *4166:A3 I *D sky130_fd_sc_hd__o31ai_2
*I *4159:A I *D sky130_fd_sc_hd__and2_2
*I *4015:X O *D sky130_fd_sc_hd__or4_2
*CAP
1 *4016:B 0
2 *4161:B 0.000288211
3 *4017:D 0
4 *4166:A3 0.000334184
5 *4159:A 0.000237181
6 *4015:X 4.35276e-05
7 *230:33 0.000495075
8 *230:31 0.000461692
9 *230:27 0.000348985
10 *230:8 0.000617102
11 *4159:A *4015:C 1.70935e-05
12 *4159:A *4015:D 2.75538e-05
13 *4159:A *4159:B 7.33383e-05
14 *4159:A *4160:A2 0.000138961
15 *4159:A *693:8 0.000326339
16 *4159:A *693:10 0.000110683
17 *4159:A *693:16 0.000235585
18 *4159:A *841:10 6.73491e-05
19 *4159:A *841:21 0.000100544
20 *4159:A *842:8 8.08153e-06
21 *4161:B *4162:A 7.17811e-05
22 *4161:B *4164:B 1.1561e-05
23 *4161:B *653:36 0.000219793
24 *4161:B *682:27 0.000367282
25 *4161:B *843:42 0.000161829
26 *4166:A3 *4017:A 4.18603e-06
27 *4166:A3 *4017:C 0.000316806
28 *4166:A3 *4166:A2 8.65905e-05
29 *4166:A3 *4166:B1 0.000410454
30 *4166:A3 *4167:B 0.000428347
31 *4166:A3 *4534:D 0
32 *4166:A3 *4674:A 2.75229e-05
33 *4166:A3 *232:8 0
34 *4166:A3 *652:6 1.60203e-05
35 *4166:A3 *652:52 1.17409e-05
36 *230:8 *4015:C 4.50017e-05
37 *230:8 *4015:D 2.97291e-05
38 *230:8 *838:12 5.53249e-06
39 *230:27 *4016:A 9.53428e-06
40 *230:27 *4017:A 2.75145e-05
41 *230:27 *4158:A1 9.66106e-05
42 *230:27 *4158:A2 0.000158066
43 *230:27 *4158:A3 2.05056e-05
44 *230:27 *4158:B1 2.8185e-05
45 *230:27 *553:59 0.000115378
46 *230:27 *655:32 0.00114633
47 *230:27 *843:14 2.30292e-05
48 *230:31 *655:32 1.34594e-05
49 *230:31 *843:14 4.82919e-05
50 *230:33 *4017:A 0.000128049
51 *230:33 *4017:C 2.14129e-05
52 *230:33 *4164:B 0.000175009
*RES
1 *4015:X *230:8 4.725 
2 *230:8 *4159:A 12.375 
3 *230:8 *230:27 13.625 
4 *230:27 *230:31 2.45 
5 *230:31 *230:33 4.185 
6 *230:33 *4166:A3 14.52 
7 *230:33 *4017:D 3.6 
8 *230:31 *4161:B 11.145 
9 *230:27 *4016:B 1.6 
*END

*D_NET *231 0.00194297
*CONN
*I *4162:A I *D sky130_fd_sc_hd__nor2_2
*I *4164:B I *D sky130_fd_sc_hd__xnor2_2
*I *4016:Y O *D sky130_fd_sc_hd__nor2_2
*CAP
1 *4162:A 0.000337616
2 *4164:B 0.000122969
3 *4016:Y 1.37561e-05
4 *231:8 0.000474341
5 *4162:A *4471:RESET_B 7.71016e-05
6 *4162:A *4674:A 4.44927e-05
7 *4162:A *4675:A 0.000136877
8 *4162:A *4699:A 1.1561e-05
9 *4164:B *4017:C 3.25831e-05
10 *4164:B *4674:A 0.000378274
11 *231:8 *655:8 5.83121e-06
12 *231:8 *655:32 2.16917e-05
13 *231:8 *843:14 2.75229e-05
14 *4161:B *4162:A 7.17811e-05
15 *4161:B *4164:B 1.1561e-05
16 *230:33 *4164:B 0.000175009
*RES
1 *4016:Y *231:8 4.05 
2 *231:8 *4164:B 8.04 
3 *231:8 *4162:A 10.05 
*END

*D_NET *232 0.00416921
*CONN
*I *4167:A I *D sky130_fd_sc_hd__and2_2
*I *4169:B I *D sky130_fd_sc_hd__and2_2
*I *4018:B I *D sky130_fd_sc_hd__nor2_2
*I *4174:A3 I *D sky130_fd_sc_hd__o31ai_2
*I *4019:D I *D sky130_fd_sc_hd__or4_2
*I *4017:X O *D sky130_fd_sc_hd__or4_2
*CAP
1 *4167:A 0
2 *4169:B 0
3 *4018:B 0.000308823
4 *4174:A3 0
5 *4019:D 0.000100777
6 *4017:X 8.22529e-05
7 *232:31 0.000403393
8 *232:16 0.000891803
9 *232:8 0.000778709
10 *4018:B *4018:A 0.000361562
11 *4018:B *4170:B 0.000157937
12 *4018:B *233:8 4.23986e-05
13 *4018:B *542:62 0.000194302
14 *4019:D *4019:B 4.7072e-06
15 *4019:D *4169:A 0.000113222
16 *4019:D *4174:B1 0.000111293
17 *4019:D *846:30 8.35118e-05
18 *232:8 *4157:B1 0
19 *232:8 *4534:D 0
20 *232:16 *4017:C 0
21 *232:16 *4157:B1 0
22 *232:16 *4167:B 7.89689e-05
23 *232:16 *4175:B 0.000207096
24 *232:16 *4182:A1 0
25 *232:16 *473:24 0
26 *232:16 *845:8 0
27 *232:31 *4170:B 3.82293e-05
28 *232:31 *4174:B1 0.000122817
29 *232:31 *4175:B 8.74062e-05
30 *4166:A3 *232:8 0
*RES
1 *4017:X *232:8 4.98 
2 *232:8 *232:16 14.495 
3 *232:16 *4019:D 8.03 
4 *232:16 *232:31 2.52 
5 *232:31 *4174:A3 1.6 
6 *232:31 *4018:B 8.8 
7 *232:16 *4169:B 1.6 
8 *232:8 *4167:A 3.6 
*END

*D_NET *233 0.00240833
*CONN
*I *4170:A I *D sky130_fd_sc_hd__nor2_2
*I *4172:B I *D sky130_fd_sc_hd__xnor2_2
*I *4018:Y O *D sky130_fd_sc_hd__nor2_2
*CAP
1 *4170:A 0.000168989
2 *4172:B 0.000185695
3 *4018:Y 0.000372701
4 *233:8 0.000727385
5 *4170:A *4170:B 0.000298442
6 *4170:A *4171:A2 0
7 *4170:A *680:27 0
8 *4170:A *680:29 0
9 *4170:A *846:12 1.74776e-05
10 *4170:A *847:10 0.000127307
11 *4170:A *847:16 5.20249e-05
12 *4172:B *4173:A2 4.88778e-05
13 *4172:B *4176:A2 4.77807e-05
14 *4172:B *846:12 2.23253e-05
15 *4172:B *847:16 0.000157035
16 *233:8 *4018:A 0.000111058
17 *233:8 *4171:A2 2.88357e-05
18 *4018:B *233:8 4.23986e-05
*RES
1 *4018:Y *233:8 8.19 
2 *233:8 *4172:B 7.725 
3 *233:8 *4170:A 8.295 
*END

*D_NET *234 0.00487317
*CONN
*I *4182:A3 I *D sky130_fd_sc_hd__o31ai_2
*I *4177:B I *D sky130_fd_sc_hd__and2_2
*I *4021:D I *D sky130_fd_sc_hd__or4_2
*I *4020:B I *D sky130_fd_sc_hd__nor2_2
*I *4175:A I *D sky130_fd_sc_hd__and2_2
*I *4019:X O *D sky130_fd_sc_hd__or4_2
*CAP
1 *4182:A3 0.000415002
2 *4177:B 0
3 *4021:D 0.000664074
4 *4020:B 0.000197722
5 *4175:A 0
6 *4019:X 0.000187204
7 *234:47 0.000522538
8 *234:19 0.000886999
9 *234:17 0.00027926
10 *234:8 0.000333726
11 *4020:B *4020:A 9.12671e-06
12 *4020:B *4541:CLK 0.00013951
13 *4020:B *828:6 1.19028e-05
14 *4021:D *4021:B 2.74281e-05
15 *4021:D *4542:CLK 1.42674e-05
16 *4021:D *4542:D 0.000153685
17 *4021:D *829:22 0.000104412
18 *4182:A3 *4182:A1 0.000235568
19 *4182:A3 *4182:A2 3.95724e-05
20 *4182:A3 *4543:D 0
21 *4182:A3 *473:24 0.000185411
22 *4182:A3 *473:26 0.000199229
23 *4182:A3 *652:56 0
24 *234:17 *4542:CLK 4.66108e-05
25 *234:19 *4541:CLK 4.28943e-05
26 *234:47 *4541:CLK 2.02316e-05
27 *234:47 *473:26 0.000156791
*RES
1 *4019:X *234:8 4.48 
2 *234:8 *4175:A 1.6 
3 *234:8 *234:17 4.175 
4 *234:17 *234:19 0.615 
5 *234:19 *4020:B 6.99 
6 *234:19 *4021:D 12.525 
7 *234:17 *234:47 2.145 
8 *234:47 *4177:B 3.6 
9 *234:47 *4182:A3 12.3 
*END

*D_NET *235 0.00143831
*CONN
*I *4178:A I *D sky130_fd_sc_hd__nor2_2
*I *4180:B I *D sky130_fd_sc_hd__xnor2_2
*I *4020:Y O *D sky130_fd_sc_hd__nor2_2
*CAP
1 *4178:A 7.04055e-05
2 *4180:B 0.000458186
3 *4020:Y 0.000387781
4 *4178:A *4178:B 0.000195465
5 *4178:A *4180:A 4.77769e-05
6 *4180:B *4178:B 0.00012398
7 *4180:B *4541:CLK 9.12857e-06
8 *4180:B *828:17 0.000145584
*RES
1 *4020:Y *4180:B 14.295 
2 *4180:B *4178:A 5.03 
*END

*D_NET *236 0.00570785
*CONN
*I *4024:B I *D sky130_fd_sc_hd__or3_2
*I *4183:A I *D sky130_fd_sc_hd__and2_2
*I *4022:B I *D sky130_fd_sc_hd__nor2_2
*I *4185:B I *D sky130_fd_sc_hd__and2_2
*I *4026:B I *D sky130_fd_sc_hd__or4_2
*I *4190:A3 I *D sky130_fd_sc_hd__o31ai_2
*I *4021:X O *D sky130_fd_sc_hd__or4_2
*CAP
1 *4024:B 4.47248e-05
2 *4183:A 0.000488877
3 *4022:B 0.000148603
4 *4185:B 1.1237e-05
5 *4026:B 0.000456302
6 *4190:A3 0.000103045
7 *4021:X 0.000574471
8 *236:65 0.000817635
9 *236:38 0.00024306
10 *236:14 0.000434388
11 *236:10 0.000816766
12 *4022:B *4022:A 4.90341e-05
13 *4022:B *4188:B 2.69153e-05
14 *4022:B *237:8 2.38093e-05
15 *4024:B *474:25 7.23602e-05
16 *4024:B *564:26 0
17 *4026:B *4023:A 4.70326e-05
18 *4026:B *4023:B 0
19 *4026:B *4024:A 2.54824e-05
20 *4026:B *4026:D 0
21 *4026:B *831:25 8.74345e-06
22 *4026:B *832:21 4.28674e-05
23 *4185:B *4022:A 1.26044e-05
24 *4185:B *4188:B 9.12671e-06
25 *4190:A3 *4190:A1 5.83121e-06
26 *4190:A3 *4191:B 4.82863e-05
27 *4190:A3 *4192:A2 5.64202e-05
28 *236:10 *4188:A 4.66108e-05
29 *236:10 *4188:B 4.77769e-05
30 *236:10 *4189:A1 0.000161467
31 *236:10 *4189:A2 0.000122189
32 *236:10 *4189:B1 1.31297e-05
33 *236:10 *4545:D 0.000121019
34 *236:14 *4546:RESET_B 8.62352e-05
35 *236:14 *832:10 1.42807e-05
36 *236:14 *832:21 0.000167832
37 *236:14 *833:10 0
38 *236:38 *4188:B 0.000180671
39 *236:65 *4024:C 0.000179011
*RES
1 *4021:X *236:10 11.14 
2 *236:10 *236:14 5.93 
3 *236:14 *4190:A3 5.46 
4 *236:14 *4026:B 6.765 
5 *236:10 *236:38 1.83 
6 *236:38 *4185:B 1.96 
7 *236:38 *4022:B 4.51 
8 *4026:B *236:65 5.155 
9 *236:65 *4183:A 8.875 
10 *236:65 *4024:B 6.47 
*END

*D_NET *237 0.00150442
*CONN
*I *4186:A I *D sky130_fd_sc_hd__nor2_2
*I *4188:B I *D sky130_fd_sc_hd__xnor2_2
*I *4022:Y O *D sky130_fd_sc_hd__nor2_2
*CAP
1 *4186:A 0.000243454
2 *4188:B 0.00014695
3 *4022:Y 8.09959e-05
4 *237:8 0.0004714
5 *4186:A *4186:B 0.000109413
6 *4186:A *831:55 0.000111293
7 *4188:B *4022:A 7.64529e-07
8 *237:8 *4022:A 5.18542e-05
9 *4022:B *4188:B 2.69153e-05
10 *4022:B *237:8 2.38093e-05
11 *4185:B *4188:B 9.12671e-06
12 *236:10 *4188:B 4.77769e-05
13 *236:38 *4188:B 0.000180671
*RES
1 *4022:Y *237:8 3.1 
2 *237:8 *4188:B 4.585 
3 *237:8 *4186:A 10.04 
*END

*D_NET *238 0.00111151
*CONN
*I *4026:C I *D sky130_fd_sc_hd__or4_2
*I *4024:C I *D sky130_fd_sc_hd__or3_2
*I *4023:X O *D sky130_fd_sc_hd__or2_2
*CAP
1 *4026:C 0
2 *4024:C 0.000273121
3 *4023:X 5.55282e-05
4 *238:6 0.00032865
5 *4024:C *4023:A 5.83121e-06
6 *4024:C *474:25 0.00018471
7 *238:6 *4023:A 3.63661e-05
8 *238:6 *4026:D 4.82919e-05
9 *236:65 *4024:C 0.000179011
*RES
1 *4023:X *238:6 2.74 
2 *238:6 *4024:C 10.955 
3 *238:6 *4026:C 1.6 
*END

*D_NET *239 0.00498893
*CONN
*I *4194:B I *D sky130_fd_sc_hd__nand2_2
*I *4193:B I *D sky130_fd_sc_hd__nor2_2
*I *4197:C I *D sky130_fd_sc_hd__or3_2
*I *4191:A I *D sky130_fd_sc_hd__and2_2
*I *4024:X O *D sky130_fd_sc_hd__or3_2
*CAP
1 *4194:B 0.000432511
2 *4193:B 0
3 *4197:C 0
4 *4191:A 0.000206624
5 *4024:X 0.000456538
6 *239:46 0.000534471
7 *239:31 0.000356408
8 *239:14 0.00091761
9 *4191:A *4023:B 7.41259e-05
10 *4191:A *4025:B 4.49415e-05
11 *4191:A *4026:D 0.000141606
12 *4191:A *4200:A2 0
13 *4191:A *833:10 1.22505e-05
14 *4194:B *4197:A 9.50342e-06
15 *4194:B *4571:CLK 0.000187759
16 *4194:B *474:82 0.0001752
17 *239:14 *4024:A 3.92156e-05
18 *239:14 *4200:A1 0.000161101
19 *239:14 *4200:A2 9.89691e-05
20 *239:14 *4200:B1_N 0.000197822
21 *239:14 *4201:A2 0.000235237
22 *239:31 *4025:B 0.000164502
23 *239:31 *4196:A2 1.71013e-05
24 *239:31 *4197:B 2.59835e-05
25 *239:31 *4200:A2 0
26 *239:31 *474:71 8.97564e-05
27 *239:31 *474:82 6.18754e-05
28 *239:31 *835:8 1.16578e-05
29 *239:46 *4197:A 0.000166346
30 *239:46 *4197:B 5.83121e-06
31 *239:46 *474:82 0.000163985
*RES
1 *4024:X *239:14 12.12 
2 *239:14 *4191:A 8.295 
3 *239:14 *239:31 8.36 
4 *239:31 *4197:C 1.6 
5 *239:31 *239:46 5.06 
6 *239:46 *4193:B 3.6 
7 *239:46 *4194:B 11.34 
*END

*D_NET *240 0.000680758
*CONN
*I *4026:D I *D sky130_fd_sc_hd__or4_2
*I *4025:X O *D sky130_fd_sc_hd__or3_2
*CAP
1 *4026:D 0.000180214
2 *4025:X 0.000180214
3 *4026:D *4023:A 0.0001249
4 *4026:D *4025:B 5.53249e-06
5 *4026:B *4026:D 0
6 *4191:A *4026:D 0.000141606
7 *238:6 *4026:D 4.82919e-05
*RES
1 *4025:X *4026:D 11.01 
*END

*D_NET *241 0.00587084
*CONN
*I *4204:A2 I *D sky130_fd_sc_hd__o21ai_2
*I *4027:C I *D sky130_fd_sc_hd__or3_2
*I *4202:B I *D sky130_fd_sc_hd__xor2_2
*I *4200:B1_N I *D sky130_fd_sc_hd__a21boi_2
*I *4026:X O *D sky130_fd_sc_hd__or4_2
*CAP
1 *4204:A2 0.000247409
2 *4027:C 6.52739e-05
3 *4202:B 0.00116467
4 *4200:B1_N 4.25649e-05
5 *4026:X 0.000123015
6 *241:40 0.00049459
7 *241:8 0.00114834
8 *4027:C *4027:A 8.65961e-05
9 *4200:B1_N *4024:A 7.87003e-05
10 *4202:B *4194:A 0.00024677
11 *4202:B *4195:B 0.000115703
12 *4202:B *4200:A1 9.72223e-05
13 *4202:B *4201:A2 0
14 *4202:B *4549:RESET_B 5.88634e-05
15 *4202:B *4627:A 0
16 *4202:B *464:10 0
17 *4202:B *474:25 0
18 *4202:B *696:81 3.06102e-05
19 *4204:A2 *4202:A 3.09233e-05
20 *4204:A2 *4204:A1 0.000804765
21 *4204:A2 *4204:B1 0.000184557
22 *4204:A2 *4550:RESET_B 9.07342e-05
23 *4204:A2 *4570:CLK 7.21296e-06
24 *4204:A2 *4629:A 0.000130563
25 *4204:A2 *695:26 5.3023e-05
26 *241:8 *4024:A 4.63352e-05
27 *241:40 *4202:A 0.000304814
28 *241:40 *4550:RESET_B 4.18603e-06
29 *241:40 *242:12 1.5567e-05
30 *239:14 *4200:B1_N 0.000197822
*RES
1 *4026:X *241:8 5.49 
2 *241:8 *4200:B1_N 5.43 
3 *241:8 *4202:B 19.325 
4 *4202:B *241:40 5.7725 
5 *241:40 *4027:C 4.74 
6 *241:40 *4204:A2 13.05 
*END

*D_NET *242 0.00270984
*CONN
*I *4205:A2 I *D sky130_fd_sc_hd__o211ai_2
*I *4206:A2 I *D sky130_fd_sc_hd__a21bo_2
*I *4028:B I *D sky130_fd_sc_hd__nor2_2
*I *4027:X O *D sky130_fd_sc_hd__or3_2
*CAP
1 *4205:A2 1.92299e-05
2 *4206:A2 0.000108795
3 *4028:B 9.78691e-05
4 *4027:X 0.000813445
5 *242:25 0.000149006
6 *242:12 0.000932294
7 *4028:B *4551:D 9.50342e-06
8 *4028:B *840:12 8.34426e-05
9 *4205:A2 *4205:B1 5.12969e-06
10 *4206:A2 *4205:B1 9.76602e-05
11 *4206:A2 *4206:B1_N 5.83121e-06
12 *242:12 *4202:A 0.000122155
13 *242:12 *4205:B1 2.93517e-05
14 *242:12 *4205:C1 0.000144704
15 *242:12 *4571:CLK 7.58604e-05
16 *241:40 *242:12 1.5567e-05
*RES
1 *4027:X *242:12 18.29 
2 *242:12 *4028:B 7.49 
3 *242:12 *242:25 0.36 
4 *242:25 *4206:A2 3.43 
5 *242:25 *4205:A2 1.96 
*END

*D_NET *243 0.000956559
*CONN
*I *4661:A I *D sky130_fd_sc_hd__clkdlybuf4s25_1
*I *4028:Y O *D sky130_fd_sc_hd__nor2_2
*CAP
1 *4661:A 0.000174407
2 *4028:Y 0.000174407
3 *4661:A *3844:A 0.000209779
4 *4661:A *4203:B1 4.89295e-05
5 *4661:A *4550:D 1.83365e-05
6 *4661:A *564:14 4.8854e-05
7 *4205:A1 *4661:A 0.000281847
*RES
1 *4028:Y *4661:A 7.925 
*END

*D_NET *244 0.00216316
*CONN
*I *4097:A I *D sky130_fd_sc_hd__nor2_2
*I *4099:B I *D sky130_fd_sc_hd__xnor2_2
*I *4030:Y O *D sky130_fd_sc_hd__nor2_2
*CAP
1 *4097:A 0.000353671
2 *4099:B 6.9208e-05
3 *4030:Y 0.000207794
4 *244:8 0.000630673
5 *4097:A *4031:B 5.0096e-05
6 *4097:A *4097:B 4.72892e-05
7 *4097:A *4098:A2 7.22354e-05
8 *4097:A *4098:B1 3.64998e-06
9 *4097:A *4554:D 2.11084e-05
10 *4097:A *711:27 7.01579e-05
11 *4097:A *793:18 0.00014872
12 *4099:B *4031:B 0.000132821
13 *4099:B *711:27 4.88778e-05
14 *244:8 *4030:B 0.000306863
*RES
1 *4030:Y *244:8 6.465 
2 *244:8 *4099:B 5.235 
3 *244:8 *4097:A 10.17 
*END

*D_NET *245 0.00450049
*CONN
*I *4102:A I *D sky130_fd_sc_hd__and2_2
*I *4032:B I *D sky130_fd_sc_hd__nor2_2
*I *4033:D I *D sky130_fd_sc_hd__or4_2
*I *4109:A3 I *D sky130_fd_sc_hd__o31ai_2
*I *4104:B I *D sky130_fd_sc_hd__and2_2
*I *4031:X O *D sky130_fd_sc_hd__or4_2
*CAP
1 *4102:A 0.000141487
2 *4032:B 5.34841e-05
3 *4033:D 0.000125001
4 *4109:A3 0
5 *4104:B 2.0132e-05
6 *4031:X 8.07297e-05
7 *245:47 0.000263843
8 *245:27 0.000583024
9 *245:14 0.00119729
10 *245:8 0.000868736
11 *4032:B *657:31 4.77807e-05
12 *4032:B *711:55 0.000152054
13 *4033:D *4033:A 0.000122821
14 *4033:D *799:12 0.000128981
15 *4102:A *657:31 0.000135258
16 *245:8 *711:55 0.000122817
17 *245:27 *4104:A 0.000397715
18 *245:27 *4110:B 2.14995e-05
19 *245:27 *798:21 2.87133e-05
20 *245:27 *799:12 9.12494e-06
*RES
1 *4031:X *245:8 4.74 
2 *245:8 *245:14 13.025 
3 *245:14 *4104:B 1.96 
4 *245:14 *245:27 11.03 
5 *245:27 *4109:A3 3.6 
6 *245:27 *4033:D 6.375 
7 *245:8 *245:47 0.87 
8 *245:47 *4032:B 5.085 
9 *245:47 *4102:A 6.285 
*END

*D_NET *246 0.00127622
*CONN
*I *4107:B I *D sky130_fd_sc_hd__xnor2_2
*I *4105:A I *D sky130_fd_sc_hd__nor2_2
*I *4032:Y O *D sky130_fd_sc_hd__nor2_2
*CAP
1 *4107:B 0.000217889
2 *4105:A 9.10233e-05
3 *4032:Y 8.30006e-05
4 *246:8 0.000391913
5 *4105:A *4106:A2 5.00391e-05
6 *4107:B *4032:A 0.000154494
7 *4107:B *4108:A1 9.00751e-05
8 *4107:B *4108:A2 8.53011e-05
9 *246:8 *4032:A 8.64599e-05
10 *246:8 *4106:A1 2.01934e-05
11 *246:8 *711:55 5.83121e-06
*RES
1 *4032:Y *246:8 3.1 
2 *246:8 *4105:A 7.235 
3 *246:8 *4107:B 5.86 
*END

*D_NET *247 0.00460638
*CONN
*I *4110:A I *D sky130_fd_sc_hd__and2_2
*I *4034:B I *D sky130_fd_sc_hd__nor2_2
*I *4035:D I *D sky130_fd_sc_hd__or4_2
*I *4117:A3 I *D sky130_fd_sc_hd__o31ai_2
*I *4112:B I *D sky130_fd_sc_hd__and2_2
*I *4033:X O *D sky130_fd_sc_hd__or4_2
*CAP
1 *4110:A 0
2 *4034:B 0
3 *4035:D 1.14807e-05
4 *4117:A3 0.000229629
5 *4112:B 0.000105133
6 *4033:X 0.000534949
7 *247:37 0.000336738
8 *247:31 0.000173961
9 *247:16 0.000262928
10 *247:12 0.000614411
11 *4035:D *4035:A 3.74161e-05
12 *4035:D *4035:B 1.83847e-05
13 *4112:B *4112:A 8.8266e-05
14 *4117:A3 *4035:A 0.000120655
15 *4117:A3 *4035:B 1.19928e-05
16 *4117:A3 *4115:B 0
17 *4117:A3 *4117:A1 0.000562262
18 *4117:A3 *4117:A2 0.000160658
19 *4117:A3 *4561:RESET_B 0.000120655
20 *4117:A3 *802:10 0.000296775
21 *247:12 *4110:B 0
22 *247:12 *4559:RESET_B 0
23 *247:12 *800:8 0
24 *247:16 *4110:B 1.89685e-05
25 *247:16 *4113:A 0
26 *247:16 *4559:RESET_B 0.000186099
27 *247:31 *4034:A 8.40269e-05
28 *247:31 *4112:A 0.000163019
29 *247:31 *4113:A 0
30 *247:31 *4559:RESET_B 0.000206817
31 *247:31 *4560:RESET_B 4.66108e-05
32 *247:31 *248:8 1.91597e-05
33 *247:31 *801:19 3.09233e-05
34 *247:37 *4559:RESET_B 2.92496e-05
35 *247:37 *698:25 0.00013521
*RES
1 *4033:X *247:12 13.925 
2 *247:12 *247:16 4.145 
3 *247:16 *4112:B 5.43 
4 *247:16 *247:31 5.195 
5 *247:31 *247:37 5.89 
6 *247:37 *4117:A3 13.565 
7 *247:37 *4035:D 2.05 
8 *247:31 *4034:B 1.6 
9 *247:12 *4110:A 1.6 
*END

*D_NET *248 0.00187196
*CONN
*I *4115:B I *D sky130_fd_sc_hd__xnor2_2
*I *4113:A I *D sky130_fd_sc_hd__nor2_2
*I *4034:Y O *D sky130_fd_sc_hd__nor2_2
*CAP
1 *4115:B 0.00033755
2 *4113:A 0.00023008
3 *4034:Y 0.000262217
4 *248:8 0.000829846
5 *4113:A *4112:A 0
6 *4113:A *4114:A2 0
7 *4113:A *4560:D 0
8 *4113:A *801:19 0
9 *4115:B *4116:B1 0
10 *4115:B *4117:A1 0
11 *4115:B *4560:D 0
12 *4115:B *4561:D 0
13 *4115:B *658:36 0
14 *4115:B *801:19 0
15 *4115:B *802:10 0
16 *248:8 *4560:RESET_B 0.00019311
17 *4117:A3 *4115:B 0
18 *247:16 *4113:A 0
19 *247:31 *4113:A 0
20 *247:31 *248:8 1.91597e-05
*RES
1 *4034:Y *248:8 6.81 
2 *248:8 *4113:A 7.41 
3 *248:8 *4115:B 9.06 
*END

*D_NET *249 0.00332803
*CONN
*I *4125:A3 I *D sky130_fd_sc_hd__o31ai_2
*I *4037:D I *D sky130_fd_sc_hd__or4_2
*I *4036:B I *D sky130_fd_sc_hd__nor2_2
*I *4120:B I *D sky130_fd_sc_hd__and2_2
*I *4118:A I *D sky130_fd_sc_hd__and2_2
*I *4035:X O *D sky130_fd_sc_hd__or4_2
*CAP
1 *4125:A3 8.85242e-05
2 *4037:D 8.69411e-05
3 *4036:B 2.00211e-05
4 *4120:B 0.000321133
5 *4118:A 0
6 *4035:X 0.000120048
7 *249:41 0.000184022
8 *249:30 0.000275437
9 *249:17 0.0008895
10 *249:8 0.000441556
11 *4036:B *4037:C 4.82919e-05
12 *4036:B *250:10 5.83121e-06
13 *4037:D *4121:B 0
14 *4037:D *4126:B 0
15 *4120:B *4120:A 4.82863e-05
16 *4120:B *4121:B 0.000162311
17 *4125:A3 *4037:C 0
18 *4125:A3 *4121:B 0
19 *4125:A3 *4125:A1 5.42473e-05
20 *249:8 *4035:C 0.000105068
21 *249:8 *4117:B1 6.55328e-05
22 *249:8 *4562:RESET_B 0.000141606
23 *249:17 *4117:B1 0.000126407
24 *249:17 *4562:RESET_B 0.000143266
25 *249:30 *4121:B 0
26 *249:41 *4037:C 0
*RES
1 *4035:X *249:8 7.02 
2 *249:8 *4118:A 3.6 
3 *249:8 *249:17 6.735 
4 *249:17 *4120:B 8.895 
5 *249:17 *249:30 3.93 
6 *249:30 *4036:B 4.05 
7 *249:30 *249:41 0.2325 
8 *249:41 *4037:D 4.6275 
9 *249:41 *4125:A3 5.3625 
*END

*D_NET *250 0.00154589
*CONN
*I *4123:B I *D sky130_fd_sc_hd__xnor2_2
*I *4121:A I *D sky130_fd_sc_hd__nor2_2
*I *4036:Y O *D sky130_fd_sc_hd__nor2_2
*CAP
1 *4123:B 0.000221254
2 *4121:A 0
3 *4036:Y 0.000258446
4 *250:10 0.0004797
5 *4123:B *4122:A2 1.47256e-05
6 *4123:B *4125:A1 0
7 *4123:B *4125:A2 0.00032595
8 *250:10 *4036:A 8.40269e-05
9 *250:10 *4037:C 9.80032e-06
10 *250:10 *4121:B 4.70343e-05
11 *250:10 *4125:A1 0
12 *250:10 *783:23 5.30673e-05
13 *250:10 *783:32 4.60584e-05
14 *4036:B *250:10 5.83121e-06
*RES
1 *4036:Y *250:10 7.5 
2 *250:10 *4121:A 3.6 
3 *250:10 *4123:B 7.785 
*END

*D_NET *251 0.00603055
*CONN
*I *4039:D I *D sky130_fd_sc_hd__or4_2
*I *4128:B I *D sky130_fd_sc_hd__and2_2
*I *4133:A3 I *D sky130_fd_sc_hd__o31ai_2
*I *4038:B I *D sky130_fd_sc_hd__nor2_2
*I *4126:A I *D sky130_fd_sc_hd__and2_2
*I *4037:X O *D sky130_fd_sc_hd__or4_2
*CAP
1 *4039:D 0.000159469
2 *4128:B 0
3 *4133:A3 0.000112316
4 *4038:B 0.00041246
5 *4126:A 0
6 *4037:X 0.000589377
7 *251:40 0.000237691
8 *251:32 0.000400386
9 *251:19 0.000599124
10 *251:10 0.000660499
11 *4038:B *4038:A 3.95724e-05
12 *4038:B *4634:A 8.65961e-05
13 *4038:B *253:12 0.000109723
14 *4039:D *253:12 0
15 *4039:D *701:37 7.63204e-05
16 *4133:A3 *4129:B 0.000177723
17 *4133:A3 *4135:A2 0
18 *4133:A3 *252:10 0.000362278
19 *251:10 *4037:B 0.0001249
20 *251:10 *4121:B 0
21 *251:10 *4124:A2 0.000105833
22 *251:10 *4124:B1 0
23 *251:10 *4564:RESET_B 0.000191166
24 *251:10 *452:14 0
25 *251:10 *783:23 1.19928e-05
26 *251:10 *784:26 1.95851e-05
27 *251:19 *4564:RESET_B 1.89685e-05
28 *251:19 *452:14 0
29 *251:19 *701:37 6.00003e-05
30 *251:32 *4633:A 0
31 *251:32 *253:12 0
32 *251:32 *701:37 0.000114753
33 *251:40 *4127:A1 0.00048749
34 *251:40 *4127:B1 0.000265565
35 *251:40 *659:98 0.000403587
36 *251:40 *720:92 0.000203178
*RES
1 *4037:X *251:10 13.14 
2 *251:10 *4126:A 3.6 
3 *251:10 *251:19 1.635 
4 *251:19 *4038:B 10.275 
5 *251:19 *251:32 2.4 
6 *251:32 *251:40 8.78 
7 *251:40 *4133:A3 9.785 
8 *251:40 *4128:B 1.6 
9 *251:32 *4039:D 6.39 
*END

*D_NET *252 0.00194362
*CONN
*I *4129:A I *D sky130_fd_sc_hd__nor2_2
*I *4131:B I *D sky130_fd_sc_hd__xnor2_2
*I *4038:Y O *D sky130_fd_sc_hd__nor2_2
*CAP
1 *4129:A 0
2 *4131:B 3.9347e-05
3 *4038:Y 0.000319128
4 *252:10 0.000358475
5 *4131:B *4130:A2 5.05437e-05
6 *252:10 *4038:A 0.00016163
7 *252:10 *4129:B 0.000134038
8 *252:10 *4131:A 0.000125957
9 *252:10 *4133:A1 0.000206817
10 *252:10 *481:53 0
11 *252:10 *786:10 0.000185405
12 *4133:A3 *252:10 0.000362278
*RES
1 *4038:Y *252:10 15.65 
2 *252:10 *4131:B 2.395 
3 *252:10 *4129:A 1.6 
*END

*D_NET *253 0.0113184
*CONN
*I *4134:A I *D sky130_fd_sc_hd__and2_2
*I *4142:A3 I *D sky130_fd_sc_hd__o31a_2
*I *4041:A I *D sky130_fd_sc_hd__nor2_2
*I *4042:C I *D sky130_fd_sc_hd__or4_2
*I *4147:A2 I *D sky130_fd_sc_hd__o31a_2
*I *4137:B I *D sky130_fd_sc_hd__nand2_2
*I *4136:B I *D sky130_fd_sc_hd__nor2_2
*I *4039:X O *D sky130_fd_sc_hd__or4_2
*CAP
1 *4134:A 0.000274879
2 *4142:A3 0.000310221
3 *4041:A 0.000875229
4 *4042:C 0
5 *4147:A2 0.000114182
6 *4137:B 9.0975e-05
7 *4136:B 0.000553372
8 *4039:X 0
9 *253:56 0.000274781
10 *253:52 0.00147242
11 *253:46 0.000869039
12 *253:16 0.000840317
13 *253:12 0.000875023
14 *253:6 0.000831706
15 *4041:A *4041:B 9.09288e-05
16 *4134:A *4076:B 0
17 *4134:A *4134:B 0
18 *4134:A *4477:D 0
19 *4134:A *4479:CLK 0.000100458
20 *4134:A *4568:RESET_B 7.37109e-05
21 *4134:A *4633:A 0.000284216
22 *4134:A *481:53 1.44259e-05
23 *4136:B *4136:A 0.00013637
24 *4136:B *4137:A 5.98163e-05
25 *4136:B *4138:B 0.000564658
26 *4136:B *4139:A2 3.00381e-05
27 *4136:B *307:6 1.61831e-05
28 *4137:B *4137:A 0
29 *4142:A3 *4040:C 2.30292e-05
30 *4142:A3 *791:14 8.65905e-05
31 *4147:A2 *4042:A 0.000264759
32 *4147:A2 *4042:D 0.000512791
33 *4147:A2 *4147:A1 9.53428e-06
34 *4147:A2 *254:14 4.82863e-05
35 *253:12 *4038:A 7.35813e-05
36 *253:12 *4568:RESET_B 2.96553e-05
37 *253:12 *4633:A 0.000330448
38 *253:12 *4634:A 1.83847e-05
39 *253:12 *701:37 0
40 *253:46 *4038:A 5.39961e-05
41 *253:46 *702:27 0.000102985
42 *253:52 *4572:CLK 0.000283528
43 *253:52 *481:24 0
44 *253:52 *702:27 0.000456273
45 *253:56 *4572:CLK 5.39961e-05
46 *253:56 *4715:A 9.5799e-06
47 *253:56 *531:32 8.09021e-06
48 *253:56 *702:27 9.02553e-05
49 *4038:B *253:12 0.000109723
50 *4039:D *253:12 0
51 *251:32 *253:12 0
*RES
1 *4039:X *253:6 3.6 
2 *253:6 *253:12 10.865 
3 *253:12 *253:16 2.19 
4 *253:16 *4136:B 12.565 
5 *253:16 *4137:B 3.355 
6 *253:12 *253:46 4.91 
7 *253:46 *253:52 10.095 
8 *253:52 *253:56 4.91 
9 *253:56 *4147:A2 6.55 
10 *253:56 *4042:C 1.6 
11 *253:52 *4041:A 13.65 
12 *253:46 *4142:A3 8.19 
13 *253:6 *4134:A 9.765 
*END

*D_NET *254 0.00398423
*CONN
*I *4041:B I *D sky130_fd_sc_hd__nor2_2
*I *4042:D I *D sky130_fd_sc_hd__or4_2
*I *4147:A3 I *D sky130_fd_sc_hd__o31a_2
*I *4040:X O *D sky130_fd_sc_hd__or3_2
*CAP
1 *4041:B 0.000119945
2 *4042:D 0.000269658
3 *4147:A3 0
4 *4040:X 0.000571506
5 *254:14 0.000485217
6 *254:8 0.00090701
7 *4042:D *4042:A 9.47375e-05
8 *4042:D *697:10 4.82919e-05
9 *254:8 *4142:A1 0.000117832
10 *254:8 *4144:B1 0.000121671
11 *254:8 *4145:A 0.000196406
12 *254:8 *449:362 0
13 *254:8 *451:8 0
14 *254:8 *531:46 0
15 *254:8 *660:12 0
16 *254:8 *660:14 0
17 *254:8 *790:12 0.000150861
18 *254:14 *4042:A 1.12578e-05
19 *254:14 *4145:A 3.05295e-05
20 *254:14 *4149:A 8.8266e-05
21 *254:14 *451:8 0
22 *254:14 *660:14 0
23 *254:14 *792:12 0.000119039
24 *4041:A *4041:B 9.09288e-05
25 *4147:A2 *4042:D 0.000512791
26 *4147:A2 *254:14 4.82863e-05
*RES
1 *4040:X *254:8 15.435 
2 *254:8 *254:14 6.575 
3 *254:14 *4147:A3 1.6 
4 *254:14 *4042:D 7.6 
5 *254:8 *4041:B 5.775 
*END

*D_NET *255 0.00130173
*CONN
*I *4145:B I *D sky130_fd_sc_hd__xnor2_2
*I *4143:A I *D sky130_fd_sc_hd__nor2_2
*I *4041:Y O *D sky130_fd_sc_hd__nor2_2
*CAP
1 *4145:B 9.30961e-05
2 *4143:A 0.000138671
3 *4041:Y 0.000159901
4 *255:10 0.000391668
5 *4143:A *4144:A1 2.75145e-05
6 *4143:A *4144:A2 7.75783e-05
7 *4145:B *4144:A1 2.93572e-05
8 *4145:B *4144:B1 8.40213e-05
9 *4145:B *4145:A 4.82919e-05
10 *255:10 *4571:D 6.23462e-05
11 *255:10 *660:14 0.000189284
*RES
1 *4041:Y *255:10 9.53 
2 *255:10 *4143:A 4.135 
3 *255:10 *4145:B 3.43 
*END

*D_NET *256 0.00363623
*CONN
*I *4148:A2 I *D sky130_fd_sc_hd__o21ai_2
*I *4150:A2 I *D sky130_fd_sc_hd__a21bo_2
*I *4043:B I *D sky130_fd_sc_hd__nor2_2
*I *4042:X O *D sky130_fd_sc_hd__or4_2
*CAP
1 *4148:A2 2.08101e-05
2 *4150:A2 0.000297365
3 *4043:B 0.000256683
4 *4042:X 0.000211717
5 *256:25 0.000853399
6 *256:8 0.00100362
7 *4043:B *4043:A 4.99619e-05
8 *4043:B *4114:B1 5.93674e-05
9 *4043:B *4150:A1 0
10 *4043:B *4678:A 0
11 *4043:B *479:23 0.000163019
12 *4150:A2 *4150:B1_N 0
13 *4150:A2 *4200:A2 0
14 *256:8 *3845:A 0
15 *256:8 *4042:B 4.7043e-05
16 *256:8 *4114:A1 0
17 *256:8 *4114:B1 7.21296e-06
18 *256:8 *4116:A1 0
19 *256:8 *479:23 8.53113e-06
20 *256:8 *531:22 0
21 *256:8 *531:32 0
22 *256:25 *4114:A1 0.000199833
23 *256:25 *4149:B 5.30673e-05
24 *256:25 *4632:A 5.05437e-05
25 *256:25 *658:8 0.000180988
26 *256:25 *658:36 0.00017307
*RES
1 *4042:X *256:8 7.275 
2 *256:8 *4043:B 8.43 
3 *256:8 *256:25 12.8 
4 *256:25 *4150:A2 10.325 
5 *256:25 *4148:A2 1.96 
*END

*D_NET *257 0.000501596
*CONN
*I *4658:A I *D sky130_fd_sc_hd__clkdlybuf4s25_1
*I *4043:Y O *D sky130_fd_sc_hd__nor2_2
*CAP
1 *4658:A 0.000160608
2 *4043:Y 0.000160608
3 *4658:A *4114:B1 0
4 *4658:A *4678:A 0.000180379
5 *4658:A *657:92 0
*RES
1 *4043:Y *4658:A 10.875 
*END

*D_NET *258 0.00115309
*CONN
*I *4052:C I *D sky130_fd_sc_hd__or3_2
*I *4046:C I *D sky130_fd_sc_hd__or3_2
*I *4045:X O *D sky130_fd_sc_hd__or3b_2
*CAP
1 *4052:C 0
2 *4046:C 0.000157135
3 *4045:X 0.000248801
4 *258:12 0.000405936
5 *4046:C *4052:A 2.75145e-05
6 *4046:C *261:12 4.85494e-05
7 *258:12 *750:25 0.000241483
8 *4052:B *4046:C 2.36716e-05
9 *149:18 *258:12 0
*RES
1 *4045:X *258:12 9.155 
2 *258:12 *4046:C 4.495 
3 *258:12 *4052:C 1.6 
*END

*D_NET *259 0.00755128
*CONN
*I *4063:A3 I *D sky130_fd_sc_hd__o31a_2
*I *4050:A2 I *D sky130_fd_sc_hd__o21a_2
*I *4051:A2 I *D sky130_fd_sc_hd__o21a_2
*I *4047:B I *D sky130_fd_sc_hd__or2_2
*I *4060:C I *D sky130_fd_sc_hd__or3_2
*I *4064:A3 I *D sky130_fd_sc_hd__o31a_2
*I *4046:X O *D sky130_fd_sc_hd__or3_2
*CAP
1 *4063:A3 0
2 *4050:A2 0
3 *4051:A2 0
4 *4047:B 0.000337343
5 *4060:C 3.78032e-05
6 *4064:A3 7.63948e-05
7 *4046:X 0.000476567
8 *259:50 0.00044847
9 *259:44 0.000206276
10 *259:38 0.000481537
11 *259:21 0.000576035
12 *259:8 0.000704807
13 *4047:B *4051:B1 0
14 *4047:B *4063:A1 0
15 *4047:B *4063:A2 1.34361e-05
16 *4047:B *449:67 8.83862e-05
17 *4047:B *666:81 0.000113719
18 *4060:C *4060:A 0.000158556
19 *4060:C *4459:RESET_B 0.000144309
20 *4064:A3 *3901:B 5.36364e-05
21 *4064:A3 *4064:A1 0.000118081
22 *4064:A3 *4064:A2 4.73082e-05
23 *4064:A3 *4064:B1 4.31915e-05
24 *4064:A3 *668:31 8.23457e-05
25 *259:8 *4469:RESET_B 4.91189e-05
26 *259:8 *4690:A 0
27 *259:8 *4692:A 0
28 *259:8 *261:12 0
29 *259:38 *4738:A 6.78126e-05
30 *259:38 *449:113 6.36656e-05
31 *259:38 *714:61 8.37747e-05
32 *259:44 *4051:B1 5.43211e-05
33 *259:44 *4063:A1 3.05373e-05
34 *259:44 *4063:B1 5.4003e-05
35 *259:44 *686:10 5.29053e-05
36 *259:50 *3902:C_N 0.000129539
37 *259:50 *4050:B1 8.65905e-05
38 *259:50 *4051:B1 0
39 *259:50 *666:81 1.7902e-05
40 *3896:B *259:38 0.000166958
41 *3896:B *259:44 3.96088e-05
42 *3896:B *259:50 1.91597e-05
43 *3904:B *259:38 0
44 *3953:A *259:8 0.000187759
45 *4047:A *4047:B 1.14192e-05
46 *4051:A1 *4047:B 9.50342e-06
47 *4051:A1 *259:50 0.000138551
48 *4457:D *4047:B 0.00013891
49 *4458:D *4060:C 3.27276e-05
50 *4458:D *4064:A3 0.000118081
51 *4458:D *259:21 0.000158639
52 *4458:D *259:38 8.81442e-05
53 *4466:D *259:50 0.000114492
54 *86:8 *259:8 0.000836935
55 *86:8 *259:21 0.00018712
56 *86:65 *259:21 0.000161076
57 *86:65 *259:38 8.25644e-06
58 *131:17 *259:50 0.000235573
59 *149:18 *259:8 0
*RES
1 *4046:X *259:8 15.435 
2 *259:8 *4064:A3 6.12 
3 *259:8 *259:21 4.6875 
4 *259:21 *4060:C 5.4975 
5 *259:21 *259:38 10.1825 
6 *259:38 *259:44 6.4 
7 *259:44 *259:50 6.41 
8 *259:50 *4047:B 10.245 
9 *259:50 *4051:A2 3.6 
10 *259:44 *4050:A2 1.6 
11 *259:38 *4063:A3 1.6 
*END

*D_NET *260 0.00315962
*CONN
*I *4048:B I *D sky130_fd_sc_hd__and2_2
*I *4049:B I *D sky130_fd_sc_hd__and2_2
*I *4047:X O *D sky130_fd_sc_hd__or2_2
*CAP
1 *4048:B 0.000529966
2 *4049:B 9.58573e-05
3 *4047:X 0.000293048
4 *260:14 0.000918872
5 *4048:B *3996:C 9.44548e-05
6 *4048:B *4703:A 5.74906e-05
7 *4048:B *461:20 0
8 *4048:B *642:28 1.0183e-05
9 *4048:B *684:8 0
10 *4048:B *685:73 6.24367e-05
11 *4048:B *692:18 2.10025e-05
12 *4049:B *4049:A 0.000313852
13 *4049:B *4054:B1 0.000315527
14 *4049:B *714:61 4.60584e-05
15 *260:14 *4049:A 0.000123225
16 *260:14 *515:8 8.65905e-05
17 *260:14 *642:28 0
18 *260:14 *684:8 0.00013994
19 *3996:D *4048:B 4.66742e-05
20 *213:12 *4048:B 4.43871e-06
*RES
1 *4047:X *260:14 10.895 
2 *260:14 *4049:B 5.515 
3 *260:14 *4048:B 14.12 
*END

*D_NET *261 0.0131934
*CONN
*I *4068:C I *D sky130_fd_sc_hd__or3_2
*I *4055:B I *D sky130_fd_sc_hd__nor2_2
*I *4056:B I *D sky130_fd_sc_hd__or2_2
*I *4054:A2 I *D sky130_fd_sc_hd__o21a_2
*I *4053:A2 I *D sky130_fd_sc_hd__o21a_2
*I *4065:C I *D sky130_fd_sc_hd__or3_2
*I *4052:X O *D sky130_fd_sc_hd__or3_2
*CAP
1 *4068:C 0.000508596
2 *4055:B 0.000239938
3 *4056:B 6.61e-05
4 *4054:A2 0.000177863
5 *4053:A2 0.000158406
6 *4065:C 7.25938e-05
7 *4052:X 0.000405704
8 *261:69 0.000873016
9 *261:65 0.00156131
10 *261:41 0.00119187
11 *261:22 0.00201557
12 *261:12 0.00197882
13 *4053:A2 *4053:B1 8.52972e-05
14 *4055:B *4061:A 0
15 *4055:B *4622:A 0
16 *4055:B *4753:A 0.000112799
17 *4055:B *449:39 4.82172e-06
18 *4056:B *4623:A 2.01934e-05
19 *4056:B *4759:A 8.46818e-05
20 *4065:C *3899:C_N 0.000139245
21 *4065:C *672:37 0
22 *4068:C *3910:B 1.9415e-05
23 *4068:C *4068:B 1.29825e-05
24 *4068:C *4349:B1 0.000108031
25 *4068:C *4349:B2 2.75229e-05
26 *4068:C *4736:A 7.99757e-05
27 *4068:C *671:40 3.64998e-06
28 *261:12 *4052:A 4.99619e-05
29 *261:12 *4420:CLK 0
30 *261:12 *4469:RESET_B 0
31 *261:12 *4692:A 0.000188283
32 *261:12 *469:10 0
33 *261:12 *671:12 0.000115464
34 *261:12 *671:16 0
35 *261:12 *758:12 7.89689e-05
36 *261:22 *3895:B 8.49205e-05
37 *261:22 *4692:A 0.000347917
38 *261:22 *666:8 8.11323e-05
39 *261:22 *671:12 1.19928e-05
40 *261:41 *3899:C_N 2.30797e-05
41 *261:41 *3908:C 3.64998e-06
42 *261:41 *497:27 0.000138123
43 *261:41 *497:29 8.60386e-05
44 *261:41 *672:37 0
45 *261:65 *671:12 0.000205372
46 *261:65 *671:40 0.00013855
47 *261:69 *3893:A3 0.000248856
48 *261:69 *3910:B 4.94404e-05
49 *261:69 *3910:C 0
50 *261:69 *4349:B2 1.23244e-05
51 *261:69 *4460:RESET_B 0.000129234
52 *261:69 *4753:A 4.3584e-05
53 *261:69 *264:8 0
54 *261:69 *449:39 3.59531e-06
55 *261:69 *673:23 5.4003e-05
56 *261:69 *673:32 7.47215e-05
57 *261:69 *673:45 0.000137235
58 *3900:D *261:41 8.00957e-05
59 *4046:C *261:12 4.85494e-05
60 *4052:B *261:12 8.8266e-05
61 *4053:A1 *4053:A2 0.000104652
62 *4054:A1 *4054:A2 0.00030856
63 *4056:A *4055:B 0
64 *4349:A3 *261:69 3.05373e-05
65 *4464:D *261:41 8.26522e-05
66 *4737:A *261:65 5.30673e-05
67 *87:8 *261:22 2.47313e-05
68 *142:20 *4053:A2 4.66108e-05
69 *142:20 *4054:A2 4.22675e-05
70 *142:20 *261:41 2.85623e-05
71 *149:18 *261:12 0
72 *259:8 *261:12 0
*RES
1 *4052:X *261:12 14.585 
2 *261:12 *261:22 16.73 
3 *261:22 *4065:C 5.235 
4 *261:22 *261:41 16.645 
5 *261:41 *4053:A2 6.465 
6 *261:41 *4054:A2 7.785 
7 *261:12 *261:65 7.47 
8 *261:65 *261:69 14.6 
9 *261:69 *4056:B 4.74 
10 *261:69 *4055:B 8.04 
11 *261:65 *4068:C 8.185 
*END

*D_NET *262 0.00244218
*CONN
*I *4059:B1 I *D sky130_fd_sc_hd__a211oi_2
*I *4055:Y O *D sky130_fd_sc_hd__nor2_2
*CAP
1 *4059:B1 0.00062382
2 *4055:Y 0.00062382
3 *4059:B1 *4058:A2 0
4 *4059:B1 *4058:B1 0.000385798
5 *4059:B1 *470:64 0
6 *4059:B1 *691:32 0.000109101
7 *4056:A *4059:B1 0.000163199
8 *4461:D *4059:B1 8.2854e-05
9 *4745:A *4059:B1 0.000453593
*RES
1 *4055:Y *4059:B1 20.64 
*END

*D_NET *263 0.000864367
*CONN
*I *4058:A2 I *D sky130_fd_sc_hd__a31o_2
*I *4056:X O *D sky130_fd_sc_hd__or2_2
*CAP
1 *4058:A2 0.000213256
2 *4056:X 0.000213256
3 *4058:A2 *4058:A3 0.000164679
4 *4058:A2 *4730:A 0.000199833
5 *4056:A *4058:A2 2.42236e-05
6 *4059:B1 *4058:A2 0
7 *4461:D *4058:A2 4.91189e-05
*RES
1 *4056:X *4058:A2 11.43 
*END

*D_NET *264 0.00504908
*CONN
*I *4058:A3 I *D sky130_fd_sc_hd__a31o_2
*I *4059:A2 I *D sky130_fd_sc_hd__a211oi_2
*I *4057:X O *D sky130_fd_sc_hd__or3b_2
*CAP
1 *4058:A3 0.000360499
2 *4059:A2 0
3 *4057:X 0.000612058
4 *264:8 0.000972557
5 *4058:A3 *3893:A2 4.87759e-05
6 *4058:A3 *4730:A 0.000198939
7 *4058:A3 *4759:A 0.00020687
8 *4058:A3 *470:18 0.000128981
9 *4058:A3 *470:20 0.000182427
10 *264:8 *3893:A2 4.28112e-06
11 *264:8 *3893:A3 6.54361e-06
12 *264:8 *3910:C 0.000136877
13 *264:8 *3910:D 0.000475075
14 *264:8 *4057:B 7.00642e-05
15 *264:8 *4071:A3 0
16 *264:8 *4353:B2 0.000141599
17 *264:8 *4693:A 0.000165052
18 *264:8 *4740:A 0.00027939
19 *264:8 *470:20 0.000172194
20 *264:8 *732:10 0.000158297
21 *4056:A *4058:A3 0.000208805
22 *4058:A2 *4058:A3 0.000164679
23 *4349:A3 *264:8 0.000303088
24 *4461:D *4058:A3 2.75145e-05
25 *4474:D *264:8 0
26 *160:38 *264:8 2.45182e-05
27 *261:69 *264:8 0
*RES
1 *4057:X *264:8 22.575 
2 *264:8 *4059:A2 3.6 
3 *264:8 *4058:A3 14.4 
*END

*D_NET *265 0.00161246
*CONN
*I *4062:B I *D sky130_fd_sc_hd__and2_2
*I *4061:B I *D sky130_fd_sc_hd__and2_2
*I *4060:X O *D sky130_fd_sc_hd__or3_2
*CAP
1 *4062:B 4.33291e-05
2 *4061:B 0
3 *4060:X 0.000274289
4 *265:12 0.000317618
5 *4062:B *4061:A 0.000164874
6 *4062:B *4730:A 0.000241483
7 *265:12 *4583:CLK 0
8 *265:12 *4730:A 4.82919e-05
9 *265:12 *714:61 8.82557e-05
10 *3904:B *265:12 0.000273102
11 *4459:D *265:12 0.00016122
*RES
1 *4060:X *265:12 13.145 
2 *265:12 *4061:B 1.6 
3 *265:12 *4062:B 3.775 
*END

*D_NET *266 0.00206326
*CONN
*I *4066:B I *D sky130_fd_sc_hd__and2_2
*I *4067:B I *D sky130_fd_sc_hd__and2_2
*I *4065:X O *D sky130_fd_sc_hd__or3_2
*CAP
1 *4066:B 0
2 *4067:B 0.000115439
3 *4065:X 0.000277617
4 *266:10 0.000393057
5 *4067:B *4067:A 0.000159741
6 *266:10 *3898:A 0.000203924
7 *266:10 *3898:C 0.000308713
8 *266:10 *4066:A 8.09157e-05
9 *266:10 *4067:A 2.05056e-05
10 *266:10 *666:18 4.00541e-06
11 *3900:C *266:10 0.000499346
*RES
1 *4065:X *266:10 9.67 
2 *266:10 *4067:B 3.775 
3 *266:10 *4066:B 1.6 
*END

*D_NET *267 0.00188772
*CONN
*I *4072:B1 I *D sky130_fd_sc_hd__o211a_2
*I *4071:A2 I *D sky130_fd_sc_hd__a31o_2
*I *4068:X O *D sky130_fd_sc_hd__or3_2
*CAP
1 *4072:B1 0
2 *4071:A2 0.00029879
3 *4068:X 0.00033176
4 *267:8 0.000630549
5 *4071:A2 *4071:B1 0.000234674
6 *4071:A2 *4072:A2 5.16418e-05
7 *267:8 *4475:RESET_B 0.000152104
8 *267:8 *4688:A 0
9 *267:8 *668:10 9.91801e-05
10 *267:8 *687:26 3.18137e-05
11 *4475:D *267:8 5.72091e-05
*RES
1 *4068:X *267:8 11.355 
2 *267:8 *4071:A2 8.25 
3 *267:8 *4072:B1 3.6 
*END

*D_NET *268 0.000728512
*CONN
*I *4072:A2 I *D sky130_fd_sc_hd__o211a_2
*I *4069:Y O *D sky130_fd_sc_hd__nor3_2
*CAP
1 *4072:A2 0.000338435
2 *4069:Y 0.000338435
3 *4072:A2 *4688:A 0
4 *4071:A2 *4072:A2 5.16418e-05
*RES
1 *4069:Y *4072:A2 12.615 
*END

*D_NET *269 0.000823169
*CONN
*I *4071:A3 I *D sky130_fd_sc_hd__a31o_2
*I *4070:X O *D sky130_fd_sc_hd__or3_2
*CAP
1 *4071:A3 0.000344021
2 *4070:X 0.000344021
3 *4071:A3 *4069:B 0.000116158
4 *4071:A3 *4071:A1 1.89685e-05
5 *4071:A3 *4688:A 0
6 *4071:A3 *4693:A 0
7 *264:8 *4071:A3 0
*RES
1 *4070:X *4071:A3 12.855 
*END

*D_NET *270 0.00470656
*CONN
*I *4074:B I *D sky130_fd_sc_hd__or2_2
*I *4085:B1 I *D sky130_fd_sc_hd__o2bb2a_2
*I *4389:A2_N I *D sky130_fd_sc_hd__a2bb2o_2
*I *4073:X O *D sky130_fd_sc_hd__or3_2
*CAP
1 *4074:B 2.74599e-05
2 *4085:B1 0.000329807
3 *4389:A2_N 0.000486776
4 *4073:X 0
5 *270:23 0.000829227
6 *270:4 0.000958736
7 *4085:B1 *4482:D 7.33283e-05
8 *4389:A2_N *3871:B1 0
9 *4389:A2_N *3891:A1 0.00016501
10 *4389:A2_N *4369:A 0
11 *4389:A2_N *4369:B 8.19625e-05
12 *4389:A2_N *4380:A1 0.000317494
13 *4389:A2_N *4733:A 0.000430552
14 *4389:A2_N *650:25 9.2741e-05
15 *4389:A2_N *650:34 1.91597e-05
16 *4389:A2_N *1024:44 0.000262314
17 *270:23 *3887:A1 6.90254e-05
18 *270:23 *3891:A1 0.000295429
19 *270:23 *4482:CLK 0
20 *270:23 *486:10 0
21 *270:23 *486:12 0
22 *270:23 *710:12 5.52231e-05
23 *270:23 *1024:29 0
24 *3889:B1 *4389:A2_N 0.000185398
25 *4074:A *4074:B 2.69153e-05
*RES
1 *4073:X *270:4 1.6 
2 *270:4 *4389:A2_N 19.265 
3 *270:4 *270:23 10.385 
4 *270:23 *4085:B1 9.315 
5 *270:23 *4074:B 4.05 
*END

*D_NET *271 0.00642943
*CONN
*I *4093:C I *D sky130_fd_sc_hd__and3_2
*I *4091:B I *D sky130_fd_sc_hd__nand2_2
*I *4089:B I *D sky130_fd_sc_hd__nand2_2
*I *4084:B I *D sky130_fd_sc_hd__nand3_2
*I *4077:B1 I *D sky130_fd_sc_hd__o21ai_2
*I *4075:B I *D sky130_fd_sc_hd__nand2_2
*I *4074:X O *D sky130_fd_sc_hd__or2_2
*CAP
1 *4093:C 0.000240967
2 *4091:B 0.000109513
3 *4089:B 0.000301873
4 *4084:B 2.61242e-05
5 *4077:B1 0.00030118
6 *4075:B 0
7 *4074:X 0.000215426
8 *271:56 0.000721087
9 *271:43 0.000792403
10 *271:19 0.000807861
11 *271:15 0.000630369
12 *271:6 0.000245315
13 *4077:B1 *4077:A1 4.99619e-05
14 *4077:B1 *4483:D 0.000186099
15 *4077:B1 *272:12 8.6099e-05
16 *4077:B1 *487:8 3.68682e-05
17 *4077:B1 *487:10 2.24336e-05
18 *4077:B1 *487:16 9.44039e-05
19 *4077:B1 *487:73 9.29751e-06
20 *4089:B *4090:B1 2.62526e-05
21 *4089:B *4484:D 7.97834e-05
22 *4091:B *4092:B1 8.65905e-05
23 *4091:B *710:26 6.52265e-05
24 *4093:C *4486:CLK 9.24127e-05
25 *4093:C *4486:D 9.47454e-05
26 *271:19 *4481:D 6.55328e-05
27 *271:19 *4483:D 8.11772e-05
28 *271:19 *4797:A 0.000100863
29 *271:19 *487:73 0.000206481
30 *271:43 *4482:CLK 0
31 *271:56 *4482:CLK 0
32 *271:56 *4484:D 5.14703e-05
33 *271:56 *4485:D 4.63605e-05
34 *271:56 *486:10 0
35 *271:56 *486:12 0
36 *3882:C *4089:B 1.54665e-05
37 *4075:A *271:43 0
38 *4089:A *4089:B 0.000191899
39 *118:8 *4084:B 4.66108e-05
40 *119:25 *4089:B 2.49909e-05
41 *119:34 *4089:B 0.000118647
42 *121:10 *271:56 4.40899e-05
43 *121:19 *4093:C 6.02191e-05
44 *121:19 *271:56 1.22676e-05
45 *121:32 *4093:C 4.10576e-05
46 *123:10 *4093:C 0
47 *123:10 *271:43 0
48 *123:10 *271:56 0
*RES
1 *4074:X *271:6 4.81 
2 *271:6 *4075:B 1.6 
3 *271:6 *271:15 2.45 
4 *271:15 *271:19 9.06 
5 *271:19 *4077:B1 10.41 
6 *271:19 *4084:B 4.05 
7 *271:15 *271:43 1.89 
8 *271:43 *4089:B 9.84 
9 *271:43 *271:56 6.735 
10 *271:56 *4091:B 5.79 
11 *271:56 *4093:C 8.415 
*END

*D_NET *272 0.0048768
*CONN
*I *4088:B1 I *D sky130_fd_sc_hd__a21oi_2
*I *4082:B1 I *D sky130_fd_sc_hd__a21oi_2
*I *4080:B1 I *D sky130_fd_sc_hd__a21oi_2
*I *4076:B I *D sky130_fd_sc_hd__nor2_2
*I *4075:Y O *D sky130_fd_sc_hd__nand2_2
*CAP
1 *4088:B1 0
2 *4082:B1 0
3 *4080:B1 0
4 *4076:B 0.000368617
5 *4075:Y 0.00015133
6 *272:20 0.000611616
7 *272:12 0.000880936
8 *272:10 0.000789267
9 *4076:B *4076:A 0.000117419
10 *4076:B *4079:B1 7.35813e-05
11 *4076:B *4477:D 0.00031916
12 *4076:B *4479:D 5.13155e-05
13 *4076:B *4568:RESET_B 0
14 *4076:B *701:37 0.000118496
15 *4076:B *998:65 0.000123225
16 *272:10 *4088:A2 3.75882e-06
17 *272:12 *4077:A1 0
18 *272:12 *4084:C 0
19 *272:12 *4088:A2 4.15546e-05
20 *272:12 *4480:CLK 0
21 *272:12 *4480:RESET_B 0
22 *272:12 *4482:SET_B 0.000156911
23 *272:12 *4483:D 0.000676005
24 *272:12 *4797:A 1.28996e-05
25 *272:12 *487:16 0
26 *272:12 *1003:35 1.69136e-05
27 *272:20 *4480:CLK 6.4368e-05
28 *272:20 *4480:D 9.54469e-05
29 *272:20 *4480:RESET_B 0
30 *272:20 *998:36 0
31 *3880:D *272:12 0
32 *4075:A *272:10 8.52972e-05
33 *4077:B1 *272:12 8.6099e-05
34 *4080:A1 *4076:B 3.25831e-05
35 *4080:A1 *272:20 0
36 *4134:A *4076:B 0
37 *117:28 *272:12 0
*RES
1 *4075:Y *272:10 6.285 
2 *272:10 *272:12 14.385 
3 *272:12 *272:20 6.485 
4 *272:20 *4076:B 15.26 
5 *272:20 *4080:B1 1.6 
6 *272:12 *4082:B1 3.6 
7 *272:10 *4088:B1 3.6 
*END

*D_NET *273 0.000701885
*CONN
*I *4078:B1 I *D sky130_fd_sc_hd__a21o_2
*I *4077:Y O *D sky130_fd_sc_hd__o21ai_2
*CAP
1 *4078:B1 0.000238813
2 *4077:Y 0.000238813
3 *4078:B1 *4077:A2 8.26527e-05
4 *4078:B1 *4478:D 0
5 *4078:B1 *999:12 0.000141606
*RES
1 *4077:Y *4078:B1 11.925 
*END

*D_NET *274 0.00015873
*CONN
*I *4080:A2 I *D sky130_fd_sc_hd__a21oi_2
*I *4079:Y O *D sky130_fd_sc_hd__o21ai_2
*CAP
1 *4080:A2 2.0213e-05
2 *4079:Y 2.0213e-05
3 *4080:A2 *4079:A1 8.8266e-05
4 *4080:A2 *4079:B1 3.00381e-05
*RES
1 *4079:Y *4080:A2 3.995 
*END

*D_NET *275 0.000210909
*CONN
*I *4082:A2 I *D sky130_fd_sc_hd__a21oi_2
*I *4081:Y O *D sky130_fd_sc_hd__nand2_2
*CAP
1 *4082:A2 6.29067e-05
2 *4081:Y 6.29067e-05
3 *4082:A2 *4081:A 8.50959e-05
*RES
1 *4081:Y *4082:A2 4.5125 
*END

*D_NET *276 0.0012624
*CONN
*I *4084:C I *D sky130_fd_sc_hd__nand3_2
*I *4083:Y O *D sky130_fd_sc_hd__nand2_2
*CAP
1 *4084:C 0.000472946
2 *4083:Y 0.000472946
3 *4084:C *1004:10 5.062e-06
4 *3880:D *4084:C 8.08153e-06
5 *4083:B *4084:C 0.000165698
6 *117:28 *4084:C 2.24423e-05
7 *117:41 *4084:C 6.5265e-05
8 *118:8 *4084:C 4.99619e-05
9 *272:12 *4084:C 0
*RES
1 *4083:Y *4084:C 14.55 
*END

*D_NET *277 0.00102372
*CONN
*I *4086:B1 I *D sky130_fd_sc_hd__o21ai_2
*I *4085:X O *D sky130_fd_sc_hd__o2bb2a_2
*CAP
1 *4086:B1 0.0003679
2 *4085:X 0.0003679
3 *4086:B1 *4086:A1 2.49909e-05
4 *4086:B1 *4482:CLK 0.000199686
5 *4086:B1 *4482:D 1.34687e-05
6 *4086:A2 *4086:B1 2.47547e-05
7 *118:14 *4086:B1 2.69443e-06
8 *118:25 *4086:B1 2.23253e-05
*RES
1 *4085:X *4086:B1 13.65 
*END

*D_NET *278 0.000411175
*CONN
*I *4088:A2 I *D sky130_fd_sc_hd__a21oi_2
*I *4087:Y O *D sky130_fd_sc_hd__o21ai_2
*CAP
1 *4088:A2 0.000127576
2 *4087:Y 0.000127576
3 *4088:A1 *4088:A2 4.77769e-05
4 *119:10 *4088:A2 6.29313e-05
5 *272:10 *4088:A2 3.75882e-06
6 *272:12 *4088:A2 4.15546e-05
*RES
1 *4087:Y *4088:A2 9.72 
*END

*D_NET *279 0.00130004
*CONN
*I *4090:B1 I *D sky130_fd_sc_hd__a21o_2
*I *4089:Y O *D sky130_fd_sc_hd__nand2_2
*CAP
1 *4090:B1 0.000448345
2 *4089:Y 0.000448345
3 *3882:C *4090:B1 0.000204586
4 *4089:A *4090:B1 1.22325e-05
5 *4089:B *4090:B1 2.62526e-05
6 *119:25 *4090:B1 4.66108e-05
7 *119:34 *4090:B1 0.000113668
*RES
1 *4089:Y *4090:B1 10.28 
*END

*D_NET *280 0.000325411
*CONN
*I *4092:B1 I *D sky130_fd_sc_hd__a21o_2
*I *4091:Y O *D sky130_fd_sc_hd__nand2_2
*CAP
1 *4092:B1 4.37943e-05
2 *4091:Y 4.37943e-05
3 *4092:B1 *4485:D 8.65961e-05
4 *4092:B1 *710:26 6.46363e-05
5 *4091:B *4092:B1 8.65905e-05
*RES
1 *4091:Y *4092:B1 4.685 
*END

*D_NET *281 0.00470341
*CONN
*I *4681:A I *D sky130_fd_sc_hd__clkdlybuf4s25_1
*I *4094:Y O *D sky130_fd_sc_hd__nand2_2
*CAP
1 *4681:A 0.0022198
2 *4094:Y 0.0022198
3 *4681:A *4139:A1 8.28419e-05
4 *4681:A *4139:A2 0.000150837
5 *4681:A *449:222 9.5799e-06
6 *4681:A *519:14 2.05571e-05
*RES
1 *4094:Y *4681:A 14.4703 
*END

*D_NET *282 0.000859916
*CONN
*I *4097:B I *D sky130_fd_sc_hd__nor2_2
*I *4096:X O *D sky130_fd_sc_hd__and2_2
*CAP
1 *4097:B 0.000299592
2 *4096:X 0.000299592
3 *4097:B *4098:A2 7.68843e-05
4 *4097:B *4098:B1 8.8266e-05
5 *4097:B *4554:D 4.82919e-05
6 *4097:A *4097:B 4.72892e-05
*RES
1 *4096:X *4097:B 7.58 
*END

*D_NET *283 0.00020716
*CONN
*I *4098:A2 I *D sky130_fd_sc_hd__o21ai_2
*I *4097:Y O *D sky130_fd_sc_hd__nor2_2
*CAP
1 *4098:A2 2.90203e-05
2 *4097:Y 2.90203e-05
3 *4097:A *4098:A2 7.22354e-05
4 *4097:B *4098:A2 7.68843e-05
*RES
1 *4097:Y *4098:A2 4.34 
*END

*D_NET *284 0.000436956
*CONN
*I *4100:A2 I *D sky130_fd_sc_hd__o21ai_2
*I *4099:Y O *D sky130_fd_sc_hd__xnor2_2
*CAP
1 *4100:A2 8.59688e-05
2 *4099:Y 8.59688e-05
3 *4100:A2 *4100:A1 2.00026e-05
4 *4100:A2 *4100:B1 4.89395e-05
5 *4100:A2 *711:29 0.000196077
*RES
1 *4099:Y *4100:A2 5.39 
*END

*D_NET *285 0.00028804
*CONN
*I *4102:B I *D sky130_fd_sc_hd__and2_2
*I *4101:Y O *D sky130_fd_sc_hd__o31ai_2
*CAP
1 *4102:B 9.74015e-05
2 *4101:Y 9.74015e-05
3 *4102:B *782:29 9.32375e-05
*RES
1 *4101:Y *4102:B 5.03 
*END

*D_NET *286 0.00229006
*CONN
*I *4103:A2 I *D sky130_fd_sc_hd__o21ai_2
*I *4102:X O *D sky130_fd_sc_hd__and2_2
*CAP
1 *4103:A2 0.000780917
2 *4102:X 0.000780917
3 *4103:A2 *4030:A 8.5873e-05
4 *4103:A2 *4030:B 2.38055e-05
5 *4103:A2 *4103:A1 0.000136679
6 *4103:A2 *4555:D 0.000138106
7 *4103:A2 *478:16 0
8 *4103:A2 *782:29 0.00034376
*RES
1 *4102:X *4103:A2 18.81 
*END

*D_NET *287 0.0012482
*CONN
*I *4105:B I *D sky130_fd_sc_hd__nor2_2
*I *4104:X O *D sky130_fd_sc_hd__and2_2
*CAP
1 *4105:B 0.000554025
2 *4104:X 0.000554025
3 *4105:B *4108:A1 2.21697e-05
4 *4105:B *4108:A2 9.10613e-05
5 *4105:B *4558:D 2.69217e-05
*RES
1 *4104:X *4105:B 15.63 
*END

*D_NET *288 0.000218473
*CONN
*I *4106:A2 I *D sky130_fd_sc_hd__o21ai_2
*I *4105:Y O *D sky130_fd_sc_hd__nor2_2
*CAP
1 *4106:A2 5.31345e-05
2 *4105:Y 5.31345e-05
3 *4106:A2 *4557:CLK 6.21647e-05
4 *4105:A *4106:A2 5.00391e-05
*RES
1 *4105:Y *4106:A2 8.58 
*END

*D_NET *289 0.000852528
*CONN
*I *4108:A2 I *D sky130_fd_sc_hd__o21ai_2
*I *4107:Y O *D sky130_fd_sc_hd__xnor2_2
*CAP
1 *4108:A2 0.000220141
2 *4107:Y 0.000220141
3 *4108:A2 *4106:B1 8.08153e-06
4 *4108:A2 *4108:A1 8.06861e-05
5 *4108:A2 *4111:A1 5.53249e-06
6 *4108:A2 *4111:B1 2.97004e-06
7 *4108:A2 *4558:D 0.000138613
8 *4105:B *4108:A2 9.10613e-05
9 *4107:B *4108:A2 8.53011e-05
*RES
1 *4107:Y *4108:A2 11.67 
*END

*D_NET *290 0.00153247
*CONN
*I *4110:B I *D sky130_fd_sc_hd__and2_2
*I *4109:Y O *D sky130_fd_sc_hd__o31ai_2
*CAP
1 *4110:B 0.000374836
2 *4109:Y 0.000374836
3 *4110:B *4033:A 0.000157418
4 *4110:B *4107:A 4.77807e-05
5 *4110:B *4111:A2 8.08439e-05
6 *4110:B *4559:D 4.49585e-05
7 *4110:B *4559:RESET_B 0.00013053
8 *4110:B *798:21 8.33066e-06
9 *4110:B *798:40 4.87939e-05
10 *4110:B *799:12 0.000223679
11 *245:27 *4110:B 2.14995e-05
12 *247:12 *4110:B 0
13 *247:16 *4110:B 1.89685e-05
*RES
1 *4109:Y *4110:B 16.77 
*END

*D_NET *291 0.000223264
*CONN
*I *4111:A2 I *D sky130_fd_sc_hd__o21ai_2
*I *4110:X O *D sky130_fd_sc_hd__and2_2
*CAP
1 *4111:A2 7.12101e-05
2 *4110:X 7.12101e-05
3 *4110:B *4111:A2 8.08439e-05
*RES
1 *4110:X *4111:A2 8.835 
*END

*D_NET *292 0.000255549
*CONN
*I *4113:B I *D sky130_fd_sc_hd__nor2_2
*I *4112:X O *D sky130_fd_sc_hd__and2_2
*CAP
1 *4113:B 0.000127775
2 *4112:X 0.000127775
*RES
1 *4112:X *4113:B 5.045 
*END

*D_NET *293 0.00150519
*CONN
*I *4114:A2 I *D sky130_fd_sc_hd__o21ai_2
*I *4113:Y O *D sky130_fd_sc_hd__nor2_2
*CAP
1 *4114:A2 0.00036978
2 *4113:Y 0.00036978
3 *4114:A2 *3845:A 0
4 *4114:A2 *4560:D 0.000464578
5 *4114:A2 *4562:CLK 7.35729e-05
6 *4114:A2 *479:27 0.000105841
7 *4114:A2 *479:33 0.000104542
8 *4114:A2 *531:95 1.70935e-05
9 *4113:A *4114:A2 0
*RES
1 *4113:Y *4114:A2 16.395 
*END

*D_NET *294 0.000809918
*CONN
*I *4116:A2 I *D sky130_fd_sc_hd__o21ai_2
*I *4115:Y O *D sky130_fd_sc_hd__xnor2_2
*CAP
1 *4116:A2 0.000194494
2 *4115:Y 0.000194494
3 *4116:A2 *4116:A1 7.96171e-05
4 *4116:A2 *4116:B1 1.67306e-05
5 *4116:A2 *4119:A2 0.000158072
6 *4116:A2 *4561:D 0.000162325
7 *4116:A2 *531:95 4.18603e-06
*RES
1 *4115:Y *4116:A2 11.535 
*END

*D_NET *295 0.000554105
*CONN
*I *4118:B I *D sky130_fd_sc_hd__and2_2
*I *4117:Y O *D sky130_fd_sc_hd__o31ai_2
*CAP
1 *4118:B 0.000175505
2 *4117:Y 0.000175505
3 *4118:B *4117:A1 7.81954e-05
4 *4118:B *4117:B1 0
5 *4118:B *4119:A2 0.0001249
*RES
1 *4117:Y *4118:B 10.665 
*END

*D_NET *296 0.00132266
*CONN
*I *4119:A2 I *D sky130_fd_sc_hd__o21ai_2
*I *4118:X O *D sky130_fd_sc_hd__and2_2
*CAP
1 *4119:A2 0.000495702
2 *4118:X 0.000495702
3 *4119:A2 *4115:A 4.82863e-05
4 *4116:A2 *4119:A2 0.000158072
5 *4118:B *4119:A2 0.0001249
*RES
1 *4118:X *4119:A2 11.255 
*END

*D_NET *297 0.00137969
*CONN
*I *4121:B I *D sky130_fd_sc_hd__nor2_2
*I *4120:X O *D sky130_fd_sc_hd__and2_2
*CAP
1 *4121:B 0.000421676
2 *4120:X 0.000421676
3 *4121:B *4120:A 0.000141599
4 *4121:B *4125:A1 0
5 *4121:B *4564:RESET_B 0
6 *4121:B *783:23 0.000185398
7 *4121:B *784:26 0
8 *4037:D *4121:B 0
9 *4120:B *4121:B 0.000162311
10 *4125:A3 *4121:B 0
11 *249:30 *4121:B 0
12 *250:10 *4121:B 4.70343e-05
13 *251:10 *4121:B 0
*RES
1 *4120:X *4121:B 14.835 
*END

*D_NET *298 0.000995703
*CONN
*I *4122:A2 I *D sky130_fd_sc_hd__o21ai_2
*I *4121:Y O *D sky130_fd_sc_hd__nor2_2
*CAP
1 *4122:A2 0.000372923
2 *4121:Y 0.000372923
3 *4122:A2 *4124:A2 8.65905e-05
4 *4122:A2 *4124:B1 3.70488e-05
5 *4122:A2 *4125:A2 9.66106e-05
6 *4122:A2 *4563:D 1.48813e-05
7 *4123:B *4122:A2 1.47256e-05
*RES
1 *4121:Y *4122:A2 9.185 
*END

*D_NET *299 0.000922868
*CONN
*I *4124:A2 I *D sky130_fd_sc_hd__o21ai_2
*I *4123:Y O *D sky130_fd_sc_hd__xnor2_2
*CAP
1 *4124:A2 0.000300379
2 *4123:Y 0.000300379
3 *4124:A2 *4124:B1 0
4 *4124:A2 *4564:D 0.000129687
5 *4122:A2 *4124:A2 8.65905e-05
6 *251:10 *4124:A2 0.000105833
*RES
1 *4123:Y *4124:A2 13.455 
*END

*D_NET *300 0.00186416
*CONN
*I *4126:B I *D sky130_fd_sc_hd__and2_2
*I *4125:Y O *D sky130_fd_sc_hd__o31ai_2
*CAP
1 *4126:B 0.000717312
2 *4125:Y 0.000717312
3 *4126:B *4127:A2 0
4 *4126:B *4565:RESET_B 0.000417808
5 *4126:B *481:18 1.17309e-05
6 *4126:B *785:8 0
7 *4037:D *4126:B 0
*RES
1 *4125:Y *4126:B 17.085 
*END

*D_NET *301 0.00125439
*CONN
*I *4127:A2 I *D sky130_fd_sc_hd__o21ai_2
*I *4126:X O *D sky130_fd_sc_hd__and2_2
*CAP
1 *4127:A2 0.000388308
2 *4126:X 0.000388308
3 *4127:A2 *4564:RESET_B 0
4 *4127:A2 *4565:D 0.000339184
5 *4127:A2 *4565:RESET_B 5.03202e-05
6 *4127:A2 *481:18 8.8266e-05
7 *4127:A2 *701:37 0
8 *4126:B *4127:A2 0
*RES
1 *4126:X *4127:A2 14.325 
*END

*D_NET *302 0.00127738
*CONN
*I *4129:B I *D sky130_fd_sc_hd__nor2_2
*I *4128:X O *D sky130_fd_sc_hd__and2_2
*CAP
1 *4129:B 0.000249679
2 *4128:X 0.000249679
3 *4129:B *4134:B 0.000131109
4 *4129:B *4135:A2 0
5 *4129:B *4566:RESET_B 0.000335156
6 *4133:A3 *4129:B 0.000177723
7 *252:10 *4129:B 0.000134038
*RES
1 *4128:X *4129:B 14.955 
*END

*D_NET *303 0.00195615
*CONN
*I *4130:A2 I *D sky130_fd_sc_hd__o21ai_2
*I *4129:Y O *D sky130_fd_sc_hd__nor2_2
*CAP
1 *4130:A2 0.000398143
2 *4129:Y 0.000398143
3 *4130:A2 *4038:A 4.18603e-06
4 *4130:A2 *4039:B 9.54399e-05
5 *4130:A2 *4131:A 0.000329939
6 *4130:A2 *4132:A1 0
7 *4130:A2 *4133:A1 1.61461e-05
8 *4130:A2 *4477:RESET_B 2.4997e-05
9 *4130:A2 *4718:A 0.000292059
10 *4130:A2 *702:27 0.000231557
11 *4130:A2 *786:10 6.95248e-05
12 *4130:A2 *787:21 4.54719e-05
13 *4131:B *4130:A2 5.05437e-05
*RES
1 *4129:Y *4130:A2 17.475 
*END

*D_NET *304 0.000934028
*CONN
*I *4132:A2 I *D sky130_fd_sc_hd__o21ai_2
*I *4131:Y O *D sky130_fd_sc_hd__xnor2_2
*CAP
1 *4132:A2 0.000146388
2 *4131:Y 0.000146388
3 *4132:A2 *4132:A1 0.00030047
4 *4132:A2 *4132:B1 4.99619e-05
5 *4132:A2 *4680:A 6.52349e-05
6 *4132:A2 *659:21 0.000225586
*RES
1 *4131:Y *4132:A2 8.15 
*END

*D_NET *305 0.00105394
*CONN
*I *4134:B I *D sky130_fd_sc_hd__and2_2
*I *4133:Y O *D sky130_fd_sc_hd__o31ai_2
*CAP
1 *4134:B 0.000288041
2 *4133:Y 0.000288041
3 *4134:B *4133:B1 4.82919e-05
4 *4134:B *4135:A2 0.00011888
5 *4134:B *4479:CLK 5.83121e-06
6 *4134:B *4566:RESET_B 9.14049e-05
7 *4134:B *4568:CLK 8.23457e-05
8 *4129:B *4134:B 0.000131109
9 *4134:A *4134:B 0
*RES
1 *4133:Y *4134:B 13.41 
*END

*D_NET *306 0.0014314
*CONN
*I *4135:A2 I *D sky130_fd_sc_hd__o21ai_2
*I *4134:X O *D sky130_fd_sc_hd__and2_2
*CAP
1 *4135:A2 0.000336546
2 *4134:X 0.000336546
3 *4135:A2 *4479:CLK 0.000106655
4 *4135:A2 *4566:RESET_B 0
5 *4135:A2 *481:53 0.000532769
6 *4129:B *4135:A2 0
7 *4133:A3 *4135:A2 0
8 *4134:B *4135:A2 0.00011888
*RES
1 *4134:X *4135:A2 15.15 
*END

*D_NET *307 0.000898503
*CONN
*I *4138:A_N I *D sky130_fd_sc_hd__and2b_2
*I *4140:B I *D sky130_fd_sc_hd__xnor2_2
*I *4136:Y O *D sky130_fd_sc_hd__nor2_2
*CAP
1 *4138:A_N 0.000129225
2 *4140:B 5.93895e-05
3 *4136:Y 0.000110132
4 *307:6 0.000298746
5 *4138:A_N *4136:A 9.2741e-05
6 *4140:B *4139:A1 0.000118513
7 *307:6 *4136:A 7.35729e-05
8 *4136:B *307:6 1.61831e-05
*RES
1 *4136:Y *307:6 3.085 
2 *307:6 *4140:B 6.98 
3 *307:6 *4138:A_N 3.445 
*END

*D_NET *308 0.00125713
*CONN
*I *4138:B I *D sky130_fd_sc_hd__and2b_2
*I *4137:Y O *D sky130_fd_sc_hd__nand2_2
*CAP
1 *4138:B 0.000108656
2 *4137:Y 0.000108656
3 *4138:B *4040:C 1.32064e-05
4 *4138:B *4136:A 0.000426206
5 *4138:B *4137:A 3.57457e-05
6 *4136:B *4138:B 0.000564658
*RES
1 *4137:Y *4138:B 8.495 
*END

*D_NET *309 0.00140118
*CONN
*I *4139:A2 I *D sky130_fd_sc_hd__o21ai_2
*I *4138:X O *D sky130_fd_sc_hd__and2b_2
*CAP
1 *4139:A2 0.000262311
2 *4138:X 0.000262311
3 *4139:A2 *4139:A1 0.000199914
4 *4139:A2 *4569:D 0.000495774
5 *4136:B *4139:A2 3.00381e-05
6 *4681:A *4139:A2 0.000150837
*RES
1 *4138:X *4139:A2 15.15 
*END

*D_NET *310 0.000462414
*CONN
*I *4141:A2 I *D sky130_fd_sc_hd__o21ai_2
*I *4140:Y O *D sky130_fd_sc_hd__xnor2_2
*CAP
1 *4141:A2 0.000137644
2 *4140:Y 0.000137644
3 *4141:A2 *4139:A1 9.50036e-05
4 *4141:A2 *4143:B 8.65905e-05
5 *4141:A2 *531:46 5.53249e-06
*RES
1 *4140:Y *4141:A2 10.14 
*END

*D_NET *311 0.00166676
*CONN
*I *4143:B I *D sky130_fd_sc_hd__nor2_2
*I *4142:X O *D sky130_fd_sc_hd__o31a_2
*CAP
1 *4143:B 0.000689797
2 *4142:X 0.000689797
3 *4143:B *4140:A 8.03844e-05
4 *4143:B *4570:D 0.000120186
5 *4143:B *4571:D 0
6 *4143:B *531:46 0
7 *4141:A2 *4143:B 8.65905e-05
*RES
1 *4142:X *4143:B 18.45 
*END

*D_NET *312 0.000446173
*CONN
*I *4144:A2 I *D sky130_fd_sc_hd__o21ai_2
*I *4143:Y O *D sky130_fd_sc_hd__nor2_2
*CAP
1 *4144:A2 0.000175014
2 *4143:Y 0.000175014
3 *4144:A2 *4144:A1 1.85674e-05
4 *4143:A *4144:A2 7.75783e-05
*RES
1 *4143:Y *4144:A2 6.08 
*END

*D_NET *313 0.000873304
*CONN
*I *4146:A2 I *D sky130_fd_sc_hd__o21ai_2
*I *4145:Y O *D sky130_fd_sc_hd__xnor2_2
*CAP
1 *4146:A2 0.000134638
2 *4145:Y 0.000134638
3 *4146:A2 *4144:A1 8.8266e-05
4 *4146:A2 *659:27 5.4003e-05
5 *4146:A2 *699:22 5.21458e-05
6 *4146:A2 *699:24 6.73665e-05
7 *4146:A2 *720:43 0.000342247
*RES
1 *4145:Y *4146:A2 11.925 
*END

*D_NET *314 0.000870267
*CONN
*I *4149:A I *D sky130_fd_sc_hd__or2_2
*I *4147:X O *D sky130_fd_sc_hd__o31a_2
*CAP
1 *4149:A 0.000349075
2 *4147:X 0.000349075
3 *4149:A *660:14 5.71917e-05
4 *4149:A *792:12 2.66586e-05
5 *254:14 *4149:A 8.8266e-05
*RES
1 *4147:X *4149:A 12.045 
*END

*D_NET *315 0.000446504
*CONN
*I *4149:B I *D sky130_fd_sc_hd__or2_2
*I *4148:Y O *D sky130_fd_sc_hd__o21ai_2
*CAP
1 *4149:B 0.000148995
2 *4148:Y 0.000148995
3 *4149:B *660:14 0
4 *4148:A1 *4149:B 9.54469e-05
5 *256:25 *4149:B 5.30673e-05
*RES
1 *4148:Y *4149:B 9.825 
*END

*D_NET *316 0.00102833
*CONN
*I *4677:A I *D sky130_fd_sc_hd__clkdlybuf4s25_1
*I *4151:Y O *D sky130_fd_sc_hd__nand2_2
*CAP
1 *4677:A 0.000444733
2 *4151:Y 0.000444733
3 *4677:A *4162:B 4.91189e-05
4 *4677:A *4163:A2 0
5 *4677:A *4471:CLK 0
6 *4677:A *4471:D 0
7 *4677:A *4471:RESET_B 0
8 *4677:A *4689:A 0
9 *4677:A *4699:A 0
10 *4677:A *843:42 8.97408e-05
*RES
1 *4151:Y *4677:A 15.21 
*END

*D_NET *317 0.000293915
*CONN
*I *4154:B I *D sky130_fd_sc_hd__nor2_2
*I *4153:X O *D sky130_fd_sc_hd__and2_2
*CAP
1 *4154:B 9.13099e-05
2 *4153:X 9.13099e-05
3 *4154:B *4153:B 0
4 *4154:B *4155:A2 2.30292e-05
5 *4154:A *4154:B 8.8266e-05
*RES
1 *4153:X *4154:B 5.045 
*END

*D_NET *318 0.00121737
*CONN
*I *4155:A2 I *D sky130_fd_sc_hd__o21ai_2
*I *4154:Y O *D sky130_fd_sc_hd__nor2_2
*CAP
1 *4155:A2 0.000248841
2 *4154:Y 0.000248841
3 *4155:A2 *4153:B 2.49909e-05
4 *4155:A2 *4158:A1 5.16418e-05
5 *4155:A2 *4532:CLK 0.000139245
6 *4155:A2 *4532:D 7.35813e-05
7 *4155:A2 *827:12 8.59365e-05
8 *4154:A *4155:A2 0.000321265
9 *4154:B *4155:A2 2.30292e-05
*RES
1 *4154:Y *4155:A2 13.2 
*END

*D_NET *319 0.00136001
*CONN
*I *4157:A2 I *D sky130_fd_sc_hd__o21ai_2
*I *4156:Y O *D sky130_fd_sc_hd__xnor2_2
*CAP
1 *4157:A2 0.000286186
2 *4156:Y 0.000286186
3 *4157:A2 *4157:A1 0.000505427
4 *4157:A2 *4159:B 0
5 *4157:A2 *4532:CLK 0
6 *4157:A2 *4533:D 0.000109338
7 *4157:A2 *473:22 0
8 *4157:A2 *473:24 0
9 *4157:A2 *553:27 9.67081e-06
10 *4157:A2 *653:66 0.000163199
*RES
1 *4156:Y *4157:A2 14.91 
*END

*D_NET *320 0.00146864
*CONN
*I *4159:B I *D sky130_fd_sc_hd__and2_2
*I *4158:Y O *D sky130_fd_sc_hd__o31ai_2
*CAP
1 *4159:B 0.000271719
2 *4158:Y 0.000271719
3 *4159:B *4157:A1 0.000156577
4 *4159:B *4160:A2 0.000268993
5 *4159:B *473:16 6.55406e-05
6 *4159:B *553:27 3.16707e-06
7 *4159:B *653:70 9.09729e-05
8 *4159:B *841:10 0.000133535
9 *4159:B *841:21 0.000133075
10 *4157:A2 *4159:B 0
11 *4159:A *4159:B 7.33383e-05
*RES
1 *4158:Y *4159:B 16.005 
*END

*D_NET *321 0.00196662
*CONN
*I *4160:A2 I *D sky130_fd_sc_hd__o21ai_2
*I *4159:X O *D sky130_fd_sc_hd__and2_2
*CAP
1 *4160:A2 0.000640666
2 *4159:X 0.000640666
3 *4160:A2 *4160:B1 1.83756e-05
4 *4160:A2 *4533:D 0.000124895
5 *4160:A2 *473:16 0.00011472
6 *4160:A2 *473:20 1.83847e-05
7 *4160:A2 *841:10 9.60582e-07
8 *4159:A *4160:A2 0.000138961
9 *4159:B *4160:A2 0.000268993
*RES
1 *4159:X *4160:A2 17.145 
*END

*D_NET *322 0.000180383
*CONN
*I *4162:B I *D sky130_fd_sc_hd__nor2_2
*I *4161:X O *D sky130_fd_sc_hd__and2_2
*CAP
1 *4162:B 6.56319e-05
2 *4161:X 6.56319e-05
3 *4162:B *4163:A2 0
4 *4677:A *4162:B 4.91189e-05
*RES
1 *4161:X *4162:B 8.58 
*END

*D_NET *323 0.00078767
*CONN
*I *4163:A2 I *D sky130_fd_sc_hd__o21ai_2
*I *4162:Y O *D sky130_fd_sc_hd__nor2_2
*CAP
1 *4163:A2 0.000353069
2 *4162:Y 0.000353069
3 *4163:A2 *4165:B1 4.43871e-06
4 *4163:A2 *4166:A1 0
5 *4163:A2 *653:10 7.70938e-05
6 *4162:B *4163:A2 0
7 *4677:A *4163:A2 0
*RES
1 *4162:Y *4163:A2 12.615 
*END

*D_NET *324 0.00138213
*CONN
*I *4165:A2 I *D sky130_fd_sc_hd__o21ai_2
*I *4164:Y O *D sky130_fd_sc_hd__xnor2_2
*CAP
1 *4165:A2 0.000564883
2 *4164:Y 0.000564883
3 *4165:A2 *4017:B 0
4 *4165:A2 *4165:B1 0.000122331
5 *4165:A2 *4166:A1 0
6 *4165:A2 *4535:CLK 1.34594e-05
7 *4165:A2 *4535:D 0
8 *4165:A2 *4535:RESET_B 0.000116572
9 *4165:A2 *4536:D 0
10 *4165:A2 *4536:RESET_B 0
11 *4165:A2 *4699:A 0
*RES
1 *4164:Y *4165:A2 15.165 
*END

*D_NET *325 0.00160235
*CONN
*I *4167:B I *D sky130_fd_sc_hd__and2_2
*I *4166:Y O *D sky130_fd_sc_hd__o31ai_2
*CAP
1 *4167:B 0.000539924
2 *4166:Y 0.000539924
3 *4167:B *652:52 1.5186e-05
4 *4166:A3 *4167:B 0.000428347
5 *232:16 *4167:B 7.89689e-05
*RES
1 *4166:Y *4167:B 15.15 
*END

*D_NET *326 0.00259442
*CONN
*I *4168:A2 I *D sky130_fd_sc_hd__o21ai_2
*I *4167:X O *D sky130_fd_sc_hd__and2_2
*CAP
1 *4168:A2 0.00113779
2 *4167:X 0.00113779
3 *4168:A2 *4168:A1 3.25831e-05
4 *4168:A2 *4536:RESET_B 3.64998e-06
5 *4168:A2 *4645:A 0
6 *4168:A2 *4674:A 0.000121147
7 *4168:A2 *493:12 0
8 *4168:A2 *680:25 4.65017e-05
9 *4168:A2 *844:6 8.40269e-05
10 *4168:A2 *844:27 3.09233e-05
*RES
1 *4167:X *4168:A2 13.5197 
*END

*D_NET *327 0.00134177
*CONN
*I *4170:B I *D sky130_fd_sc_hd__nor2_2
*I *4169:X O *D sky130_fd_sc_hd__and2_2
*CAP
1 *4170:B 0.000380353
2 *4169:X 0.000380353
3 *4170:B *4171:A2 0
4 *4170:B *4175:B 8.64599e-05
5 *4170:B *652:10 0
6 *4018:B *4170:B 0.000157937
7 *4170:A *4170:B 0.000298442
8 *232:31 *4170:B 3.82293e-05
*RES
1 *4169:X *4170:B 13.83 
*END

*D_NET *328 0.000779694
*CONN
*I *4171:A2 I *D sky130_fd_sc_hd__o21ai_2
*I *4170:Y O *D sky130_fd_sc_hd__nor2_2
*CAP
1 *4171:A2 0.000336011
2 *4170:Y 0.000336011
3 *4171:A2 *4018:A 4.77769e-05
4 *4171:A2 *4176:A1 3.75882e-06
5 *4171:A2 *542:62 2.46062e-05
6 *4171:A2 *652:10 0
7 *4171:A2 *846:12 2.69443e-06
8 *4170:A *4171:A2 0
9 *4170:B *4171:A2 0
10 *233:8 *4171:A2 2.88357e-05
*RES
1 *4170:Y *4171:A2 12.72 
*END

*D_NET *329 0.00124546
*CONN
*I *4173:A2 I *D sky130_fd_sc_hd__o21ai_2
*I *4172:Y O *D sky130_fd_sc_hd__xnor2_2
*CAP
1 *4173:A2 0.0005792
2 *4172:Y 0.0005792
3 *4173:A2 *4173:B1 3.72173e-05
4 *4173:A2 *846:12 9.60582e-07
5 *4172:B *4173:A2 4.88778e-05
*RES
1 *4172:Y *4173:A2 15.195 
*END

*D_NET *330 0.00110075
*CONN
*I *4175:B I *D sky130_fd_sc_hd__and2_2
*I *4174:Y O *D sky130_fd_sc_hd__o31ai_2
*CAP
1 *4175:B 0.000359891
2 *4174:Y 0.000359891
3 *4170:B *4175:B 8.64599e-05
4 *232:16 *4175:B 0.000207096
5 *232:31 *4175:B 8.74062e-05
*RES
1 *4174:Y *4175:B 13.845 
*END

*D_NET *331 0.0013396
*CONN
*I *4176:A2 I *D sky130_fd_sc_hd__o21ai_2
*I *4175:X O *D sky130_fd_sc_hd__and2_2
*CAP
1 *4176:A2 0.000645911
2 *4175:X 0.000645911
3 *4172:B *4176:A2 4.77807e-05
*RES
1 *4175:X *4176:A2 16.98 
*END

*D_NET *332 0.00118372
*CONN
*I *4178:B I *D sky130_fd_sc_hd__nor2_2
*I *4177:X O *D sky130_fd_sc_hd__and2_2
*CAP
1 *4178:B 0.000356908
2 *4177:X 0.000356908
3 *4178:B *4180:A 6.63221e-05
4 *4178:B *4181:A2 8.41384e-05
5 *4178:A *4178:B 0.000195465
6 *4180:B *4178:B 0.00012398
*RES
1 *4177:X *4178:B 9.53 
*END

*D_NET *333 0.00164934
*CONN
*I *4179:A2 I *D sky130_fd_sc_hd__o21ai_2
*I *4178:Y O *D sky130_fd_sc_hd__nor2_2
*CAP
1 *4179:A2 0.000656979
2 *4178:Y 0.000656979
3 *4179:A2 *4181:A1 5.09431e-05
4 *4179:A2 *4181:B1 7.30505e-05
5 *4179:A2 *4187:B1 1.18796e-05
6 *4179:A2 *4541:RESET_B 9.84293e-05
7 *4179:A2 *542:29 2.86767e-05
8 *4179:A2 *652:67 1.19028e-05
9 *4179:A2 *693:18 6.04973e-05
*RES
1 *4178:Y *4179:A2 16.665 
*END

*D_NET *334 0.000998673
*CONN
*I *4181:A2 I *D sky130_fd_sc_hd__o21ai_2
*I *4180:Y O *D sky130_fd_sc_hd__xnor2_2
*CAP
1 *4181:A2 0.000289536
2 *4180:Y 0.000289536
3 *4181:A2 *4541:RESET_B 9.84293e-05
4 *4181:A2 *4542:D 0.00011152
5 *4181:A2 *693:18 5.51857e-05
6 *4181:A2 *829:22 7.03276e-05
7 *4178:B *4181:A2 8.41384e-05
*RES
1 *4180:Y *4181:A2 13.455 
*END

*D_NET *335 0.000260535
*CONN
*I *4183:B I *D sky130_fd_sc_hd__and2_2
*I *4182:Y O *D sky130_fd_sc_hd__o31ai_2
*CAP
1 *4183:B 0.000130267
2 *4182:Y 0.000130267
*RES
1 *4182:Y *4183:B 5.03 
*END

*D_NET *336 0.000631928
*CONN
*I *4184:A2 I *D sky130_fd_sc_hd__o21ai_2
*I *4183:X O *D sky130_fd_sc_hd__and2_2
*CAP
1 *4184:A2 0.000245164
2 *4183:X 0.000245164
3 *4184:A2 *655:46 0
4 *4184:A2 *693:16 0.000141599
*RES
1 *4183:X *4184:A2 11.355 
*END

*D_NET *337 0.00058669
*CONN
*I *4186:B I *D sky130_fd_sc_hd__nor2_2
*I *4185:X O *D sky130_fd_sc_hd__and2_2
*CAP
1 *4186:B 0.000102208
2 *4185:X 0.000102208
3 *4186:B *4545:RESET_B 0.000136685
4 *4186:B *4546:RESET_B 0.000136177
5 *4186:A *4186:B 0.000109413
*RES
1 *4185:X *4186:B 10.62 
*END

*D_NET *338 0.000697338
*CONN
*I *4187:A2 I *D sky130_fd_sc_hd__o21ai_2
*I *4186:Y O *D sky130_fd_sc_hd__nor2_2
*CAP
1 *4187:A2 0.000312319
2 *4186:Y 0.000312319
3 *4187:A2 *4544:D 7.27003e-05
*RES
1 *4186:Y *4187:A2 12.21 
*END

*D_NET *339 0.000229605
*CONN
*I *4189:A2 I *D sky130_fd_sc_hd__o21ai_2
*I *4188:Y O *D sky130_fd_sc_hd__xnor2_2
*CAP
1 *4189:A2 5.37076e-05
2 *4188:Y 5.37076e-05
3 *236:10 *4189:A2 0.000122189
*RES
1 *4188:Y *4189:A2 4.34 
*END

*D_NET *340 0.000468484
*CONN
*I *4191:B I *D sky130_fd_sc_hd__and2_2
*I *4190:Y O *D sky130_fd_sc_hd__o31ai_2
*CAP
1 *4191:B 0.000117655
2 *4190:Y 0.000117655
3 *4191:B *4190:B1 0.000163204
4 *4191:B *4192:A2 2.16833e-05
5 *4190:A3 *4191:B 4.82863e-05
*RES
1 *4190:Y *4191:B 5.735 
*END

*D_NET *341 0.00105499
*CONN
*I *4192:A2 I *D sky130_fd_sc_hd__o21ai_2
*I *4191:X O *D sky130_fd_sc_hd__and2_2
*CAP
1 *4192:A2 0.00029856
2 *4191:X 0.00029856
3 *4192:A2 *4190:A1 8.88726e-05
4 *4192:A2 *4190:A2 0.000119866
5 *4192:A2 *4190:B1 0.0001249
6 *4192:A2 *4546:D 4.61244e-05
7 *4190:A3 *4192:A2 5.64202e-05
8 *4191:B *4192:A2 2.16833e-05
*RES
1 *4191:X *4192:A2 8.84 
*END

*D_NET *342 0.00294972
*CONN
*I *4198:B I *D sky130_fd_sc_hd__xnor2_2
*I *4195:A_N I *D sky130_fd_sc_hd__and2b_2
*I *4193:Y O *D sky130_fd_sc_hd__nor2_2
*CAP
1 *4198:B 6.12237e-06
2 *4195:A_N 0.000322239
3 *4193:Y 0.000413435
4 *342:12 0.000741796
5 *4195:A_N *4195:B 1.31297e-05
6 *4195:A_N *4196:A2 5.13692e-05
7 *4195:A_N *4196:B1 6.34612e-05
8 *4195:A_N *4199:A1 0
9 *4195:A_N *4199:A2 8.52567e-05
10 *4195:A_N *4548:CLK 0.000165081
11 *4195:A_N *564:20 0.000202079
12 *4195:A_N *653:96 0.00017318
13 *4198:B *4196:B1 2.20014e-05
14 *342:12 *4196:A2 4.66108e-05
15 *342:12 *4196:B1 0.000368716
16 *342:12 *4198:A 3.96653e-05
17 *342:12 *834:38 0.000235573
*RES
1 *4193:Y *342:12 8.995 
2 *342:12 *4195:A_N 13.385 
3 *342:12 *4198:B 2.05 
*END

*D_NET *343 0.00265565
*CONN
*I *4195:B I *D sky130_fd_sc_hd__and2b_2
*I *4194:Y O *D sky130_fd_sc_hd__nand2_2
*CAP
1 *4195:B 0.000862372
2 *4194:Y 0.000862372
3 *4195:B *4194:A 0.000180486
4 *4195:B *4196:A2 3.42615e-05
5 *4195:B *4548:CLK 0.000127333
6 *4195:B *4548:D 0.000199777
7 *4195:B *4571:CLK 0
8 *4195:B *474:82 0
9 *4195:B *696:81 0.000260213
10 *4195:A_N *4195:B 1.31297e-05
11 *4202:B *4195:B 0.000115703
*RES
1 *4194:Y *4195:B 20.205 
*END

*D_NET *344 0.00283647
*CONN
*I *4196:A2 I *D sky130_fd_sc_hd__o21ai_2
*I *4195:X O *D sky130_fd_sc_hd__and2b_2
*CAP
1 *4196:A2 0.00102375
2 *4195:X 0.00102375
3 *4196:A2 *4025:A 1.20662e-05
4 *4196:A2 *4025:B 7.5416e-05
5 *4196:A2 *4198:A 0.000160071
6 *4196:A2 *4199:B1 0.000275315
7 *4196:A2 *4547:D 5.07362e-05
8 *4196:A2 *4548:CLK 1.05984e-05
9 *4196:A2 *4548:D 3.97823e-05
10 *4196:A2 *474:82 0
11 *4196:A2 *835:8 1.56428e-05
12 *4195:A_N *4196:A2 5.13692e-05
13 *4195:B *4196:A2 3.42615e-05
14 *239:31 *4196:A2 1.71013e-05
15 *342:12 *4196:A2 4.66108e-05
*RES
1 *4195:X *4196:A2 21.015 
*END

*D_NET *345 0.00168216
*CONN
*I *4200:A2 I *D sky130_fd_sc_hd__a21boi_2
*I *4197:X O *D sky130_fd_sc_hd__or3_2
*CAP
1 *4200:A2 0.000748958
2 *4197:X 0.000748958
3 *4200:A2 *4024:A 1.08758e-05
4 *4200:A2 *4200:A1 7.44006e-05
5 *4200:A2 *474:71 0
6 *4200:A2 *474:82 0
7 *4150:A2 *4200:A2 0
8 *4191:A *4200:A2 0
9 *239:14 *4200:A2 9.89691e-05
10 *239:31 *4200:A2 0
*RES
1 *4197:X *4200:A2 19.155 
*END

*D_NET *346 0.000904909
*CONN
*I *4199:A2 I *D sky130_fd_sc_hd__o21ai_2
*I *4198:Y O *D sky130_fd_sc_hd__xnor2_2
*CAP
1 *4199:A2 0.00020414
2 *4198:Y 0.00020414
3 *4199:A2 *4196:B1 1.13345e-05
4 *4199:A2 *4199:A1 0
5 *4199:A2 *4199:B1 0.00021874
6 *4199:A2 *4548:CLK 8.52845e-05
7 *4199:A2 *4627:A 1.07563e-05
8 *4199:A2 *653:96 8.52567e-05
9 *4195:A_N *4199:A2 8.52567e-05
*RES
1 *4198:Y *4199:A2 11.49 
*END

*D_NET *347 0.000775897
*CONN
*I *4201:A2 I *D sky130_fd_sc_hd__o21ai_2
*I *4200:Y O *D sky130_fd_sc_hd__a21boi_2
*CAP
1 *4201:A2 0.000232894
2 *4200:Y 0.000232894
3 *4201:A2 *4627:A 4.18603e-06
4 *4201:A2 *474:25 7.06865e-05
5 *4201:A2 *564:26 0
6 *4202:B *4201:A2 0
7 *239:14 *4201:A2 0.000235237
*RES
1 *4200:Y *4201:A2 10.755 
*END

*D_NET *348 0.000719612
*CONN
*I *4203:A2 I *D sky130_fd_sc_hd__o21ai_2
*I *4202:X O *D sky130_fd_sc_hd__xor2_2
*CAP
1 *4203:A2 0.00012256
2 *4202:X 0.00012256
3 *4203:A2 *3844:A 9.67629e-05
4 *4203:A2 *4550:D 0.000198511
5 *4203:A2 *4660:A 9.9087e-06
6 *4203:A2 *464:10 0.000169309
*RES
1 *4202:X *4203:A2 14.8 
*END

*D_NET *349 0.000403826
*CONN
*I *4743:A I *D sky130_fd_sc_hd__dlygate4sd3_1
*I *4204:Y O *D sky130_fd_sc_hd__o21ai_2
*CAP
1 *4743:A 0.000106326
2 *4204:Y 0.000106326
3 *4743:A *4204:A1 4.77719e-05
4 *4743:A *4205:C1 4.1652e-06
5 *4743:A *695:26 0.000139238
*RES
1 *4204:Y *4743:A 9.285 
*END

*D_NET *350 0.00257575
*CONN
*I *4684:A I *D sky130_fd_sc_hd__clkdlybuf4s25_1
*I *4263:B1_N I *D sky130_fd_sc_hd__a21bo_2
*I *4261:B1 I *D sky130_fd_sc_hd__o21ai_2
*I *4207:Y O *D sky130_fd_sc_hd__nand2_2
*CAP
1 *4684:A 2.08101e-05
2 *4263:B1_N 4.20771e-05
3 *4261:B1 0.000199605
4 *4207:Y 0.000179738
5 *350:12 0.000597873
6 *350:6 0.000556739
7 *4261:B1 *4530:D 7.81876e-05
8 *4263:B1_N *4663:A 1.12643e-05
9 *350:6 *681:63 5.0751e-05
10 *350:12 *4263:A1 2.30292e-05
11 *350:12 *4663:A 2.54431e-05
12 *350:12 *4788:A 4.82863e-05
13 *350:12 *663:6 0.000531741
14 *4012:B *4263:B1_N 0
15 *4261:A1 *4261:B1 0
16 *4263:A2 *4263:B1_N 1.12643e-05
17 *4263:A2 *350:12 0.000198945
18 *227:21 *4261:B1 0
19 *227:21 *4263:B1_N 0
*RES
1 *4207:Y *350:6 4.465 
2 *350:6 *350:12 9.71 
3 *350:12 *4261:B1 7.02 
4 *350:12 *4263:B1_N 4.32375 
5 *350:6 *4684:A 1.96 
*END

*D_NET *351 0.00194356
*CONN
*I *4210:B I *D sky130_fd_sc_hd__nor2_2
*I *4209:X O *D sky130_fd_sc_hd__and2_2
*CAP
1 *4210:B 0.000882321
2 *4209:X 0.000882321
3 *4210:B *4173:A1 0
4 *4210:B *4526:D 3.31103e-05
5 *4210:B *542:45 0
6 *4210:B *662:8 5.64159e-05
7 *4210:B *662:12 5.07419e-05
8 *4210:B *883:34 3.86529e-05
*RES
1 *4209:X *4210:B 21.06 
*END

*D_NET *352 0.00116504
*CONN
*I *4211:A2 I *D sky130_fd_sc_hd__o21ai_2
*I *4210:Y O *D sky130_fd_sc_hd__nor2_2
*CAP
1 *4211:A2 0.000358462
2 *4210:Y 0.000358462
3 *4211:A2 *4211:A1 1.4683e-05
4 *4211:A2 *4510:D 0.000158072
5 *4211:A2 *662:14 0.000275362
6 *4210:A *4211:A2 0
*RES
1 *4210:Y *4211:A2 13.605 
*END

*D_NET *353 0.000879465
*CONN
*I *4213:A2 I *D sky130_fd_sc_hd__o21ai_2
*I *4212:Y O *D sky130_fd_sc_hd__xnor2_2
*CAP
1 *4213:A2 0.000273842
2 *4212:Y 0.000273842
3 *4213:A2 *4000:A 1.91597e-05
4 *4213:A2 *4000:B 4.89395e-05
5 *4213:A2 *4000:C 0.000116535
6 *4213:A2 *492:18 1.10951e-05
7 *216:8 *4213:A2 0.000136052
*RES
1 *4212:Y *4213:A2 11.97 
*END

*D_NET *354 0.00134551
*CONN
*I *4215:B I *D sky130_fd_sc_hd__and2_2
*I *4214:Y O *D sky130_fd_sc_hd__o31ai_2
*CAP
1 *4215:B 0.000403345
2 *4214:Y 0.000403345
3 *4215:B *4000:B 7.28465e-06
4 *4215:B *4013:A 2.0794e-05
5 *4215:B *4208:A1 4.71087e-05
6 *4215:B *4214:A3 0.000132827
7 *4215:B *4216:A1 0
8 *4215:B *4512:RESET_B 6.47357e-05
9 *4215:B *679:34 0.000181928
10 *4215:B *872:14 8.41384e-05
*RES
1 *4214:Y *4215:B 16.005 
*END

*D_NET *355 0.000434143
*CONN
*I *4216:A2 I *D sky130_fd_sc_hd__o21ai_2
*I *4215:X O *D sky130_fd_sc_hd__and2_2
*CAP
1 *4216:A2 0.000179023
2 *4215:X 0.000179023
3 *4215:A *4216:A2 7.60965e-05
*RES
1 *4215:X *4216:A2 6.08 
*END

*D_NET *356 0.001154
*CONN
*I *4218:B I *D sky130_fd_sc_hd__nor2_2
*I *4217:X O *D sky130_fd_sc_hd__and2_2
*CAP
1 *4218:B 0.000532197
2 *4217:X 0.000532197
3 *4218:A *4218:B 3.95724e-05
4 *4222:A3 *4218:B 5.00391e-05
*RES
1 *4217:X *4218:B 15.915 
*END

*D_NET *357 0.00197454
*CONN
*I *4219:A2 I *D sky130_fd_sc_hd__o21ai_2
*I *4218:Y O *D sky130_fd_sc_hd__nor2_2
*CAP
1 *4219:A2 0.000601372
2 *4218:Y 0.000601372
3 *4219:A2 *4219:A1 0.00019608
4 *4219:A2 *4221:A1 9.12857e-06
5 *4219:A2 *4221:B1 0.000139134
6 *4219:A2 *4513:D 0.000176726
7 *4219:A2 *4514:CLK 0.000177142
8 *4218:A *4219:A2 7.35813e-05
*RES
1 *4218:Y *4219:A2 19.92 
*END

*D_NET *358 0.00123663
*CONN
*I *4221:A2 I *D sky130_fd_sc_hd__o21ai_2
*I *4220:Y O *D sky130_fd_sc_hd__xnor2_2
*CAP
1 *4221:A2 0.000618316
2 *4220:Y 0.000618316
*RES
1 *4220:Y *4221:A2 15.3 
*END

*D_NET *359 0.00182629
*CONN
*I *4223:B I *D sky130_fd_sc_hd__and2_2
*I *4222:Y O *D sky130_fd_sc_hd__o31ai_2
*CAP
1 *4223:B 0.000374096
2 *4222:Y 0.000374096
3 *4223:B *4002:A 0
4 *4223:B *4002:C 0.000393079
5 *4223:B *4222:B1 0.000265784
6 *4223:B *4224:A2 0
7 *4223:B *4515:D 0.000160776
8 *4223:B *4519:RESET_B 0
9 *4223:B *575:18 0
10 *4223:B *661:18 0.00013994
11 *218:8 *4223:B 0.00011852
*RES
1 *4222:Y *4223:B 17.445 
*END

*D_NET *360 0.000393832
*CONN
*I *4224:A2 I *D sky130_fd_sc_hd__o21ai_2
*I *4223:X O *D sky130_fd_sc_hd__and2_2
*CAP
1 *4224:A2 0.000138
2 *4223:X 0.000138
3 *4224:A2 *575:18 0.000117832
4 *4224:A2 *661:18 0
5 *4223:B *4224:A2 0
*RES
1 *4223:X *4224:A2 9.375 
*END

*D_NET *361 0.00015919
*CONN
*I *4226:B I *D sky130_fd_sc_hd__nor2_2
*I *4225:X O *D sky130_fd_sc_hd__and2_2
*CAP
1 *4226:B 7.9595e-05
2 *4225:X 7.9595e-05
*RES
1 *4225:X *4226:B 4.34 
*END

*D_NET *362 0.00070328
*CONN
*I *4227:A2 I *D sky130_fd_sc_hd__o21ai_2
*I *4226:Y O *D sky130_fd_sc_hd__nor2_2
*CAP
1 *4227:A2 0.00035164
2 *4226:Y 0.00035164
*RES
1 *4226:Y *4227:A2 12.585 
*END

*D_NET *363 0.000615419
*CONN
*I *4229:A2 I *D sky130_fd_sc_hd__o21ai_2
*I *4228:Y O *D sky130_fd_sc_hd__xnor2_2
*CAP
1 *4229:A2 0.000202816
2 *4228:Y 0.000202816
3 *4229:A2 *4517:D 5.61452e-05
4 *4003:B *4229:A2 7.01303e-05
5 *4228:B *4229:A2 8.35106e-05
*RES
1 *4228:Y *4229:A2 10.83 
*END

*D_NET *364 0.000381461
*CONN
*I *4231:B I *D sky130_fd_sc_hd__and2_2
*I *4230:Y O *D sky130_fd_sc_hd__o31ai_2
*CAP
1 *4231:B 0.000140685
2 *4230:Y 0.000140685
3 *4231:B *4235:A2 0
4 *4231:B *4518:RESET_B 0
5 *4231:B *4600:A 0
6 *4231:B *893:8 0
7 *4230:A3 *4231:B 3.45588e-05
8 *220:12 *4231:B 6.55328e-05
*RES
1 *4230:Y *4231:B 9.63 
*END

*D_NET *365 0.000838564
*CONN
*I *4232:A2 I *D sky130_fd_sc_hd__o21ai_2
*I *4231:X O *D sky130_fd_sc_hd__and2_2
*CAP
1 *4232:A2 0.000274965
2 *4231:X 0.000274965
3 *4232:A2 *4232:A1 0.00020335
4 *4232:A2 *4232:B1 8.52845e-05
5 *4232:A2 *4518:RESET_B 0
*RES
1 *4231:X *4232:A2 12.48 
*END

*D_NET *366 0.000470228
*CONN
*I *4234:B I *D sky130_fd_sc_hd__nor2_2
*I *4233:X O *D sky130_fd_sc_hd__and2_2
*CAP
1 *4234:B 0.000162375
2 *4233:X 0.000162375
3 *4234:B *4235:A2 7.89611e-05
4 *220:12 *4234:B 0
5 *220:21 *4234:B 5.30673e-05
6 *220:38 *4234:B 1.34503e-05
*RES
1 *4233:X *4234:B 9.975 
*END

*D_NET *367 0.00156606
*CONN
*I *4235:A2 I *D sky130_fd_sc_hd__o21ai_2
*I *4234:Y O *D sky130_fd_sc_hd__nor2_2
*CAP
1 *4235:A2 0.000452477
2 *4234:Y 0.000452477
3 *4235:A2 *477:24 2.42236e-05
4 *4231:B *4235:A2 0
5 *4234:A *4235:A2 0.000557919
6 *4234:B *4235:A2 7.89611e-05
7 *220:12 *4235:A2 0
*RES
1 *4234:Y *4235:A2 16.02 
*END

*D_NET *368 0.00185995
*CONN
*I *4237:A2 I *D sky130_fd_sc_hd__o21ai_2
*I *4236:Y O *D sky130_fd_sc_hd__xnor2_2
*CAP
1 *4237:A2 0.000619975
2 *4236:Y 0.000619975
3 *4237:A2 *4006:B 0
4 *4237:A2 *4240:A2 0.000421312
5 *4237:A2 *4519:RESET_B 0
6 *4237:A2 *4520:D 0
7 *4237:A2 *873:8 3.86529e-05
8 *4237:A2 *873:23 6.45317e-05
9 *4237:A2 *875:10 9.54977e-05
*RES
1 *4236:Y *4237:A2 19.605 
*END

*D_NET *369 0.000427885
*CONN
*I *4239:B I *D sky130_fd_sc_hd__and2_2
*I *4238:Y O *D sky130_fd_sc_hd__o31ai_2
*CAP
1 *4239:B 5.88581e-05
2 *4238:Y 5.88581e-05
3 *4239:B *4238:B1 9.91257e-05
4 *4007:B *4239:B 0.000211043
*RES
1 *4238:Y *4239:B 5.39 
*END

*D_NET *370 0.00269409
*CONN
*I *4240:A2 I *D sky130_fd_sc_hd__o21ai_2
*I *4239:X O *D sky130_fd_sc_hd__and2_2
*CAP
1 *4240:A2 0.000753879
2 *4239:X 0.000753879
3 *4240:A2 *4233:A 4.84323e-05
4 *4240:A2 *4238:B1 0
5 *4240:A2 *4521:D 0.000120655
6 *4240:A2 *677:33 2.88436e-05
7 *4240:A2 *873:23 0.000442725
8 *4240:A2 *874:32 3.9442e-05
9 *4240:A2 *875:10 0
10 *4237:A2 *4240:A2 0.000421312
11 *220:38 *4240:A2 8.49205e-05
*RES
1 *4239:X *4240:A2 20.88 
*END

*D_NET *371 0.00261512
*CONN
*I *4242:B I *D sky130_fd_sc_hd__nor2_2
*I *4241:X O *D sky130_fd_sc_hd__and2_2
*CAP
1 *4242:B 0.000374872
2 *4241:X 0.000374872
3 *4242:B *3982:A 0.000119762
4 *4242:B *3982:B 8.23457e-05
5 *4242:B *4241:A 7.00889e-06
6 *4242:B *4243:A2 2.75229e-05
7 *4242:B *4523:CLK 0.000343914
8 *4242:B *488:67 0.000355816
9 *4242:B *677:14 0.0008335
10 *4241:B *4242:B 2.20732e-05
11 *4244:B *4242:B 7.34364e-05
*RES
1 *4241:X *4242:B 19.71 
*END

*D_NET *372 0.000307607
*CONN
*I *4243:A2 I *D sky130_fd_sc_hd__o21ai_2
*I *4242:Y O *D sky130_fd_sc_hd__nor2_2
*CAP
1 *4243:A2 7.52107e-05
2 *4242:Y 7.52107e-05
3 *4243:A2 *457:10 5.2089e-05
4 *4243:A2 *488:67 6.74079e-05
5 *4242:A *4243:A2 1.01661e-05
6 *4242:B *4243:A2 2.75229e-05
*RES
1 *4242:Y *4243:A2 9.03 
*END

*D_NET *373 0.00120387
*CONN
*I *4245:A2 I *D sky130_fd_sc_hd__o21ai_2
*I *4244:Y O *D sky130_fd_sc_hd__xnor2_2
*CAP
1 *4245:A2 0.000303368
2 *4244:Y 0.000303368
3 *4245:A2 *4244:A 9.54399e-05
4 *4245:A2 *4245:A1 6.16478e-05
5 *4245:A2 *4523:D 0.000120186
6 *4244:B *4245:A2 0.000319862
*RES
1 *4244:Y *4245:A2 13.755 
*END

*D_NET *374 0.000401169
*CONN
*I *4247:B I *D sky130_fd_sc_hd__and2_2
*I *4246:Y O *D sky130_fd_sc_hd__o31ai_2
*CAP
1 *4247:B 8.00991e-05
2 *4246:Y 8.00991e-05
3 *4247:B *4248:A2 7.60965e-05
4 *4241:B *4247:B 0
5 *222:41 *4247:B 0.000164874
*RES
1 *4246:Y *4247:B 5.39 
*END

*D_NET *375 0.00089412
*CONN
*I *4248:A2 I *D sky130_fd_sc_hd__o21ai_2
*I *4247:X O *D sky130_fd_sc_hd__and2_2
*CAP
1 *4248:A2 0.000284288
2 *4247:X 0.000284288
3 *4248:A2 *4245:B1 0
4 *4248:A2 *4524:D 9.71067e-05
5 *4241:B *4248:A2 0.0001249
6 *4247:B *4248:A2 7.60965e-05
7 *222:33 *4248:A2 0
8 *222:41 *4248:A2 2.7441e-05
*RES
1 *4247:X *4248:A2 11.7 
*END

*D_NET *376 0.00171915
*CONN
*I *4253:B I *D sky130_fd_sc_hd__xnor2_2
*I *4251:A_N I *D sky130_fd_sc_hd__and2b_2
*I *4249:Y O *D sky130_fd_sc_hd__nor2_2
*CAP
1 *4253:B 0.000385148
2 *4251:A_N 0.00011317
3 *4249:Y 3.62862e-05
4 *376:8 0.000534604
5 *4251:A_N *4251:B 6.14699e-05
6 *4251:A_N *4257:A2 2.41368e-05
7 *4251:A_N *4682:A 0
8 *4251:A_N *597:20 0
9 *4251:A_N *663:57 9.44589e-05
10 *4253:B *4251:B 0.000120655
11 *4253:B *4254:A2 4.11892e-05
12 *4253:B *4257:B1 0
13 *4253:B *4683:A 0.000123106
14 *4253:B *663:72 3.0807e-05
15 *376:8 *4257:A2 4.94404e-05
16 *376:8 *663:57 8.35683e-05
17 *225:20 *4253:B 2.11084e-05
*RES
1 *4249:Y *376:8 4.725 
2 *376:8 *4251:A_N 6.255 
3 *376:8 *4253:B 9.375 
*END

*D_NET *377 0.000703048
*CONN
*I *4251:B I *D sky130_fd_sc_hd__and2b_2
*I *4250:Y O *D sky130_fd_sc_hd__nand2_2
*CAP
1 *4251:B 0.000123137
2 *4250:Y 0.000123137
3 *4251:B *4257:A2 2.8531e-05
4 *4251:B *4682:A 3.64998e-06
5 *4251:B *597:10 1.98158e-05
6 *4251:B *597:20 0.00016264
7 *4251:B *663:72 6.0011e-05
8 *4251:A_N *4251:B 6.14699e-05
9 *4253:B *4251:B 0.000120655
*RES
1 *4250:Y *4251:B 10.83 
*END

*D_NET *378 0.000833499
*CONN
*I *4252:A2 I *D sky130_fd_sc_hd__o21ai_2
*I *4251:X O *D sky130_fd_sc_hd__and2b_2
*CAP
1 *4252:A2 0.000162231
2 *4251:X 0.000162231
3 *4252:A2 *4525:D 0.000143266
4 *4252:A2 *4526:CLK 0
5 *4252:A2 *4662:A 4.66108e-05
6 *4252:A2 *492:10 0
7 *4252:A2 *492:58 0
8 *4252:A2 *597:20 0.00031916
*RES
1 *4251:X *4252:A2 11.325 
*END

*D_NET *379 0.00163919
*CONN
*I *4254:A2 I *D sky130_fd_sc_hd__o21ai_2
*I *4253:Y O *D sky130_fd_sc_hd__xnor2_2
*CAP
1 *4254:A2 0.000243468
2 *4253:Y 0.000243468
3 *4254:A2 *4526:D 0.000474336
4 *4254:A2 *4662:A 0
5 *4254:A2 *4683:A 8.65905e-05
6 *4254:A2 *597:31 1.26548e-05
7 *4254:A2 *597:33 5.53249e-06
8 *4254:A2 *679:12 0.000198286
9 *4254:A2 *679:14 0.00011852
10 *4254:A2 *679:23 0.000215147
11 *4253:B *4254:A2 4.11892e-05
*RES
1 *4253:Y *4254:A2 16.005 
*END

*D_NET *380 0.00184347
*CONN
*I *4256:B I *D sky130_fd_sc_hd__nor2_2
*I *4255:X O *D sky130_fd_sc_hd__o31a_2
*CAP
1 *4256:B 0.000585316
2 *4255:X 0.000585316
3 *4256:B *4257:A2 1.08758e-05
4 *4256:B *4664:A 0.000235573
5 *4256:B *597:10 2.49909e-05
6 *4256:B *679:10 4.66826e-05
7 *4256:B *682:14 4.99619e-05
8 *4256:B *682:27 0.000304758
9 *3:16 *4256:B 0
*RES
1 *4255:X *4256:B 18.015 
*END

*D_NET *381 0.000664308
*CONN
*I *4257:A2 I *D sky130_fd_sc_hd__o21ai_2
*I *4256:Y O *D sky130_fd_sc_hd__nor2_2
*CAP
1 *4257:A2 0.000166495
2 *4256:Y 0.000166495
3 *4257:A2 *4527:CLK 8.08153e-06
4 *4257:A2 *597:10 0.000138636
5 *4257:A2 *663:57 7.16181e-05
6 *4251:A_N *4257:A2 2.41368e-05
7 *4251:B *4257:A2 2.8531e-05
8 *4256:B *4257:A2 1.08758e-05
9 *376:8 *4257:A2 4.94404e-05
*RES
1 *4256:Y *4257:A2 11.325 
*END

*D_NET *382 0.000203266
*CONN
*I *4259:A2 I *D sky130_fd_sc_hd__o21ai_2
*I *4258:Y O *D sky130_fd_sc_hd__xnor2_2
*CAP
1 *4259:A2 6.87116e-05
2 *4258:Y 6.87116e-05
3 *4259:A2 *4528:D 6.58423e-05
*RES
1 *4258:Y *4259:A2 4.34 
*END

*D_NET *383 0.00226015
*CONN
*I *4262:A I *D sky130_fd_sc_hd__or2_2
*I *4260:X O *D sky130_fd_sc_hd__o31a_2
*CAP
1 *4262:A 0.000643396
2 *4260:X 0.000643396
3 *4262:A *3843:A 6.65804e-05
4 *4262:A *4260:A1 1.47347e-05
5 *4262:A *4262:B 0.000364277
6 *4262:A *4528:D 0.000105849
7 *4262:A *4529:D 0
8 *4262:A *608:14 0.000108096
9 *4262:A *608:16 0
10 *4262:A *682:14 0
11 *4262:A *882:19 0
12 *4262:A *885:8 4.32126e-05
13 *4262:A *885:19 6.02186e-05
14 *4258:B *4262:A 0.000189886
15 *225:20 *4262:A 2.05056e-05
*RES
1 *4260:X *4262:A 22.215 
*END

*D_NET *384 0.0021323
*CONN
*I *4262:B I *D sky130_fd_sc_hd__or2_2
*I *4261:Y O *D sky130_fd_sc_hd__o21ai_2
*CAP
1 *4262:B 0.000616848
2 *4261:Y 0.000616848
3 *4262:B *3909:B 2.97004e-06
4 *4262:B *4663:A 0.000273695
5 *4262:B *494:12 0
6 *4262:B *494:60 6.73424e-05
7 *4262:B *608:14 7.06865e-05
8 *4261:A1 *4262:B 0.000119631
9 *4262:A *4262:B 0.000364277
*RES
1 *4261:Y *4262:B 18.87 
*END

*D_NET *385 0.000714965
*CONN
*I *4266:A2 I *D sky130_fd_sc_hd__a21oi_2
*I *4265:Y O *D sky130_fd_sc_hd__nand2_2
*CAP
1 *4266:A2 0.000268105
2 *4265:Y 0.000268105
3 *4266:A2 *466:8 0.000114858
4 *4266:A2 *466:58 6.38978e-05
*RES
1 *4265:Y *4266:A2 11.1 
*END

*D_NET *386 0.00236402
*CONN
*I *4268:A2 I *D sky130_fd_sc_hd__a21oi_2
*I *4267:Y O *D sky130_fd_sc_hd__nand2_2
*CAP
1 *4268:A2 0.000499466
2 *4267:Y 0.000499466
3 *4268:A2 *4265:A 0.000123509
4 *4268:A2 *4265:B 0.000153139
5 *4268:A2 *4489:D 0.000124255
6 *4268:A2 *4490:D 5.05228e-05
7 *4268:A2 *466:8 7.08554e-05
8 *4268:A2 *619:44 0.000126569
9 *4268:A2 *619:46 0.000431939
10 *4268:A2 *619:56 0.000237809
11 *4268:A1 *4268:A2 4.64927e-05
*RES
1 *4267:Y *4268:A2 20.055 
*END

*D_NET *387 0.00206127
*CONN
*I *4270:A2 I *D sky130_fd_sc_hd__a21oi_2
*I *4269:Y O *D sky130_fd_sc_hd__nand2_2
*CAP
1 *4270:A2 0.00062654
2 *4269:Y 0.00062654
3 *4270:A2 *466:8 1.91597e-05
4 *4270:A2 *931:17 0.000331186
5 *4268:A1 *4270:A2 0.000162684
6 *4270:A1 *4270:A2 0.000235335
7 *193:10 *4270:A2 1.9291e-05
8 *193:27 *4270:A2 4.05363e-05
*RES
1 *4269:Y *4270:A2 18.705 
*END

*D_NET *388 0.000396433
*CONN
*I *4272:A2 I *D sky130_fd_sc_hd__a21oi_2
*I *4271:Y O *D sky130_fd_sc_hd__nand2_2
*CAP
1 *4272:A2 0.000182202
2 *4271:Y 0.000182202
3 *4272:A2 *4271:A 2.68464e-05
4 *4272:A1 *4272:A2 5.18317e-06
*RES
1 *4271:Y *4272:A2 9.63 
*END

*D_NET *389 0.00187691
*CONN
*I *4274:A2 I *D sky130_fd_sc_hd__a21oi_2
*I *4273:Y O *D sky130_fd_sc_hd__o21ai_2
*CAP
1 *4274:A2 0.000408914
2 *4273:Y 0.000408914
3 *4274:A2 *3980:A 7.23602e-05
4 *4274:A2 *3983:A 0.00017354
5 *4274:A2 *3983:B 4.80285e-05
6 *4274:A2 *4271:A 1.08129e-05
7 *4274:A2 *619:25 4.1745e-05
8 *4274:A2 *933:12 0.000187232
9 *4274:A2 *933:36 3.45117e-05
10 *4274:A2 *934:21 0.000221366
11 *3979:B *4274:A2 4.21973e-05
12 *3983:D *4274:A2 0.000196376
13 *200:10 *4274:A2 3.09164e-05
*RES
1 *4273:Y *4274:A2 16.32 
*END

*D_NET *390 0.00150829
*CONN
*I *4276:A2 I *D sky130_fd_sc_hd__a21oi_2
*I *4275:Y O *D sky130_fd_sc_hd__nand2_2
*CAP
1 *4276:A2 0.000375262
2 *4275:Y 0.000375262
3 *4276:A2 *4273:B1 0
4 *4276:A2 *4275:A 0.000728008
5 *4276:A2 *675:36 0
6 *4276:A2 *677:14 2.42236e-05
7 *4275:B *4276:A2 0
8 *4276:A1 *4276:A2 5.53249e-06
9 *197:25 *4276:A2 0
*RES
1 *4275:Y *4276:A2 15.435 
*END

*D_NET *391 0.000504964
*CONN
*I *4278:A2 I *D sky130_fd_sc_hd__a21oi_2
*I *4277:Y O *D sky130_fd_sc_hd__nand2_2
*CAP
1 *4278:A2 0.00012986
2 *4277:Y 0.00012986
3 *4278:A2 *4277:A 5.39718e-05
4 *4278:A2 *4494:D 4.09723e-05
5 *4278:A2 *642:45 5.30673e-05
6 *4278:A2 *642:57 7.89767e-05
7 *4277:B *4278:A2 1.82563e-05
*RES
1 *4277:Y *4278:A2 10.4925 
*END

*D_NET *392 0.000341076
*CONN
*I *4280:A2 I *D sky130_fd_sc_hd__a21oi_2
*I *4279:Y O *D sky130_fd_sc_hd__nand2_2
*CAP
1 *4280:A2 0.000156189
2 *4279:Y 0.000156189
3 *4280:A2 *4279:A 2.86975e-05
*RES
1 *4279:Y *4280:A2 9.63 
*END

*D_NET *393 0.000998755
*CONN
*I *4282:A2 I *D sky130_fd_sc_hd__a21oi_2
*I *4281:Y O *D sky130_fd_sc_hd__nand2_2
*CAP
1 *4282:A2 0.000499378
2 *4281:Y 0.000499378
*RES
1 *4281:Y *4282:A2 14.19 
*END

*D_NET *394 0.00164387
*CONN
*I *4284:A2 I *D sky130_fd_sc_hd__a21oi_2
*I *4283:Y O *D sky130_fd_sc_hd__nand2_2
*CAP
1 *4284:A2 0.000509593
2 *4283:Y 0.000509593
3 *4284:A2 *4284:B1 6.94735e-06
4 *4284:A2 *4497:CLK 2.47221e-05
5 *4284:A2 *4827:A 0.000115614
6 *4284:A2 *496:22 0.000260772
7 *4284:A2 *496:24 9.46466e-05
8 *4284:A2 *496:46 9.43331e-06
9 *4283:B *4284:A2 2.61042e-05
10 *4284:A1 *4284:A2 8.64421e-05
*RES
1 *4283:Y *4284:A2 16.965 
*END

*D_NET *395 0.000767323
*CONN
*I *4286:A2 I *D sky130_fd_sc_hd__a21oi_2
*I *4285:Y O *D sky130_fd_sc_hd__nand2_2
*CAP
1 *4286:A2 0.000131749
2 *4285:Y 0.000131749
3 *4286:A2 *4285:A 1.26548e-05
4 *4286:A2 *4498:D 0.000171524
5 *4286:A2 *4499:CLK 0.00019685
6 *4286:A1 *4286:A2 0.000122797
*RES
1 *4285:Y *4286:A2 10.995 
*END

*D_NET *396 8.75394e-05
*CONN
*I *4288:A2 I *D sky130_fd_sc_hd__a21oi_2
*I *4287:Y O *D sky130_fd_sc_hd__nand2_2
*CAP
1 *4288:A2 1.9305e-05
2 *4287:Y 1.9305e-05
3 *4288:A1 *4288:A2 4.89295e-05
*RES
1 *4287:Y *4288:A2 3.65 
*END

*D_NET *397 0.00035616
*CONN
*I *4290:A2 I *D sky130_fd_sc_hd__a21oi_2
*I *4289:Y O *D sky130_fd_sc_hd__o21ai_2
*CAP
1 *4290:A2 0.000111324
2 *4289:Y 0.000111324
3 *4290:A2 *4291:A 4.77757e-05
4 *4290:A2 *4500:CLK 3.79606e-05
5 *4289:A2 *4290:A2 4.77757e-05
*RES
1 *4289:Y *4290:A2 9.285 
*END

*D_NET *398 0.00153526
*CONN
*I *4292:A2 I *D sky130_fd_sc_hd__a21oi_2
*I *4291:Y O *D sky130_fd_sc_hd__nand2_2
*CAP
1 *4292:A2 0.000295179
2 *4291:Y 0.000295179
3 *4292:A2 *4291:A 9.37846e-05
4 *4292:A2 *4454:D 0.00011852
5 *4292:A2 *4500:CLK 0.000165486
6 *4292:A2 *467:31 4.65643e-05
7 *4292:A2 *467:44 4.74383e-05
8 *208:14 *4292:A2 0.000473113
*RES
1 *4291:Y *4292:A2 15.75 
*END

*D_NET *399 0.0028453
*CONN
*I *4294:A2 I *D sky130_fd_sc_hd__a21oi_2
*I *4293:Y O *D sky130_fd_sc_hd__nand2_2
*CAP
1 *4294:A2 0.000769618
2 *4293:Y 0.000769618
3 *4294:A2 *4293:A 0
4 *4294:A2 *4294:B1 4.78678e-05
5 *4294:A2 *4502:D 1.52352e-05
6 *4294:A2 *4504:D 0.000296088
7 *4294:A2 *4815:A 0.00016031
8 *4294:A2 *630:6 0.0001628
9 *4294:A2 *630:8 4.60061e-05
10 *4294:A2 *685:21 1.65105e-05
11 *3994:D *4294:A2 0.000561252
*RES
1 *4293:Y *4294:A2 22.59 
*END

*D_NET *400 0.00140144
*CONN
*I *4296:A2 I *D sky130_fd_sc_hd__a21oi_2
*I *4295:Y O *D sky130_fd_sc_hd__nand2_2
*CAP
1 *4296:A2 0.00051703
2 *4295:Y 0.00051703
3 *4296:A2 *3993:A 4.77719e-05
4 *4296:A2 *3994:C 2.86792e-05
5 *4296:A2 *924:34 3.82494e-05
6 *3993:B *4296:A2 2.68464e-05
7 *4296:A1 *4296:A2 0.000225839
*RES
1 *4295:Y *4296:A2 14.22 
*END

*D_NET *401 0.00123129
*CONN
*I *4298:A2 I *D sky130_fd_sc_hd__a21oi_2
*I *4297:Y O *D sky130_fd_sc_hd__o21ai_2
*CAP
1 *4298:A2 0.000327112
2 *4297:Y 0.000327112
3 *4298:A2 *3992:A 4.40028e-05
4 *4298:A2 *4297:A1 4.78564e-05
5 *4298:A2 *4298:B1 0.000160314
6 *4298:A2 *4502:D 0.000112907
7 *4298:A2 *530:18 6.5018e-05
8 *4298:A2 *630:34 1.56982e-05
9 *3992:B *4298:A2 4.89295e-05
10 *209:8 *4298:A2 8.23385e-05
*RES
1 *4297:Y *4298:A2 14.19 
*END

*D_NET *402 0.00165432
*CONN
*I *4301:A1 I *D sky130_fd_sc_hd__a21oi_2
*I *4302:B I *D sky130_fd_sc_hd__nand2_2
*I *4299:X O *D sky130_fd_sc_hd__or2_2
*CAP
1 *4301:A1 5.4182e-05
2 *4302:B 8.53895e-05
3 *4299:X 0.000232211
4 *402:10 0.000371783
5 *4301:A1 *4505:D 5.83121e-06
6 *4301:A1 *642:90 0.000122331
7 *4302:B *4303:A2 7.44375e-05
8 *402:10 *4299:A 0
9 *402:10 *4303:A2 8.26614e-05
10 *402:10 *4508:CLK 0
11 *3996:D *4302:B 0.000113964
12 *3996:D *402:10 0.000301586
13 *4299:B *402:10 0.000107634
14 *4303:A1 *402:10 1.44177e-05
15 *211:42 *402:10 8.78892e-05
*RES
1 *4299:X *402:10 9.765 
2 *402:10 *4302:B 6 
3 *402:10 *4301:A1 4.74 
*END

*D_NET *403 0.00075255
*CONN
*I *4301:A2 I *D sky130_fd_sc_hd__a21oi_2
*I *4300:Y O *D sky130_fd_sc_hd__nand2_2
*CAP
1 *4301:A2 9.8745e-05
2 *4300:Y 9.8745e-05
3 *4301:A2 *4300:A 2.30292e-05
4 *4301:A2 *4303:A2 5.93588e-05
5 *4301:A2 *4303:B1 8.65905e-05
6 *4301:A2 *4506:D 1.91597e-05
7 *4301:A2 *4667:A 2.92496e-05
8 *4301:A2 *642:90 0.00015995
9 *4303:A1 *4301:A2 1.70935e-05
10 *211:42 *4301:A2 0.00016063
*RES
1 *4300:Y *4301:A2 10.83 
*END

*D_NET *404 0.000721263
*CONN
*I *4303:A2 I *D sky130_fd_sc_hd__a21oi_2
*I *4302:Y O *D sky130_fd_sc_hd__nand2_2
*CAP
1 *4303:A2 0.000248137
2 *4302:Y 0.000248137
3 *4303:A2 *642:90 0
4 *4301:A2 *4303:A2 5.93588e-05
5 *4302:B *4303:A2 7.44375e-05
6 *4303:A1 *4303:A2 8.53113e-06
7 *402:10 *4303:A2 8.26614e-05
*RES
1 *4302:Y *4303:A2 11.76 
*END

*D_NET *405 0.00257964
*CONN
*I *4305:A1 I *D sky130_fd_sc_hd__mux2_1
*I *4304:X O *D sky130_fd_sc_hd__and2_2
*CAP
1 *4305:A1 0.000486696
2 *4304:X 0.000486696
3 *4305:A1 *3996:C 6.90876e-05
4 *4305:A1 *4299:A 0
5 *4305:A1 *4506:RESET_B 0.000138544
6 *4305:A1 *4507:D 3.39064e-05
7 *4305:A1 *4834:A 0.000291576
8 *4305:A1 *927:27 0.000249072
9 *213:12 *4305:A1 0.000824062
*RES
1 *4304:X *4305:A1 21.57 
*END

*D_NET *406 0.00136084
*CONN
*I *4309:A2 I *D sky130_fd_sc_hd__a21oi_2
*I *4308:Y O *D sky130_fd_sc_hd__nand2_2
*CAP
1 *4309:A2 0.000513192
2 *4308:Y 0.000513192
3 *4309:A2 *471:12 0.000194596
4 *4309:A2 *471:23 2.13396e-05
5 *4309:A2 *930:8 0
6 *174:14 *4309:A2 0.00011852
*RES
1 *4308:Y *4309:A2 16.575 
*END

*D_NET *407 0.00169511
*CONN
*I *4311:A2 I *D sky130_fd_sc_hd__a21oi_2
*I *4310:Y O *D sky130_fd_sc_hd__nand2_2
*CAP
1 *4311:A2 0.000447618
2 *4310:Y 0.000447618
3 *4311:A2 *4310:A 6.74079e-05
4 *4311:A2 *4313:B1 0
5 *4311:A2 *4577:D 9.5433e-05
6 *4311:A2 *4578:D 0.000167709
7 *4311:A2 *647:18 3.09179e-05
8 *4311:A2 *647:37 5.30673e-05
9 *4311:A2 *647:43 0
10 *4310:B *4311:A2 0
11 *4311:A1 *4311:A2 0.000378332
12 *176:10 *4311:A2 7.00889e-06
*RES
1 *4310:Y *4311:A2 18.735 
*END

*D_NET *408 0.000706402
*CONN
*I *4313:A2 I *D sky130_fd_sc_hd__a21oi_2
*I *4312:Y O *D sky130_fd_sc_hd__nand2_2
*CAP
1 *4313:A2 0.000163012
2 *4312:Y 0.000163012
3 *4313:A2 *3957:A 0.000201503
4 *4313:A2 *4310:A 3.00381e-05
5 *4313:A2 *4835:A 8.65961e-05
6 *4312:B *4313:A2 4.60584e-05
7 *176:16 *4313:A2 1.61831e-05
*RES
1 *4312:Y *4313:A2 7.115 
*END

*D_NET *409 0.00132845
*CONN
*I *4315:A2 I *D sky130_fd_sc_hd__o21a_2
*I *4314:X O *D sky130_fd_sc_hd__and2_2
*CAP
1 *4315:A2 0.000235045
2 *4314:X 0.000235045
3 *4315:A2 *4579:RESET_B 0
4 *4315:A2 *4816:A 0.000163185
5 *4315:A2 *472:50 0.000118081
6 *4315:A2 *688:79 0
7 *4315:A2 *979:8 4.0843e-05
8 *4314:B *4315:A2 4.66108e-05
9 *4315:A1 *4315:A2 0.000489644
*RES
1 *4314:X *4315:A2 14.055 
*END

*D_NET *410 0.000105481
*CONN
*I *4317:B I *D sky130_fd_sc_hd__nor2_2
*I *4316:Y O *D sky130_fd_sc_hd__xnor2_2
*CAP
1 *4317:B 5.27404e-05
2 *4316:Y 5.27404e-05
*RES
1 *4316:Y *4317:B 3.995 
*END

*D_NET *411 0.00107131
*CONN
*I *4319:A2 I *D sky130_fd_sc_hd__a21oi_2
*I *4318:Y O *D sky130_fd_sc_hd__o31ai_2
*CAP
1 *4319:A2 0.000348967
2 *4318:Y 0.000348967
3 *4319:A2 *4312:A 0
4 *4319:A2 *4318:B1 0
5 *4319:A2 *4579:CLK 0.000161623
6 *4319:A2 *647:10 0
7 *176:16 *4319:A2 0.000211757
*RES
1 *4318:Y *4319:A2 14.34 
*END

*D_NET *412 0.000453349
*CONN
*I *4321:A2 I *D sky130_fd_sc_hd__a21oi_2
*I *4320:Y O *D sky130_fd_sc_hd__nand2_2
*CAP
1 *4321:A2 6.37877e-05
2 *4320:Y 6.37877e-05
3 *4321:A2 *4707:A 4.66108e-05
4 *4321:A2 *647:84 9.16315e-05
5 *4321:A1 *4321:A2 4.82863e-05
6 *4322:A2 *4321:A2 0
7 *179:8 *4321:A2 0.000139245
*RES
1 *4320:Y *4321:A2 9.54 
*END

*D_NET *413 0.00131303
*CONN
*I *4323:A2 I *D sky130_fd_sc_hd__a21oi_2
*I *4322:Y O *D sky130_fd_sc_hd__o21ai_2
*CAP
1 *4323:A2 0.000235081
2 *4322:Y 0.000235081
3 *4323:A2 *4324:A 5.4256e-05
4 *4323:A2 *4325:B1 0
5 *4323:A2 *4582:CLK 2.60908e-05
6 *4323:A2 *4582:D 0.000296074
7 *4323:A2 *981:10 0.000316806
8 *4323:A2 *981:21 2.30797e-05
9 *4323:A2 *982:25 6.67262e-05
10 *4323:A2 *983:10 5.83121e-06
11 *4322:A2 *4323:A2 5.4003e-05
*RES
1 *4322:Y *4323:A2 14.475 
*END

*D_NET *414 0.000408771
*CONN
*I *4325:A2 I *D sky130_fd_sc_hd__a21oi_2
*I *4324:Y O *D sky130_fd_sc_hd__nand2_2
*CAP
1 *4325:A2 0.000179404
2 *4324:Y 0.000179404
3 *4323:A1 *4325:A2 0
4 *4325:A1 *4325:A2 4.99619e-05
*RES
1 *4324:Y *4325:A2 6.185 
*END

*D_NET *415 0.000185413
*CONN
*I *4327:A2 I *D sky130_fd_sc_hd__o21a_2
*I *4326:X O *D sky130_fd_sc_hd__and2_2
*CAP
1 *4327:A2 8.97909e-05
2 *4326:X 8.97909e-05
3 *4326:B *4327:A2 5.83121e-06
*RES
1 *4326:X *4327:A2 4.34 
*END

*D_NET *416 0.000630261
*CONN
*I *4329:B I *D sky130_fd_sc_hd__nor2_2
*I *4328:Y O *D sky130_fd_sc_hd__xnor2_2
*CAP
1 *4329:B 0.000115847
2 *4328:Y 0.000115847
3 *4329:B *4586:D 8.65961e-05
4 *4329:B *648:56 0.000311971
*RES
1 *4328:Y *4329:B 10.485 
*END

*D_NET *417 0.000229577
*CONN
*I *4331:A2 I *D sky130_fd_sc_hd__a21oi_2
*I *4330:Y O *D sky130_fd_sc_hd__o21ai_2
*CAP
1 *4331:A2 6.97024e-05
2 *4330:Y 6.97024e-05
3 *4330:A2 *4331:A2 1.16578e-05
4 *181:49 *4331:A2 3.26889e-05
5 *184:14 *4331:A2 4.58257e-05
*RES
1 *4330:Y *4331:A2 4.7 
*END

*D_NET *418 0.00119621
*CONN
*I *4333:A2 I *D sky130_fd_sc_hd__a21oi_2
*I *4332:Y O *D sky130_fd_sc_hd__nand2_2
*CAP
1 *4333:A2 0.000319572
2 *4332:Y 0.000319572
3 *4333:A2 *4332:A 8.57024e-05
4 *4333:A2 *648:24 0.000127612
5 *4333:A2 *648:30 0.000274659
6 *4332:B *4333:A2 1.60203e-05
7 *4333:A1 *4333:A2 5.30673e-05
*RES
1 *4332:Y *4333:A2 9.185 
*END

*D_NET *419 0.000197062
*CONN
*I *4335:B I *D sky130_fd_sc_hd__nor2_2
*I *4334:X O *D sky130_fd_sc_hd__xor2_2
*CAP
1 *4335:B 1.02651e-05
2 *4334:X 1.02651e-05
3 *4335:B *648:18 8.8266e-05
4 *4333:A1 *4335:B 8.8266e-05
*RES
1 *4334:X *4335:B 3.995 
*END

*D_NET *420 0.00137854
*CONN
*I *4337:A2 I *D sky130_fd_sc_hd__a21oi_2
*I *4336:Y O *D sky130_fd_sc_hd__o21ai_2
*CAP
1 *4337:A2 0.00028595
2 *4336:Y 0.00028595
3 *4337:A2 *3969:A 0.000332744
4 *4337:A2 *4336:A1 0.000120186
5 *4337:A2 *4589:D 0
6 *4337:A2 *4590:D 9.37731e-05
7 *4337:A2 *484:36 0
8 *4337:A2 *484:42 0
9 *4337:A2 *967:10 0.000200648
10 *4334:B *4337:A2 5.92849e-05
*RES
1 *4336:Y *4337:A2 14.9775 
*END

*D_NET *421 0.00117706
*CONN
*I *4339:A2 I *D sky130_fd_sc_hd__a21oi_2
*I *4338:Y O *D sky130_fd_sc_hd__nand2_2
*CAP
1 *4339:A2 0.000416625
2 *4338:Y 0.000416625
3 *4339:A2 *4339:B1 0
4 *4339:A2 *4591:D 0.000114579
5 *4339:A2 *4591:RESET_B 0.000210846
6 *4339:A2 *648:8 1.83847e-05
7 *189:10 *4339:A2 0
8 *189:12 *4339:A2 0
*RES
1 *4338:Y *4339:A2 15 
*END

*D_NET *422 0.000217429
*CONN
*I *4341:B I *D sky130_fd_sc_hd__nor2_2
*I *4340:X O *D sky130_fd_sc_hd__xor2_2
*CAP
1 *4341:B 0.000108714
2 *4340:X 0.000108714
*RES
1 *4340:X *4341:B 4.7 
*END

*D_NET *423 0.00111238
*CONN
*I *4343:A2 I *D sky130_fd_sc_hd__o21a_2
*I *4342:X O *D sky130_fd_sc_hd__o21a_2
*CAP
1 *4343:A2 0.000138952
2 *4342:X 0.000138952
3 *4343:A2 *4339:B1 2.30292e-05
4 *4343:A2 *4342:A1 1.12643e-05
5 *4343:A2 *4591:D 8.65905e-05
6 *4343:A2 *4601:A 0.000569563
7 *4339:A1 *4343:A2 7.7106e-05
8 *189:16 *4343:A2 6.6925e-05
*RES
1 *4342:X *4343:A2 8.495 
*END

*D_NET *424 0.00146889
*CONN
*I *4345:B I *D sky130_fd_sc_hd__nor2_2
*I *4344:Y O *D sky130_fd_sc_hd__xnor2_2
*CAP
1 *4345:B 0.000264498
2 *4344:Y 0.000264498
3 *4345:B *4342:B1 2.75229e-05
4 *4345:B *4594:D 9.71067e-05
5 *4345:B *4595:CLK 3.95347e-05
6 *4345:B *485:51 3.6967e-05
7 *4345:B *649:14 0.000148468
8 *4345:B *649:58 6.06593e-05
9 *4343:A1 *4345:B 0.000231564
10 *4344:B *4345:B 0.000161105
11 *4346:A2 *4345:B 0
12 *189:10 *4345:B 1.89685e-05
13 *189:12 *4345:B 4.10568e-05
14 *189:38 *4345:B 7.69411e-05
*RES
1 *4344:Y *4345:B 14.91 
*END

*D_NET *425 0.00268732
*CONN
*I *4347:A1 I *D sky130_fd_sc_hd__mux2_1
*I *4346:X O *D sky130_fd_sc_hd__o31a_2
*CAP
1 *4347:A1 0.000522207
2 *4346:X 0.000522207
3 *4347:A1 *3973:B 0.000179192
4 *4347:A1 *4346:A1 4.82863e-05
5 *4347:A1 *4346:B1 0.000405913
6 *4347:A1 *4347:A0 0.000197059
7 *4347:A1 *975:8 0.000172342
8 *3974:B *4347:A1 0.00018305
9 *4347:S *4347:A1 0.000172852
10 *191:10 *4347:A1 0.000284209
*RES
1 *4346:X *4347:A1 20.43 
*END

*D_NET *426 0.00304326
*CONN
*I *4358:B1 I *D sky130_fd_sc_hd__a22o_2
*I *4357:X O *D sky130_fd_sc_hd__or3b_2
*CAP
1 *4358:B1 0.000646559
2 *4357:X 0.000646559
3 *4358:B1 *4357:C_N 2.14005e-05
4 *4358:B1 *4629:A 0.00117448
5 *4358:B1 *746:32 0
6 *3929:C1 *4358:B1 0.000261889
7 *4358:A2 *4358:B1 0.000292381
*RES
1 *4357:X *4358:B1 21.075 
*END

*D_NET *427 0.00119717
*CONN
*I *4360:B1 I *D sky130_fd_sc_hd__a22o_2
*I *4359:Y O *D sky130_fd_sc_hd__nand2_2
*CAP
1 *4360:B1 0.000445792
2 *4359:Y 0.000445792
3 *4360:B1 *4360:A1 3.00381e-05
4 *4360:B1 *4360:B2 1.82667e-05
5 *4360:B1 *4471:CLK 0
6 *4360:B1 *449:226 1.83756e-05
7 *4360:B1 *747:40 1.22676e-05
8 *4360:B1 *747:55 0
9 *3870:B1 *4360:B1 0
10 *3:16 *4360:B1 0.000226638
*RES
1 *4359:Y *4360:B1 15.525 
*END

*D_NET *428 0.00150708
*CONN
*I *4364:B I *D sky130_fd_sc_hd__nand2_2
*I *4362:A I *D sky130_fd_sc_hd__inv_2
*I *4361:X O *D sky130_fd_sc_hd__mux2_1
*CAP
1 *4364:B 0.000167493
2 *4362:A 0.000158682
3 *4361:X 0.000220313
4 *428:8 0.000546488
5 *4362:A *687:26 0
6 *4362:A *742:18 0.000140244
7 *4364:B *742:18 0.000168956
8 *428:8 *4349:B2 1.96009e-05
9 *428:8 *482:8 8.53011e-05
*RES
1 *4361:X *428:8 6.12 
2 *428:8 *4362:A 6.96 
3 *428:8 *4364:B 7.275 
*END

*D_NET *429 0.00179011
*CONN
*I *4363:B1 I *D sky130_fd_sc_hd__a221o_2
*I *4362:Y O *D sky130_fd_sc_hd__inv_2
*CAP
1 *4363:B1 0.000359403
2 *4362:Y 0.000359403
3 *4363:B1 *4363:A1 1.20411e-05
4 *4363:B1 *4363:B2 3.58971e-06
5 *4363:B1 *4365:A1 1.72859e-05
6 *4363:B1 *4365:B1 0.000154986
7 *4363:B1 *4365:B2 0.000102654
8 *4363:B1 *482:10 0.00016075
9 *4363:B1 *482:58 0.000145857
10 *4363:B1 *482:69 0.000147159
11 *4363:B1 *521:66 2.04657e-05
12 *4363:B1 *742:18 0.000273933
13 *4363:A2 *4363:B1 2.90206e-05
14 *171:20 *4363:B1 3.5678e-06
*RES
1 *4362:Y *4363:B1 16.785 
*END

*D_NET *430 0.00136767
*CONN
*I *4365:B1 I *D sky130_fd_sc_hd__a221o_2
*I *4364:Y O *D sky130_fd_sc_hd__nand2_2
*CAP
1 *4365:B1 0.000200737
2 *4364:Y 0.000200737
3 *4365:B1 *4365:A1 0.000313773
4 *4365:B1 *4365:B2 0.000345165
5 *4365:B1 *4427:CLK 4.66108e-05
6 *4365:B1 *449:13 1.29317e-05
7 *4363:A2 *4365:B1 8.33066e-06
8 *4363:B1 *4365:B1 0.000154986
9 *4426:D *4365:B1 8.43944e-05
*RES
1 *4364:Y *4365:B1 13.665 
*END

*D_NET *431 0.00279833
*CONN
*I *4369:B I *D sky130_fd_sc_hd__nor2_2
*I *4370:B I *D sky130_fd_sc_hd__or2_2
*I *4390:B1 I *D sky130_fd_sc_hd__a21oi_2
*I *4368:X O *D sky130_fd_sc_hd__a221o_2
*CAP
1 *4369:B 0.000347242
2 *4370:B 7.53748e-05
3 *4390:B1 3.44213e-05
4 *4368:X 0.000224523
5 *431:21 0.00055042
6 *431:10 0.000386748
7 *4369:B *432:10 5.30673e-05
8 *4369:B *433:14 5.51158e-05
9 *4369:B *650:25 3.82323e-06
10 *4369:B *650:34 2.59926e-05
11 *4370:B *433:14 4.92096e-05
12 *4370:B *1023:8 4.82919e-05
13 *4390:B1 *456:12 8.65905e-05
14 *431:10 *4642:A 1.0183e-05
15 *431:10 *456:12 0.000172973
16 *431:10 *715:75 0
17 *431:10 *716:52 0
18 *431:21 *4390:A1 8.18626e-05
19 *431:21 *4642:A 8.65905e-05
20 *431:21 *456:12 3.74161e-05
21 *4389:A1_N *4369:B 0.000133075
22 *4389:A1_N *4370:B 0.000136877
23 *4389:A2_N *4369:B 8.19625e-05
24 *123:67 *431:10 4.18603e-06
25 *123:88 *431:10 0.000112382
*RES
1 *4368:X *431:10 11.06 
2 *431:10 *4390:B1 2.395 
3 *431:10 *431:21 4.52 
4 *431:21 *4370:B 5.685 
5 *431:21 *4369:B 9.87 
*END

*D_NET *432 0.00300027
*CONN
*I *4380:A3 I *D sky130_fd_sc_hd__a31o_2
*I *4673:A I *D sky130_fd_sc_hd__clkdlybuf4s25_1
*I *4369:Y O *D sky130_fd_sc_hd__nor2_2
*CAP
1 *4380:A3 0.00022583
2 *4673:A 0.000296588
3 *4369:Y 0.000267531
4 *432:10 0.000789949
5 *4380:A3 *4378:A3 0
6 *4380:A3 *4380:A1 0.000287556
7 *4380:A3 *4380:A2 1.1561e-05
8 *4380:A3 *4380:B1 9.37731e-05
9 *4380:A3 *651:66 0
10 *4673:A *4672:A 8.49205e-05
11 *4673:A *651:36 1.47256e-05
12 *4673:A *651:60 0.000287788
13 *432:10 *4380:A1 0.000500379
14 *432:10 *650:34 8.65961e-05
15 *432:10 *651:66 0
16 *432:10 *716:65 0
17 *4369:B *432:10 5.30673e-05
*RES
1 *4369:Y *432:10 10.365 
2 *432:10 *4673:A 9.585 
3 *432:10 *4380:A3 8.415 
*END

*D_NET *433 0.0052344
*CONN
*I *4377:B I *D sky130_fd_sc_hd__and2_2
*I *4379:B I *D sky130_fd_sc_hd__and2_2
*I *4672:A I *D sky130_fd_sc_hd__clkdlybuf4s25_1
*I *4370:X O *D sky130_fd_sc_hd__or2_2
*CAP
1 *4377:B 0.00056326
2 *4379:B 0
3 *4672:A 1.8095e-05
4 *4370:X 0.000512119
5 *433:25 0.000667348
6 *433:14 0.000634303
7 *4377:B *4376:A2 4.43682e-05
8 *4377:B *4377:A 8.65961e-05
9 *4377:B *4378:B1 0.000505372
10 *4377:B *4379:A 0.00038057
11 *4377:B *4380:A1 6.18754e-05
12 *4377:B *4380:A2 0.000187071
13 *4377:B *4434:RESET_B 0
14 *4377:B *4601:A 0.000201508
15 *4377:B *4856:A 0.000229755
16 *4672:A *651:60 8.49205e-05
17 *433:14 *4370:A 1.56428e-05
18 *433:14 *4380:A1 0.000239313
19 *433:14 *4389:B2 0.000270633
20 *433:14 *4390:A1 0.00010596
21 *433:14 *4768:A 3.48914e-05
22 *433:14 *650:10 0
23 *433:14 *716:52 0
24 *433:14 *1024:57 7.5416e-05
25 *433:25 *4379:A 9.50342e-06
26 *433:25 *4380:A1 0.000116629
27 *433:25 *650:10 0
28 *433:25 *650:73 0
29 *4369:B *433:14 5.51158e-05
30 *4370:B *433:14 4.92096e-05
31 *4389:A1_N *433:14 0
32 *4433:D *4377:B 0
33 *4673:A *4672:A 8.49205e-05
*RES
1 *4370:X *433:14 15.42 
2 *433:14 *4672:A 4.395 
3 *433:14 *433:25 2.4 
4 *433:25 *4379:B 3.6 
5 *433:25 *4377:B 18.27 
*END

*D_NET *434 0.000437147
*CONN
*I *4372:B1 I *D sky130_fd_sc_hd__a31o_2
*I *4371:X O *D sky130_fd_sc_hd__and2_2
*CAP
1 *4372:B1 0.000156169
2 *4371:X 0.000156169
3 *4372:B1 *4371:B 0.000105841
4 *4372:B1 *4372:A1 1.89685e-05
5 *4372:B1 *490:21 0
6 *4372:B1 *490:30 0
7 *4372:B1 *650:51 0
8 *4430:D *4372:B1 0
*RES
1 *4371:X *4372:B1 10.365 
*END

*D_NET *435 0.000662667
*CONN
*I *4374:B1 I *D sky130_fd_sc_hd__a31o_2
*I *4373:X O *D sky130_fd_sc_hd__and2_2
*CAP
1 *4374:B1 0.00019879
2 *4373:X 0.00019879
3 *4374:B1 *4372:A1 0
4 *4374:B1 *4374:A2 8.65905e-05
5 *4374:B1 *4375:B 0.000178496
*RES
1 *4373:X *4374:B1 11.67 
*END

*D_NET *436 0.00130547
*CONN
*I *4376:B1 I *D sky130_fd_sc_hd__a31o_2
*I *4375:X O *D sky130_fd_sc_hd__and2_2
*CAP
1 *4376:B1 0.000555377
2 *4375:X 0.000555377
3 *4376:B1 *4432:CLK 9.61248e-05
4 *4376:B1 *4432:RESET_B 4.91189e-05
5 *4376:B1 *4433:RESET_B 3.09164e-05
6 *4432:D *4376:B1 1.8558e-05
*RES
1 *4375:X *4376:B1 14.64 
*END

*D_NET *437 0.00107168
*CONN
*I *4378:B1 I *D sky130_fd_sc_hd__a31o_2
*I *4377:X O *D sky130_fd_sc_hd__and2_2
*CAP
1 *4378:B1 0.000283153
2 *4377:X 0.000283153
3 *4377:B *4378:B1 0.000505372
*RES
1 *4377:X *4378:B1 8.48 
*END

*D_NET *438 0.000362467
*CONN
*I *4380:B1 I *D sky130_fd_sc_hd__a31o_2
*I *4379:X O *D sky130_fd_sc_hd__and2_2
*CAP
1 *4380:B1 0.000134347
2 *4379:X 0.000134347
3 *4380:B1 *4376:A2 0
4 *4380:A3 *4380:B1 9.37731e-05
5 *4433:D *4380:B1 0
*RES
1 *4379:X *4380:B1 9.12 
*END

*D_NET *439 0.000616392
*CONN
*I *4382:B1 I *D sky130_fd_sc_hd__a31o_2
*I *4381:X O *D sky130_fd_sc_hd__and2_2
*CAP
1 *4382:B1 0.000264901
2 *4381:X 0.000264901
3 *4382:B1 *4381:A 0
4 *4382:B1 *4382:A3 0
5 *4382:B1 *4601:A 8.65905e-05
6 *4382:B1 *4755:A 0
*RES
1 *4381:X *4382:B1 11.67 
*END

*D_NET *440 0.00139577
*CONN
*I *4384:B1 I *D sky130_fd_sc_hd__a31o_2
*I *4383:X O *D sky130_fd_sc_hd__and2_2
*CAP
1 *4384:B1 0.000375909
2 *4383:X 0.000375909
3 *4384:B1 *4383:B 0
4 *4384:B1 *4384:A2 4.82919e-05
5 *4384:B1 *4435:CLK 0.000195663
6 *4384:B1 *4435:RESET_B 0.0001249
7 *4384:B1 *4436:RESET_B 0.000105132
8 *4384:B1 *1018:10 2.67022e-05
9 *4435:D *4384:B1 0.000143266
*RES
1 *4383:X *4384:B1 15.375 
*END

*D_NET *441 0.00162073
*CONN
*I *4386:B1 I *D sky130_fd_sc_hd__a31o_2
*I *4385:X O *D sky130_fd_sc_hd__and2_2
*CAP
1 *4386:B1 0.000303256
2 *4385:X 0.000303256
3 *4386:B1 *4382:A3 8.7974e-05
4 *4386:B1 *4386:A2 1.17409e-05
5 *4386:B1 *4388:A3 4.43871e-06
6 *4386:B1 *4596:CLK 3.64998e-06
7 *4386:B1 *651:16 0.000502814
8 *4386:B1 *651:36 0.000238919
9 *4386:B1 *715:75 0.000164686
*RES
1 *4385:X *4386:B1 15.75 
*END

*D_NET *442 0.00216854
*CONN
*I *4388:B1 I *D sky130_fd_sc_hd__a31o_2
*I *4387:X O *D sky130_fd_sc_hd__and2_2
*CAP
1 *4388:B1 0.000512348
2 *4387:X 0.000512348
3 *4388:B1 *4387:B 0.000695999
4 *4388:B1 *4388:A2 0.0001249
5 *4388:B1 *489:10 8.8266e-05
6 *4388:B1 *715:75 0
7 *4388:B1 *716:52 0
8 *4439:D *4388:B1 0.000234674
*RES
1 *4387:X *4388:B1 18.585 
*END

*D_NET *443 0.00422808
*CONN
*I *4391:B1 I *D sky130_fd_sc_hd__o21ai_2
*I *4393:B I *D sky130_fd_sc_hd__and4b_2
*I *4395:B1_N I *D sky130_fd_sc_hd__a21bo_2
*I *4392:A2 I *D sky130_fd_sc_hd__o21a_2
*I *4396:A3 I *D sky130_fd_sc_hd__a31o_2
*I *4390:Y O *D sky130_fd_sc_hd__a21oi_2
*CAP
1 *4391:B1 0
2 *4393:B 4.08196e-05
3 *4395:B1_N 1.34975e-05
4 *4392:A2 0.000315655
5 *4396:A3 1.31277e-05
6 *4390:Y 0.000498428
7 *443:45 4.08196e-05
8 *443:23 0.000407422
9 *443:21 0.000288019
10 *443:6 0.000721305
11 *4392:A2 *3834:A 2.45182e-05
12 *4392:A2 *3885:B 0.000152864
13 *4392:A2 *3885:C 1.26548e-05
14 *4392:A2 *4392:A1 0.000279787
15 *4392:A2 *4392:B1 1.34594e-05
16 *4392:A2 *4399:B1 8.53113e-06
17 *4392:A2 *446:8 1.53032e-05
18 *4392:A2 *715:44 4.28483e-05
19 *4393:B *4393:C 4.82863e-05
20 *4393:B *444:8 4.01778e-05
21 *4393:B *1008:31 0.00016063
22 *4395:B1_N *4393:C 2.40822e-05
23 *4396:A3 *4396:A2 3.26889e-05
24 *443:6 *4390:A1 3.59784e-05
25 *443:6 *456:12 5.83121e-06
26 *443:21 *4396:A2 0.000201508
27 *443:21 *4396:B1 7.63204e-05
28 *443:21 *1009:10 3.09233e-05
29 *443:21 *1009:12 0.000175207
30 *443:23 *3885:B 0.000170477
31 *443:23 *4396:B1 8.52172e-05
32 *443:23 *715:44 1.0183e-05
33 *443:23 *1009:12 3.09164e-05
34 *4390:A2 *443:6 4.99619e-05
35 *124:10 *4392:A2 0.000160635
*RES
1 *4390:Y *443:6 9.295 
2 *443:6 *4396:A3 1.96 
3 *443:6 *443:21 6.935 
4 *443:21 *443:23 2.4 
5 *443:23 *4392:A2 10.59 
6 *443:23 *4395:B1_N 3.8325 
7 *443:21 *443:45 2 
8 *443:45 *4393:B 3.085 
9 *443:45 *4391:B1 1.6 
*END

*D_NET *444 0.0026737
*CONN
*I *4394:A2 I *D sky130_fd_sc_hd__a21o_2
*I *4392:B1 I *D sky130_fd_sc_hd__o21a_2
*I *4391:Y O *D sky130_fd_sc_hd__o21ai_2
*CAP
1 *4394:A2 0.000208093
2 *4392:B1 0.000226699
3 *4391:Y 0.00034777
4 *444:8 0.000782562
5 *4392:B1 *3885:A 6.00081e-05
6 *4392:B1 *4392:A1 3.35396e-05
7 *4392:B1 *4442:RESET_B 0.000162311
8 *4392:B1 *4443:CLK 8.47289e-05
9 *4392:B1 *485:12 5.88634e-05
10 *4394:A2 *4394:A1 4.82863e-05
11 *4394:A2 *4441:RESET_B 0.000129047
12 *4394:A2 *4442:RESET_B 7.30547e-05
13 *4394:A2 *4785:A 0
14 *4394:A2 *485:10 9.90987e-05
15 *4394:A2 *485:12 0.00012666
16 *4394:A2 *1009:10 0
17 *4394:A2 *1009:12 0
18 *444:8 *4393:C 4.80285e-05
19 *444:8 *4393:D 6.77501e-05
20 *444:8 *1008:6 4.41506e-05
21 *444:8 *1008:31 1.9415e-05
22 *4392:A2 *4392:B1 1.34594e-05
23 *4393:B *444:8 4.01778e-05
*RES
1 *4391:Y *444:8 7.845 
2 *444:8 *4392:B1 8.61 
3 *444:8 *4394:A2 9 
*END

*D_NET *445 0.00115802
*CONN
*I *4394:B1 I *D sky130_fd_sc_hd__a21o_2
*I *4393:X O *D sky130_fd_sc_hd__and4b_2
*CAP
1 *4394:B1 0.000323871
2 *4393:X 0.000323871
3 *4394:B1 *4393:D 5.83121e-06
4 *4394:B1 *454:8 0
5 *4394:B1 *485:10 0.000170759
6 *4394:B1 *485:12 0.000156973
7 *4394:B1 *705:75 0.000157551
8 *4394:B1 *1008:6 1.91597e-05
*RES
1 *4393:X *4394:B1 13.41 
*END

*D_NET *446 0.00196946
*CONN
*I *4397:A I *D sky130_fd_sc_hd__and2_2
*I *4399:A2 I *D sky130_fd_sc_hd__a21o_2
*I *4395:X O *D sky130_fd_sc_hd__a21bo_2
*CAP
1 *4397:A 0.000301448
2 *4399:A2 0.000188545
3 *4395:X 0.000205781
4 *446:8 0.000695773
5 *4397:A *4397:B 3.23571e-05
6 *4397:A *4443:CLK 5.34747e-05
7 *4399:A2 *4399:A1 4.99619e-05
8 *4399:A2 *4399:B1 4.82863e-05
9 *4399:A2 *449:177 6.18909e-05
10 *446:8 *3885:C 0.000140912
11 *446:8 *4392:A1 8.97642e-05
12 *446:8 *4399:B1 0
13 *4392:A2 *446:8 1.53032e-05
14 *4443:D *4399:A2 7.66554e-05
15 *4443:D *446:8 9.3062e-06
*RES
1 *4395:X *446:8 8.04 
2 *446:8 *4399:A2 7.11 
3 *446:8 *4397:A 7.425 
*END

*D_NET *447 0.00260132
*CONN
*I *4397:B I *D sky130_fd_sc_hd__and2_2
*I *4396:X O *D sky130_fd_sc_hd__a31o_2
*CAP
1 *4397:B 0.00105833
2 *4396:X 0.00105833
3 *4397:B *3886:A 0.000142029
4 *4397:B *4396:B1 0
5 *4397:B *4399:A1 3.86607e-05
6 *4397:B *4399:B1 0
7 *4397:B *4443:CLK 9.66106e-05
8 *4397:B *1008:46 0
9 *4397:B *1011:10 5.4256e-05
10 *4391:A1 *4397:B 6.35535e-05
11 *4397:A *4397:B 3.23571e-05
12 *83:10 *4397:B 5.72004e-05
13 *124:10 *4397:B 0
*RES
1 *4396:X *4397:B 23.01 
*END

*D_NET *448 0.00175344
*CONN
*I *4399:B1 I *D sky130_fd_sc_hd__a21o_2
*I *4398:X O *D sky130_fd_sc_hd__and4bb_2
*CAP
1 *4399:B1 0.000645167
2 *4398:X 0.000645167
3 *4399:B1 *4398:A_N 5.05521e-05
4 *4399:B1 *4399:A1 0
5 *4399:B1 *4443:RESET_B 0
6 *4399:B1 *4749:A 2.49909e-05
7 *4399:B1 *449:177 3.00381e-05
8 *4399:B1 *715:31 0.000175802
9 *4392:A2 *4399:B1 8.53113e-06
10 *4397:B *4399:B1 0
11 *4399:A2 *4399:B1 4.82863e-05
12 *4443:D *4399:B1 0
13 *124:10 *4399:B1 0.0001249
14 *446:8 *4399:B1 0
*RES
1 *4398:X *4399:B1 18 
*END

*D_NET *449 0.034808
*CONN
*I *4605:A I *D sky130_fd_sc_hd__clkbuf_8
*I *4604:A I *D sky130_fd_sc_hd__clkbuf_8
*I *4618:A I *D sky130_fd_sc_hd__clkbuf_8
*I *4617:A I *D sky130_fd_sc_hd__clkbuf_8
*I *4610:A I *D sky130_fd_sc_hd__clkbuf_8
*I *4603:A I *D sky130_fd_sc_hd__clkbuf_8
*I *4611:A I *D sky130_fd_sc_hd__clkbuf_8
*I *4612:A I *D sky130_fd_sc_hd__clkbuf_8
*I *4609:A I *D sky130_fd_sc_hd__clkbuf_8
*I *4608:A I *D sky130_fd_sc_hd__clkbuf_8
*I *4607:A I *D sky130_fd_sc_hd__clkbuf_8
*I *4606:A I *D sky130_fd_sc_hd__clkbuf_8
*I *4616:A I *D sky130_fd_sc_hd__clkbuf_8
*I *4614:A I *D sky130_fd_sc_hd__clkbuf_8
*I *4613:A I *D sky130_fd_sc_hd__clkbuf_8
*I *4615:A I *D sky130_fd_sc_hd__clkbuf_8
*I *4602:X O *D sky130_fd_sc_hd__clkbuf_16
*CAP
1 *4605:A 0
2 *4604:A 0
3 *4618:A 0
4 *4617:A 4.81102e-05
5 *4610:A 0
6 *4603:A 3.37585e-05
7 *4611:A 0
8 *4612:A 0
9 *4609:A 0
10 *4608:A 8.43927e-05
11 *4607:A 0.000128277
12 *4606:A 3.52129e-05
13 *4616:A 0
14 *4614:A 0
15 *4613:A 9.02834e-05
16 *4615:A 0
17 *4602:X 6.2594e-05
18 *449:362 9.90891e-05
19 *449:353 0.000167565
20 *449:346 0.000182795
21 *449:340 0.000913191
22 *449:335 0.000916723
23 *449:326 0.000200552
24 *449:322 0.000482756
25 *449:300 0.000215691
26 *449:296 0.00086307
27 *449:284 0.000100804
28 *449:279 0.000100804
29 *449:270 0.00010579
30 *449:266 0.00123419
31 *449:246 0.000391149
32 *449:241 0.000447421
33 *449:232 5.62721e-05
34 *449:228 0.000108577
35 *449:226 0.00278597
36 *449:222 0.00255498
37 *449:215 0.000806915
38 *449:192 0.000335434
39 *449:183 0.000251041
40 *449:181 7.6796e-05
41 *449:177 0.000996799
42 *449:147 0.0002371
43 *449:145 0.00113886
44 *449:138 0.00011003
45 *449:129 0.000117294
46 *449:125 0.000777712
47 *449:113 6.54435e-05
48 *449:94 0.000547732
49 *449:73 0.000552319
50 *449:71 0.000172
51 *449:67 0.000749124
52 *449:57 0.00100746
53 *449:52 0.00041123
54 *449:43 0.000248279
55 *449:39 0.00159641
56 *449:13 0.00338807
57 *449:6 0.0012031
58 *4613:A *4843:A 5.64423e-05
59 *4617:A *475:19 4.80285e-05
60 *449:13 *3867:B 9.7426e-05
61 *449:13 *4365:A1 0.000187247
62 *449:13 *4407:RESET_B 0.000143501
63 *449:13 *4410:CLK 0
64 *449:13 *4712:A 0
65 *449:13 *4751:A 0
66 *449:13 *482:10 0
67 *449:13 *694:10 3.68596e-05
68 *449:39 *4058:A1 2.40377e-05
69 *449:39 *4622:A 2.69217e-05
70 *449:39 *4623:A 0.00014352
71 *449:39 *470:8 0.000131397
72 *449:39 *470:64 3.62776e-05
73 *449:57 *4063:B1 2.21074e-05
74 *449:57 *4738:A 4.90291e-05
75 *449:67 *4063:B1 8.73485e-05
76 *449:67 *4457:CLK 5.07048e-05
77 *449:67 *666:64 0.000133458
78 *449:67 *666:81 9.38648e-05
79 *449:71 *4457:CLK 9.05385e-05
80 *449:73 *4457:CLK 6.72833e-06
81 *449:94 *4463:RESET_B 1.17614e-05
82 *449:94 *4735:A 9.95691e-06
83 *449:94 *4843:A 4.95937e-05
84 *449:94 *461:20 2.88357e-05
85 *449:94 *510:8 3.32132e-05
86 *449:125 *4721:A 0.000117951
87 *449:129 *4721:A 4.55801e-05
88 *449:177 *4399:A1 5.63069e-05
89 *449:177 *709:6 3.00381e-05
90 *449:177 *709:21 8.95933e-05
91 *449:177 *712:10 6.4422e-05
92 *449:177 *1011:10 2.11084e-05
93 *449:181 *486:60 4.80285e-05
94 *449:192 *4447:CLK 8.52172e-05
95 *449:222 *3923:A2 0
96 *449:222 *3925:A2 0
97 *449:222 *3945:A1 0.000119447
98 *449:222 *4414:CLK 0
99 *449:222 *4712:A 5.21545e-05
100 *449:222 *475:65 0
101 *449:222 *519:14 0.000246527
102 *449:222 *694:10 0
103 *449:222 *694:12 0
104 *449:222 *694:14 0
105 *449:222 *741:31 5.65627e-05
106 *449:226 *3849:B1 2.75229e-05
107 *449:226 *3851:A1 0.000183635
108 *449:226 *3851:A2 2.49909e-05
109 *449:226 *4359:A 2.50602e-05
110 *449:226 *4771:A 7.10578e-05
111 *449:226 *4799:A 3.31532e-05
112 *449:226 *519:14 6.97034e-05
113 *449:226 *519:20 0.000197093
114 *449:226 *519:26 2.75229e-05
115 *449:226 *608:8 5.33172e-05
116 *449:226 *681:63 4.43682e-05
117 *449:228 *4528:RESET_B 3.05295e-05
118 *449:228 *459:12 0
119 *449:228 *681:63 2.75707e-05
120 *449:228 *682:14 3.3972e-05
121 *449:241 *4529:CLK 7.35729e-05
122 *449:246 *4528:RESET_B 0
123 *449:246 *682:14 0
124 *449:266 *4012:A 0.000206362
125 *449:266 *494:6 2.75229e-05
126 *449:266 *494:12 4.80285e-05
127 *449:266 *681:53 0
128 *449:266 *681:63 8.47629e-05
129 *449:266 *682:14 3.77199e-05
130 *449:284 *491:18 0
131 *449:296 *4791:A 0.000136284
132 *449:300 *4206:A1 0.000191932
133 *449:300 *4676:A 9.3062e-06
134 *449:300 *4791:A 0
135 *449:300 *654:8 0.000190065
136 *449:300 *696:16 0
137 *449:322 *4676:A 7.17323e-05
138 *449:322 *4791:A 0.000111285
139 *449:322 *465:12 7.33728e-05
140 *449:335 *4205:C1 9.95191e-05
141 *449:340 *4141:B1 3.41253e-05
142 *449:340 *4205:C1 3.11511e-05
143 *449:340 *4570:D 9.51192e-05
144 *449:346 *4141:B1 1.66166e-05
145 *449:346 *4144:B1 1.03423e-05
146 *449:353 *4144:B1 9.08667e-05
147 *449:362 *4144:B1 4.40716e-05
148 *449:362 *451:8 6.47516e-05
149 *449:362 *790:12 6.28765e-05
150 *449:362 *791:14 8.08153e-06
151 *3851:B1 *449:226 4.41506e-05
152 *3887:B1 *449:192 0
153 *3896:B *449:113 8.97642e-05
154 *3904:B *449:113 0
155 *3925:B1 *449:13 0
156 *3925:B1 *449:222 0.000100528
157 *3938:A2 *449:13 0.000274601
158 *3938:B1 *449:13 0
159 *3949:A2 *449:125 0.000137999
160 *3949:B1 *449:39 2.69153e-05
161 *3949:B1 *449:125 8.54923e-05
162 *4047:B *449:67 8.83862e-05
163 *4055:B *449:39 4.82172e-06
164 *4359:B *449:226 8.08869e-05
165 *4360:B1 *449:226 1.83756e-05
166 *4363:A2 *449:13 6.90972e-05
167 *4365:A2 *449:13 0.000264189
168 *4365:B1 *449:13 1.29317e-05
169 *4399:A2 *449:177 6.18909e-05
170 *4399:B1 *449:177 3.00381e-05
171 *4401:D *449:222 0.000122474
172 *4401:D *449:226 3.99879e-05
173 *4401:D *449:296 3.24055e-05
174 *4403:D *449:13 6.74403e-05
175 *4411:D *449:39 3.33839e-05
176 *4414:D *449:222 0
177 *4422:D *449:266 9.66106e-05
178 *4443:D *449:177 9.91257e-05
179 *4447:D *449:192 7.70707e-05
180 *4665:A *449:226 5.83121e-06
181 *4665:A *449:228 3.05373e-05
182 *4665:A *449:266 0.000236303
183 *4681:A *449:222 9.5799e-06
184 *3:16 *449:246 0
185 *254:8 *449:362 0
186 *259:38 *449:113 6.36656e-05
187 *261:69 *449:39 3.59531e-06
*RES
1 *4602:X *449:6 3.6 
2 *449:6 *449:13 26.585 
3 *449:13 *449:39 19.4076 
4 *449:39 *449:43 1.41375 
5 *449:43 *4615:A 1.6 
6 *449:43 *449:52 2.1 
7 *449:52 *449:57 3.81 
8 *449:57 *449:67 15.3962 
9 *449:67 *449:71 1.45875 
10 *449:71 *449:73 1.35 
11 *449:73 *449:94 11.5562 
12 *449:94 *4613:A 3.01375 
13 *449:71 *4614:A 1.6 
14 *449:57 *449:113 3.89 
15 *449:113 *4616:A 3.6 
16 *449:13 *449:125 11.19 
17 *449:125 *449:129 1.44 
18 *449:129 *4606:A 2.215 
19 *449:129 *449:138 2 
20 *449:138 *449:145 3.635 
21 *449:145 *449:147 1.6125 
22 *449:147 *4607:A 3.5725 
23 *449:145 *449:177 20.5675 
24 *449:177 *449:181 1.3125 
25 *449:181 *449:183 2 
26 *449:183 *449:192 6.93125 
27 *449:192 *4608:A 2.78875 
28 *449:181 *4609:A 1.6 
29 *4602:X *449:215 4.395 
30 *449:215 *449:222 18.17 
31 *449:222 *449:226 25.91 
32 *449:226 *449:228 2.4 
33 *449:228 *449:232 2 
34 *449:232 *4612:A 1.6 
35 *449:232 *449:241 3.14 
36 *449:241 *449:246 6.48 
37 *449:246 *4611:A 3.6 
38 *449:226 *449:266 21.89 
39 *449:266 *449:270 1.095 
40 *449:270 *4603:A 2.05 
41 *449:270 *449:279 2 
42 *449:279 *449:284 1.635 
43 *449:284 *4610:A 3.6 
44 *449:222 *449:296 4.59 
45 *449:296 *449:300 6.95 
46 *449:300 *4617:A 4.395 
47 *449:296 *449:322 7.065 
48 *449:322 *449:326 1.23 
49 *449:326 *4618:A 1.6 
50 *449:326 *449:335 2.1825 
51 *449:335 *449:340 11.25 
52 *449:340 *449:346 1.8225 
53 *449:346 *4604:A 1.6 
54 *449:346 *449:353 1.45125 
55 *449:353 *449:362 4.46375 
56 *449:362 *4605:A 3.6 
*END

*D_NET *450 0.003675
*CONN
*I *4619:A I *D sky130_fd_sc_hd__clkbuf_16
*I *4630:A I *D sky130_fd_sc_hd__clkbuf_16
*I *4603:X O *D sky130_fd_sc_hd__clkbuf_8
*CAP
1 *4619:A 2.44059e-05
2 *4630:A 0.000280319
3 *4603:X 0.000560636
4 *450:10 0.000865361
5 *4619:A *4248:A1 8.40213e-05
6 *4619:A *677:33 4.66742e-05
7 *4630:A *4007:A 0.000162318
8 *4630:A *4235:B1 4.92062e-05
9 *4630:A *4240:A1 0
10 *4630:A *4240:B1 0.000443492
11 *4630:A *4245:B1 2.14129e-05
12 *450:10 *4007:A 0.000172845
13 *450:10 *4245:A1 0.000199062
14 *450:10 *4245:B1 0.000202095
15 *450:10 *4246:A2 0
16 *450:10 *4524:CLK 0
17 *450:10 *4524:D 0
18 *450:10 *491:18 0
19 *450:10 *876:16 0
20 *4242:A *450:10 0.000498395
21 *220:38 *4630:A 6.47594e-05
*RES
1 *4603:X *450:10 16.485 
2 *450:10 *4630:A 10.215 
3 *450:10 *4619:A 4.395 
*END

*D_NET *451 0.00383387
*CONN
*I *4632:A I *D sky130_fd_sc_hd__clkbuf_16
*I *4631:A I *D sky130_fd_sc_hd__clkbuf_16
*I *4604:X O *D sky130_fd_sc_hd__clkbuf_8
*CAP
1 *4632:A 1.71225e-05
2 *4631:A 0.00027747
3 *4604:X 0.000567282
4 *451:8 0.000861874
5 *4631:A *4150:A1 0.000354725
6 *4631:A *4573:CLK 0
7 *4631:A *478:8 0.000209233
8 *4631:A *478:10 0
9 *4631:A *478:54 0
10 *4631:A *697:12 0.000133528
11 *4631:A *697:18 7.63204e-05
12 *4632:A *658:36 8.65905e-05
13 *451:8 *4147:B1 0.000138551
14 *451:8 *4572:RESET_B 0.000147177
15 *451:8 *4573:CLK 0
16 *451:8 *531:32 0
17 *451:8 *531:46 0.000292059
18 *451:8 *660:14 0
19 *451:8 *697:10 4.82117e-05
20 *451:8 *697:12 6.02202e-05
21 *451:8 *791:14 0.000448214
22 *254:8 *451:8 0
23 *254:14 *451:8 0
24 *256:25 *4632:A 5.05437e-05
25 *449:362 *451:8 6.47516e-05
*RES
1 *4604:X *451:8 17.22 
2 *451:8 *4631:A 11.25 
3 *451:8 *4632:A 4.395 
*END

*D_NET *452 0.0046643
*CONN
*I *4633:A I *D sky130_fd_sc_hd__clkbuf_16
*I *4634:A I *D sky130_fd_sc_hd__clkbuf_16
*I *4605:X O *D sky130_fd_sc_hd__clkbuf_8
*CAP
1 *4633:A 0.000448177
2 *4634:A 2.62833e-05
3 *4605:X 0.000807322
4 *452:14 0.00128178
5 *4633:A *4477:CLK 2.05056e-05
6 *4633:A *4566:RESET_B 4.66108e-05
7 *4633:A *4568:D 0.000310424
8 *4633:A *4718:A 0.00042018
9 *4633:A *481:53 0.000198216
10 *452:14 *4124:B1 3.50033e-05
11 *452:14 *4563:D 7.06865e-05
12 *452:14 *4564:CLK 1.83847e-05
13 *452:14 *481:20 0.000144444
14 *452:14 *481:53 0.000116636
15 *4038:B *4634:A 8.65961e-05
16 *4134:A *4633:A 0.000284216
17 *251:10 *452:14 0
18 *251:19 *452:14 0
19 *251:32 *4633:A 0
20 *253:12 *4633:A 0.000330448
21 *253:12 *4634:A 1.83847e-05
*RES
1 *4605:X *452:14 15.495 
2 *452:14 *4634:A 4.395 
3 *452:14 *4633:A 15.855 
*END

*D_NET *453 0.00308078
*CONN
*I *4636:A I *D sky130_fd_sc_hd__clkbuf_16
*I *4635:A I *D sky130_fd_sc_hd__clkbuf_16
*I *4606:X O *D sky130_fd_sc_hd__clkbuf_8
*CAP
1 *4636:A 0.000454503
2 *4635:A 0.000138117
3 *4606:X 0.000461928
4 *453:8 0.00105455
5 *4635:A *3952:B1 0.000119247
6 *4635:A *521:22 0.000112103
7 *4636:A *3853:B 0.000112233
8 *4636:A *3950:A1 0.000102285
9 *4636:A *528:47 2.58336e-05
10 *453:8 *4415:RESET_B 0.000129257
11 *453:8 *520:12 7.03276e-05
12 *453:8 *521:10 5.68786e-05
13 *453:8 *521:22 2.07338e-05
14 *3860:A2 *4635:A 0
15 *3860:A2 *4636:A 0.00017618
16 *100:14 *4636:A 4.66108e-05
*RES
1 *4606:X *453:8 11.865 
2 *453:8 *4635:A 6.12 
3 *453:8 *4636:A 11.295 
*END

*D_NET *454 0.00217231
*CONN
*I *4638:A I *D sky130_fd_sc_hd__clkbuf_16
*I *4637:A I *D sky130_fd_sc_hd__clkbuf_16
*I *4607:X O *D sky130_fd_sc_hd__clkbuf_8
*CAP
1 *4638:A 0.000148901
2 *4637:A 8.12509e-05
3 *4607:X 0.000647277
4 *454:8 0.000877429
5 *4638:A *4596:RESET_B 3.39426e-05
6 *4638:A *485:10 0
7 *454:8 *4443:CLK 0
8 *454:8 *485:12 0
9 *4394:B1 *454:8 0
10 *4440:D *454:8 0.000205546
11 *4441:D *4637:A 1.56428e-05
12 *4441:D *454:8 0.000162318
13 *4442:D *454:8 0
*RES
1 *4607:X *454:8 15.69 
2 *454:8 *4637:A 4.74 
3 *454:8 *4638:A 6.03 
*END

*D_NET *455 0.00407882
*CONN
*I *4640:A I *D sky130_fd_sc_hd__clkbuf_16
*I *4639:A I *D sky130_fd_sc_hd__clkbuf_16
*I *4608:X O *D sky130_fd_sc_hd__clkbuf_8
*CAP
1 *4640:A 0.000662112
2 *4639:A 0.000247137
3 *4608:X 0.000138276
4 *455:6 0.00104753
5 *4639:A *4779:A 0.000226081
6 *4639:A *716:22 9.3062e-06
7 *4639:A *1024:44 0
8 *4639:A *1025:34 0.000278799
9 *4640:A *3888:A1 0.00030432
10 *4640:A *3888:B2 1.0397e-05
11 *4640:A *4779:A 4.66108e-05
12 *4640:A *1022:31 0.000177494
13 *4640:A *1024:29 0.000263558
14 *4389:A1_N *4639:A 0.000180682
15 *113:21 *4640:A 0
16 *118:14 *4640:A 0
17 *126:10 *4639:A 0.000486523
*RES
1 *4608:X *455:6 3.43 
2 *455:6 *4639:A 13.355 
3 *455:6 *4640:A 19.34 
*END

*D_NET *456 0.0024033
*CONN
*I *4642:A I *D sky130_fd_sc_hd__clkbuf_16
*I *4643:A I *D sky130_fd_sc_hd__clkbuf_16
*I *4609:X O *D sky130_fd_sc_hd__clkbuf_8
*CAP
1 *4642:A 0.000119605
2 *4643:A 0
3 *4609:X 0.000281711
4 *456:12 0.000401317
5 *4642:A *4390:A1 7.66083e-05
6 *4642:A *715:75 0
7 *4642:A *716:52 0.000231564
8 *456:12 *3887:B2 0.000203769
9 *456:12 *4368:A1 5.33874e-05
10 *456:12 *4390:A1 0.000160641
11 *456:12 *715:10 9.37731e-05
12 *456:12 *715:75 0.000381337
13 *4368:A2 *456:12 0
14 *4390:B1 *456:12 8.65905e-05
15 *123:67 *456:12 0
16 *431:10 *4642:A 1.0183e-05
17 *431:10 *456:12 0.000172973
18 *431:21 *4642:A 8.65905e-05
19 *431:21 *456:12 3.74161e-05
20 *443:6 *456:12 5.83121e-06
*RES
1 *4609:X *456:12 14.84 
2 *456:12 *4643:A 1.6 
3 *456:12 *4642:A 9.05 
*END

*D_NET *457 0.00324529
*CONN
*I *4644:A I *D sky130_fd_sc_hd__clkbuf_16
*I *4641:A I *D sky130_fd_sc_hd__clkbuf_16
*I *4610:X O *D sky130_fd_sc_hd__clkbuf_8
*CAP
1 *4644:A 0.000406931
2 *4641:A 0
3 *4610:X 0.000273651
4 *457:10 0.000680582
5 *4644:A *3981:A 0.0001249
6 *4644:A *3982:A 8.34426e-05
7 *4644:A *4418:CLK 3.54536e-05
8 *4644:A *4418:RESET_B 0.000422941
9 *4644:A *4847:A 0.000352447
10 *4644:A *491:6 3.23663e-05
11 *4644:A *491:14 0.00021992
12 *4644:A *491:16 0
13 *457:10 *3982:A 0.000119285
14 *457:10 *3982:B 1.44259e-05
15 *457:10 *4243:B1 5.0751e-05
16 *457:10 *4245:A1 4.05674e-06
17 *457:10 *488:67 0
18 *457:10 *491:16 0
19 *457:10 *491:18 0
20 *457:10 *586:6 2.04648e-05
21 *4242:A *457:10 0.000141606
22 *4243:A2 *457:10 5.2089e-05
23 *4418:D *4644:A 0.000115891
24 *198:8 *4644:A 9.4087e-05
*RES
1 *4610:X *457:10 9.615 
2 *457:10 *4641:A 3.6 
3 *457:10 *4644:A 16.995 
*END

*D_NET *458 0.0023324
*CONN
*I *4646:A I *D sky130_fd_sc_hd__clkbuf_16
*I *4645:A I *D sky130_fd_sc_hd__clkbuf_16
*I *4611:X O *D sky130_fd_sc_hd__clkbuf_8
*CAP
1 *4646:A 6.69828e-05
2 *4645:A 0.000242636
3 *4611:X 0.000635947
4 *458:12 0.000945566
5 *4645:A *4168:A1 0
6 *4645:A *4535:RESET_B 2.92496e-05
7 *4645:A *4683:A 0
8 *4645:A *879:10 5.21627e-05
9 *4646:A *4535:RESET_B 3.57349e-05
10 *4646:A *880:10 5.83121e-06
11 *458:12 *4009:C 0
12 *458:12 *4535:RESET_B 0.000154806
13 *458:12 *4683:A 5.51245e-05
14 *458:12 *679:12 0
15 *458:12 *682:14 8.08439e-05
16 *458:12 *879:10 0
17 *458:12 *880:10 2.75145e-05
18 *4168:A2 *4645:A 0
19 *225:20 *458:12 0
*RES
1 *4611:X *458:12 16.565 
2 *458:12 *4645:A 10.04 
3 *458:12 *4646:A 2.755 
*END

*D_NET *459 0.00261199
*CONN
*I *4648:A I *D sky130_fd_sc_hd__clkbuf_16
*I *4647:A I *D sky130_fd_sc_hd__clkbuf_16
*I *4612:X O *D sky130_fd_sc_hd__clkbuf_8
*CAP
1 *4648:A 0.000558711
2 *4647:A 0.00017357
3 *4612:X 0.000264006
4 *459:12 0.000996288
5 *4648:A *3862:B 4.65607e-05
6 *4648:A *4652:A 5.05437e-05
7 *4648:A *495:6 8.30487e-05
8 *4648:A *669:50 5.41776e-05
9 *459:12 *681:63 0
10 *3:16 *459:12 0.000269616
11 *106:10 *459:12 0.000115464
12 *449:228 *459:12 0
*RES
1 *4612:X *459:12 11.0825 
2 *459:12 *4647:A 3.9625 
3 *459:12 *4648:A 8.4475 
*END

*D_NET *460 0.00167218
*CONN
*I *4650:A I *D sky130_fd_sc_hd__clkbuf_16
*I *4649:A I *D sky130_fd_sc_hd__clkbuf_16
*I *4613:X O *D sky130_fd_sc_hd__clkbuf_8
*CAP
1 *4650:A 8.81484e-05
2 *4649:A 0.000561878
3 *4613:X 0.000650026
4 *4649:A *3899:A 0.000151749
5 *4649:A *4067:A 0.000110691
6 *4649:A *510:8 1.21329e-05
7 *4650:A *4843:A 2.69153e-05
8 *3900:C *4649:A 2.75229e-05
9 *142:14 *4650:A 3.64998e-06
10 *142:20 *4650:A 3.94628e-05
*RES
1 *4613:X *4649:A 16.5 
2 *4613:X *4650:A 4.685 
*END

*D_NET *461 0.00314797
*CONN
*I *4621:A I *D sky130_fd_sc_hd__clkbuf_16
*I *4620:A I *D sky130_fd_sc_hd__clkbuf_16
*I *4614:X O *D sky130_fd_sc_hd__clkbuf_8
*CAP
1 *4621:A 0.000114691
2 *4620:A 9.87187e-05
3 *4614:X 0.000657074
4 *461:20 0.000870484
5 *4620:A *692:18 7.47457e-05
6 *4621:A *3996:B 0.000205435
7 *4621:A *4505:RESET_B 0.000109995
8 *4621:A *4703:A 0.000225175
9 *4621:A *642:28 7.07879e-05
10 *461:20 *3908:B 8.09092e-05
11 *461:20 *4049:A 6.02202e-05
12 *461:20 *4735:A 0.000289504
13 *461:20 *4748:A 0
14 *461:20 *4754:A 0.000158254
15 *461:20 *684:8 1.44177e-05
16 *461:20 *692:18 8.87196e-05
17 *4048:B *461:20 0
18 *449:94 *461:20 2.88357e-05
*RES
1 *4614:X *461:20 19.73 
2 *461:20 *4620:A 3.43 
3 *461:20 *4621:A 9.53 
*END

*D_NET *462 0.00289646
*CONN
*I *4623:A I *D sky130_fd_sc_hd__clkbuf_16
*I *4622:A I *D sky130_fd_sc_hd__clkbuf_16
*I *4615:X O *D sky130_fd_sc_hd__clkbuf_8
*CAP
1 *4623:A 0.000569108
2 *4622:A 0.00047559
3 *4615:X 0
4 *462:4 0.0010447
5 *4622:A *3893:A1 9.91348e-05
6 *4622:A *3893:B1 0.000196622
7 *4622:A *4061:A 2.75229e-05
8 *4622:A *4416:RESET_B 4.2534e-05
9 *4623:A *4061:A 5.30673e-05
10 *4623:A *4462:D 2.99026e-05
11 *4623:A *4759:A 0.000121039
12 *4055:B *4622:A 0
13 *4056:B *4623:A 2.01934e-05
14 *4460:D *4622:A 0
15 *4745:A *4623:A 4.66108e-05
16 *449:39 *4622:A 2.69217e-05
17 *449:39 *4623:A 0.00014352
*RES
1 *4615:X *462:4 1.6 
2 *462:4 *4622:A 14.57 
3 *462:4 *4623:A 11.38 
*END

*D_NET *463 0.00232097
*CONN
*I *4624:A I *D sky130_fd_sc_hd__clkbuf_16
*I *4625:A I *D sky130_fd_sc_hd__clkbuf_16
*I *4616:X O *D sky130_fd_sc_hd__clkbuf_8
*CAP
1 *4624:A 0.000104019
2 *4625:A 0.000102407
3 *4616:X 0.00058835
4 *463:8 0.000794777
5 *4624:A *4323:B1 0
6 *4624:A *4707:A 0
7 *4624:A *690:29 0
8 *4624:A *962:8 0
9 *463:8 *3902:A 0.000163019
10 *463:8 *3902:B 0.000249921
11 *463:8 *4323:B1 0
12 *463:8 *4466:RESET_B 0
13 *463:8 *4583:CLK 0
14 *463:8 *4841:A 0.000223727
15 *463:8 *690:29 0
16 *463:8 *691:19 0
17 *3904:B *463:8 9.47454e-05
18 *3962:B *463:8 0
*RES
1 *4616:X *463:8 15.69 
2 *463:8 *4625:A 5.085 
3 *463:8 *4624:A 5.235 
*END

*D_NET *464 0.00293569
*CONN
*I *4627:A I *D sky130_fd_sc_hd__clkbuf_16
*I *4626:A I *D sky130_fd_sc_hd__clkbuf_16
*I *4617:X O *D sky130_fd_sc_hd__clkbuf_8
*CAP
1 *4627:A 0.000522327
2 *4626:A 1.83389e-05
3 *4617:X 0.000571754
4 *464:10 0.00111242
5 *4626:A *564:20 0
6 *4627:A *4199:B1 0.00015486
7 *4627:A *4549:D 7.89689e-05
8 *4627:A *474:6 2.80988e-05
9 *464:10 *3844:A 5.87532e-05
10 *464:10 *4550:CLK 5.06989e-05
11 *464:10 *4550:D 8.42161e-05
12 *464:10 *4551:D 0
13 *464:10 *4660:A 0
14 *464:10 *564:14 7.09999e-05
15 *464:10 *564:20 0
16 *4199:A2 *4627:A 1.07563e-05
17 *4201:A2 *4627:A 4.18603e-06
18 *4202:B *4627:A 0
19 *4202:B *464:10 0
20 *4203:A2 *464:10 0.000169309
*RES
1 *4617:X *464:10 14.2425 
2 *464:10 *4626:A 4.0875 
3 *464:10 *4627:A 12.5175 
*END

*D_NET *465 0.00542033
*CONN
*I *4629:A I *D sky130_fd_sc_hd__clkbuf_16
*I *4628:A I *D sky130_fd_sc_hd__clkbuf_16
*I *4618:X O *D sky130_fd_sc_hd__clkbuf_8
*CAP
1 *4629:A 0.000908264
2 *4628:A 0.00012357
3 *4618:X 0.000201495
4 *465:12 0.00123333
5 *4629:A *4204:A1 2.7228e-05
6 *4629:A *4204:B1 8.40213e-05
7 *4629:A *4357:C_N 0.000196052
8 *4629:A *4358:B2 5.21638e-05
9 *4629:A *4570:CLK 0.000665171
10 *4629:A *476:12 4.10476e-05
11 *4629:A *476:34 0.000438023
12 *4629:A *476:36 6.21553e-05
13 *4629:A *695:26 0
14 *4204:A2 *4629:A 0.000130563
15 *4358:A2 *4629:A 9.39388e-06
16 *4358:B1 *4629:A 0.00117448
17 *449:322 *465:12 7.33728e-05
*RES
1 *4618:X *465:12 9.14 
2 *465:12 *4628:A 3.085 
3 *465:12 *4629:A 29.435 
*END

*D_NET *466 0.00643606
*CONN
*I *4490:CLK I *D sky130_fd_sc_hd__dfrtp_2
*I *4489:CLK I *D sky130_fd_sc_hd__dfrtp_2
*I *4488:CLK I *D sky130_fd_sc_hd__dfrtp_2
*I *4487:CLK I *D sky130_fd_sc_hd__dfrtp_2
*I *4518:CLK I *D sky130_fd_sc_hd__dfrtp_2
*I *4517:CLK I *D sky130_fd_sc_hd__dfrtp_2
*I *4516:CLK I *D sky130_fd_sc_hd__dfrtp_2
*I *4619:X O *D sky130_fd_sc_hd__clkbuf_16
*CAP
1 *4490:CLK 0.00029393
2 *4489:CLK 0
3 *4488:CLK 7.91272e-05
4 *4487:CLK 3.39263e-05
5 *4518:CLK 0.000151413
6 *4517:CLK 3.39263e-05
7 *4516:CLK 0.000532267
8 *4619:X 0.000322569
9 *466:69 0.000420416
10 *466:58 0.000345269
11 *466:14 0.000704244
12 *466:12 0.000684184
13 *466:10 0.000706862
14 *466:8 0.000740441
15 *4488:CLK *4488:D 8.46717e-05
16 *466:8 *4265:A 0.000106094
17 *466:8 *4265:B 6.80182e-05
18 *466:8 *4694:A 0.000143814
19 *466:8 *619:56 8.53224e-05
20 *466:8 *674:10 0.000114852
21 *466:12 *3998:A 0
22 *466:58 *4266:B1 1.05476e-05
23 *466:69 *4266:B1 3.79606e-05
24 *4266:A1 *4488:CLK 4.21579e-05
25 *4266:A2 *466:8 0.000114858
26 *4266:A2 *466:58 6.38978e-05
27 *4268:A1 *466:8 0.000425273
28 *4268:A2 *466:8 7.08554e-05
29 *4270:A2 *466:8 1.91597e-05
*RES
1 *4619:X *466:8 13.365 
2 *466:8 *466:10 4.44 
3 *466:10 *466:12 6.225 
4 *466:12 *466:14 2.145 
5 *466:14 *4516:CLK 12.06 
6 *466:14 *4517:CLK 4.05 
7 *466:12 *4518:CLK 5.775 
8 *466:10 *4487:CLK 4.05 
9 *466:8 *466:58 2.7 
10 *466:58 *4488:CLK 5.085 
11 *466:58 *466:69 1.89 
12 *466:69 *4489:CLK 3.6 
13 *466:69 *4490:CLK 8.13 
*END

*D_NET *467 0.00689667
*CONN
*I *4501:CLK I *D sky130_fd_sc_hd__dfrtp_2
*I *4456:CLK I *D sky130_fd_sc_hd__dfrtp_2
*I *4503:CLK I *D sky130_fd_sc_hd__dfrtp_2
*I *4502:CLK I *D sky130_fd_sc_hd__dfrtp_2
*I *4454:CLK I *D sky130_fd_sc_hd__dfrtp_2
*I *4500:CLK I *D sky130_fd_sc_hd__dfrtp_2
*I *4620:X O *D sky130_fd_sc_hd__clkbuf_16
*CAP
1 *4501:CLK 5.25463e-05
2 *4456:CLK 0.000175791
3 *4503:CLK 0.00051382
4 *4502:CLK 3.39263e-05
5 *4454:CLK 7.69642e-05
6 *4500:CLK 0.000403018
7 *4620:X 0.000136072
8 *467:46 0.000900887
9 *467:44 0.000683742
10 *467:31 0.000289037
11 *467:16 0.00127176
12 *467:12 0.0010001
13 *4454:CLK *4454:D 2.75145e-05
14 *4456:CLK *4501:D 4.78678e-05
15 *4456:CLK *630:44 6.18325e-06
16 *4500:CLK *4291:A 9.24825e-05
17 *4500:CLK *4500:D 8.70122e-05
18 *4503:CLK *4296:B1 4.89295e-05
19 *4503:CLK *4503:D 8.64421e-05
20 *467:12 *4501:D 0
21 *467:12 *692:10 0
22 *467:16 *3991:A 6.71744e-05
23 *467:16 *3991:C 1.52352e-05
24 *467:44 *4454:D 0.00015009
25 *467:46 *4454:D 9.74694e-05
26 *3991:D *467:16 6.80075e-05
27 *4290:A2 *4500:CLK 3.79606e-05
28 *4291:B *4500:CLK 7.27003e-05
29 *4292:A2 *4500:CLK 0.000165486
30 *4292:A2 *467:31 4.65643e-05
31 *4292:A2 *467:44 4.74383e-05
32 *4294:A1 *4503:CLK 5.97443e-05
33 *207:12 *4500:CLK 5.02929e-05
34 *208:14 *467:16 2.50123e-05
35 *208:24 *4456:CLK 5.93889e-05
*RES
1 *4620:X *467:12 7.52 
2 *467:12 *467:16 11.42 
3 *467:16 *4500:CLK 11.955 
4 *467:16 *467:31 1.125 
5 *467:31 *4454:CLK 4.755 
6 *467:31 *467:44 2.7825 
7 *467:44 *467:46 6.0975 
8 *467:46 *4502:CLK 4.05 
9 *467:46 *4503:CLK 12.21 
10 *467:44 *4456:CLK 6.4575 
11 *467:12 *4501:CLK 2.77 
*END

*D_NET *468 0.00737407
*CONN
*I *4505:CLK I *D sky130_fd_sc_hd__dfrtp_2
*I *4507:CLK I *D sky130_fd_sc_hd__dfrtp_2
*I *4508:CLK I *D sky130_fd_sc_hd__dfrtp_2
*I *4504:CLK I *D sky130_fd_sc_hd__dfrtp_2
*I *4506:CLK I *D sky130_fd_sc_hd__dfrtp_2
*I *4457:CLK I *D sky130_fd_sc_hd__dfrtp_2
*I *4621:X O *D sky130_fd_sc_hd__clkbuf_16
*CAP
1 *4505:CLK 0
2 *4507:CLK 0
3 *4508:CLK 0.000319335
4 *4504:CLK 0.000434026
5 *4506:CLK 7.56803e-05
6 *4457:CLK 0.000775563
7 *4621:X 6.10483e-05
8 *468:54 0.000913853
9 *468:50 0.000228734
10 *468:37 0.000540873
11 *468:25 0.000560586
12 *468:8 0.00100025
13 *4457:CLK *3908:C 0
14 *4457:CLK *4465:CLK 0
15 *4457:CLK *4748:A 0
16 *4457:CLK *666:81 0
17 *4457:CLK *672:89 0.000181006
18 *4457:CLK *929:12 5.72091e-05
19 *4506:CLK *3995:A 2.75145e-05
20 *4506:CLK *4300:A 8.34281e-06
21 *4506:CLK *4506:D 6.83659e-05
22 *4506:CLK *642:18 5.83121e-06
23 *4508:CLK *4299:A 0
24 *4508:CLK *4508:D 3.89528e-05
25 *4508:CLK *4667:A 0.00011741
26 *468:25 *4465:CLK 0
27 *468:25 *471:51 0
28 *468:25 *929:12 8.14111e-05
29 *468:37 *3995:A 9.02174e-05
30 *468:37 *4709:A 0.000192125
31 *468:37 *471:51 0
32 *468:37 *642:18 0.000227457
33 *468:37 *927:6 0.000273915
34 *468:37 *929:12 0.000229203
35 *468:50 *3995:A 0.000112123
36 *468:50 *4299:A 4.31106e-05
37 *468:50 *926:34 0.000114492
38 *468:54 *3995:A 8.23457e-05
39 *468:54 *3995:B 8.23457e-05
40 *3996:D *468:50 2.50049e-05
41 *4047:A *4457:CLK 7.58382e-05
42 *4304:B *468:54 2.04648e-05
43 *4306:B *4508:CLK 0
44 *4466:D *4457:CLK 0
45 *142:14 *4457:CLK 8.87304e-05
46 *211:42 *4508:CLK 3.05373e-05
47 *211:42 *468:54 4.21973e-05
48 *402:10 *4508:CLK 0
49 *449:67 *4457:CLK 5.07048e-05
50 *449:71 *4457:CLK 9.05385e-05
51 *449:73 *4457:CLK 6.72833e-06
*RES
1 *4621:X *468:8 4.395 
2 *468:8 *4457:CLK 17.955 
3 *468:8 *468:25 5.195 
4 *468:25 *468:37 14.125 
5 *468:37 *4506:CLK 3.085 
6 *468:37 *468:50 5.89 
7 *468:50 *468:54 2.88 
8 *468:54 *4504:CLK 7.585 
9 *468:54 *4508:CLK 12.08 
10 *468:50 *4507:CLK 1.6 
11 *468:25 *4505:CLK 1.6 
*END

*D_NET *469 0.00479559
*CONN
*I *4459:CLK I *D sky130_fd_sc_hd__dfrtp_2
*I *4583:CLK I *D sky130_fd_sc_hd__dfrtp_2
*I *4460:CLK I *D sky130_fd_sc_hd__dfrtp_2
*I *4458:CLK I *D sky130_fd_sc_hd__dfrtp_2
*I *4416:CLK I *D sky130_fd_sc_hd__dfrtp_2
*I *4420:CLK I *D sky130_fd_sc_hd__dfrtp_2
*I *4622:X O *D sky130_fd_sc_hd__clkbuf_16
*CAP
1 *4459:CLK 0
2 *4583:CLK 0.000572172
3 *4460:CLK 0
4 *4458:CLK 0.000187484
5 *4416:CLK 0
6 *4420:CLK 0.000108249
7 *4622:X 0.000249427
8 *469:44 0.000187484
9 *469:42 0.000701551
10 *469:36 0.000425501
11 *469:10 0.000435398
12 *469:8 0.000872697
13 *4420:CLK *4470:RESET_B 2.11084e-05
14 *4420:CLK *671:16 6.73751e-05
15 *4420:CLK *758:12 0
16 *4583:CLK *3902:B 0
17 *4583:CLK *4061:A 0
18 *4583:CLK *4841:A 0
19 *469:8 *668:29 0.000132273
20 *469:8 *668:31 5.83121e-06
21 *469:10 *4416:D 5.13155e-05
22 *469:10 *4416:RESET_B 0
23 *469:10 *4687:A 0
24 *469:10 *671:12 0
25 *469:10 *671:16 4.58014e-05
26 *469:10 *758:12 0
27 *469:36 *3893:A1 6.5291e-05
28 *469:36 *4459:RESET_B 8.52972e-05
29 *469:42 *4459:RESET_B 2.21074e-05
30 *3904:B *4583:CLK 0
31 *3962:B *4583:CLK 0
32 *4323:A1 *4583:CLK 0
33 *4459:D *4583:CLK 0.000281655
34 *4459:D *469:36 2.1742e-05
35 *4459:D *469:42 0.0001533
36 *4460:D *4583:CLK 0.000102536
37 *261:12 *4420:CLK 0
38 *261:12 *469:10 0
39 *265:12 *4583:CLK 0
40 *463:8 *4583:CLK 0
*RES
1 *4622:X *469:8 6.81 
2 *469:8 *469:10 5.715 
3 *469:10 *4420:CLK 5.94 
4 *469:10 *4416:CLK 3.6 
5 *469:8 *469:36 7.595 
6 *469:36 *469:42 4.85 
7 *469:42 *469:44 2 
8 *469:44 *4458:CLK 4.12 
9 *469:44 *4460:CLK 1.6 
10 *469:42 *4583:CLK 13.65 
11 *469:36 *4459:CLK 1.6 
*END

*D_NET *470 0.00767554
*CONN
*I *4587:CLK I *D sky130_fd_sc_hd__dfrtp_2
*I *4584:CLK I *D sky130_fd_sc_hd__dfrtp_2
*I *4462:CLK I *D sky130_fd_sc_hd__dfrtp_2
*I *4461:CLK I *D sky130_fd_sc_hd__dfrtp_2
*I *4474:CLK I *D sky130_fd_sc_hd__dfrtp_2
*I *4475:CLK I *D sky130_fd_sc_hd__dfrtp_2
*I *4623:X O *D sky130_fd_sc_hd__clkbuf_16
*CAP
1 *4587:CLK 0
2 *4584:CLK 6.40339e-05
3 *4462:CLK 0.000155401
4 *4461:CLK 5.5936e-05
5 *4474:CLK 0
6 *4475:CLK 0.000271065
7 *4623:X 0.000364181
8 *470:64 0.000811126
9 *470:20 0.000734073
10 *470:18 0.000952168
11 *470:12 0.000715386
12 *470:8 0.00123804
13 *4462:CLK *4462:D 1.34687e-05
14 *4462:CLK *687:24 1.24065e-05
15 *4475:CLK *3910:D 0.000120186
16 *4475:CLK *4353:B1 1.08758e-05
17 *4475:CLK *4740:A 0.000369676
18 *4584:CLK *4587:RESET_B 6.96579e-05
19 *470:12 *4462:D 4.58691e-05
20 *470:18 *4462:D 2.53645e-05
21 *470:18 *4462:RESET_B 1.37141e-05
22 *470:18 *509:10 0.000167973
23 *470:18 *687:24 3.06569e-06
24 *470:20 *3910:D 0.000364392
25 *470:64 *4058:A1 0
26 *470:64 *4058:B1 0
27 *470:64 *4587:D 2.77183e-05
28 *470:64 *4587:RESET_B 1.36454e-05
29 *470:64 *4706:A 0
30 *470:64 *648:30 0.000173973
31 *470:64 *687:10 6.56563e-05
32 *3968:B *470:64 0
33 *4058:A3 *470:18 0.000128981
34 *4058:A3 *470:20 0.000182427
35 *4059:B1 *470:64 0
36 *4461:D *470:18 2.41231e-05
37 *4474:D *4475:CLK 0.000136909
38 *4474:D *470:20 4.18603e-06
39 *264:8 *470:20 0.000172194
40 *449:39 *470:8 0.000131397
41 *449:39 *470:64 3.62776e-05
*RES
1 *4623:X *470:8 8.19 
2 *470:8 *470:12 4.145 
3 *470:12 *470:18 8.225 
4 *470:18 *470:20 10.305 
5 *470:20 *4475:CLK 10.395 
6 *470:20 *4474:CLK 3.6 
7 *470:18 *4461:CLK 4.395 
8 *470:12 *4462:CLK 3.7 
9 *470:8 *470:64 14.75 
10 *470:64 *4584:CLK 3.085 
11 *470:64 *4587:CLK 1.6 
*END

*D_NET *471 0.00393534
*CONN
*I *4575:CLK I *D sky130_fd_sc_hd__dfrtp_2
*I *4466:CLK I *D sky130_fd_sc_hd__dfrtp_2
*I *4465:CLK I *D sky130_fd_sc_hd__dfrtp_2
*I *4576:CLK I *D sky130_fd_sc_hd__dfrtp_2
*I *4578:CLK I *D sky130_fd_sc_hd__dfrtp_2
*I *4577:CLK I *D sky130_fd_sc_hd__dfrtp_2
*I *4624:X O *D sky130_fd_sc_hd__clkbuf_16
*CAP
1 *4575:CLK 0
2 *4466:CLK 0
3 *4465:CLK 0.000181332
4 *4576:CLK 4.90777e-05
5 *4578:CLK 0.000118647
6 *4577:CLK 3.73411e-05
7 *4624:X 0.000121009
8 *471:51 0.000588444
9 *471:45 0.000535705
10 *471:23 0.000230263
11 *471:12 0.000520477
12 *471:6 0.0006702
13 *4465:CLK *4051:B1 0
14 *4576:CLK *4313:B1 0
15 *4576:CLK *4576:D 5.92849e-05
16 *4578:CLK *4576:D 4.99619e-05
17 *471:12 *647:43 8.76986e-05
18 *471:23 *4309:B1 5.08304e-06
19 *471:23 *4313:B1 0
20 *471:23 *647:43 5.9339e-05
21 *471:45 *4575:D 0
22 *471:51 *4051:B1 0
23 *471:51 *4575:D 0
24 *471:51 *929:12 0
25 *4309:A2 *471:12 0.000194596
26 *4309:A2 *471:23 2.13396e-05
27 *4457:CLK *4465:CLK 0
28 *4466:D *4465:CLK 4.7043e-05
29 *174:14 *4577:CLK 5.05521e-05
30 *174:14 *471:23 0.00011852
31 *174:27 *4576:CLK 0.000156842
32 *174:27 *471:23 3.25831e-05
33 *468:25 *4465:CLK 0
34 *468:25 *471:51 0
35 *468:37 *471:51 0
*RES
1 *4624:X *471:6 3.43 
2 *471:6 *471:12 10.4 
3 *471:12 *4577:CLK 4.395 
4 *471:12 *471:23 2.145 
5 *471:23 *4578:CLK 5.43 
6 *471:23 *4576:CLK 5.49 
7 *471:6 *471:45 4.145 
8 *471:45 *471:51 6.78 
9 *471:51 *4465:CLK 6.645 
10 *471:51 *4466:CLK 3.6 
11 *471:45 *4575:CLK 3.6 
*END

*D_NET *472 0.00572652
*CONN
*I *4580:CLK I *D sky130_fd_sc_hd__dfrtp_2
*I *4579:CLK I *D sky130_fd_sc_hd__dfrtp_2
*I *4581:CLK I *D sky130_fd_sc_hd__dfrtp_2
*I *4586:CLK I *D sky130_fd_sc_hd__dfrtp_2
*I *4585:CLK I *D sky130_fd_sc_hd__dfrtp_2
*I *4582:CLK I *D sky130_fd_sc_hd__dfrtp_2
*I *4625:X O *D sky130_fd_sc_hd__clkbuf_16
*CAP
1 *4580:CLK 5.25463e-05
2 *4579:CLK 0.000305633
3 *4581:CLK 0
4 *4586:CLK 0
5 *4585:CLK 5.70574e-05
6 *4582:CLK 0.000116932
7 *4625:X 0.000820182
8 *472:56 0.000520621
9 *472:50 0.0011508
10 *472:41 0.000986085
11 *472:28 0.000863126
12 *4579:CLK *4669:A 3.00381e-05
13 *4579:CLK *647:10 5.05521e-05
14 *4582:CLK *4325:B1 6.5525e-05
15 *4582:CLK *981:10 7.23602e-05
16 *4585:CLK *4585:RESET_B 5.0751e-05
17 *472:28 *3959:A 0.000103192
18 *472:28 *4585:D 0
19 *472:28 *648:41 0
20 *472:41 *3959:A 9.74604e-05
21 *472:41 *648:41 0
22 *472:41 *978:10 5.53249e-06
23 *472:50 *4580:D 9.23117e-06
24 *472:50 *4580:RESET_B 1.83756e-05
25 *472:56 *647:10 0
26 *472:56 *647:14 0
27 *4314:B *472:50 4.47209e-05
28 *4315:A2 *472:50 0.000118081
29 *4319:A2 *4579:CLK 0.000161623
30 *4323:A2 *4582:CLK 2.60908e-05
31 *178:25 *4579:CLK 0
32 *178:25 *472:56 0
*RES
1 *4625:X *4582:CLK 9.375 
2 *4625:X *472:28 14.505 
3 *472:28 *4585:CLK 4.74 
4 *472:28 *472:41 4.145 
5 *472:41 *4586:CLK 1.6 
6 *472:41 *472:50 10.035 
7 *472:50 *472:56 4.865 
8 *472:56 *4581:CLK 3.6 
9 *472:56 *4579:CLK 9.3 
10 *472:50 *4580:CLK 2.77 
*END

*D_NET *473 0.00876618
*CONN
*I *4548:CLK I *D sky130_fd_sc_hd__dfrtp_2
*I *4533:CLK I *D sky130_fd_sc_hd__dfrtp_2
*I *4532:CLK I *D sky130_fd_sc_hd__dfrtp_2
*I *4534:CLK I *D sky130_fd_sc_hd__dfrtp_2
*I *4543:CLK I *D sky130_fd_sc_hd__dfrtp_2
*I *4542:CLK I *D sky130_fd_sc_hd__dfrtp_2
*I *4541:CLK I *D sky130_fd_sc_hd__dfrtp_2
*I *4626:X O *D sky130_fd_sc_hd__clkbuf_16
*CAP
1 *4548:CLK 0.000357974
2 *4533:CLK 0
3 *4532:CLK 0.000383928
4 *4534:CLK 2.11983e-05
5 *4543:CLK 8.55084e-05
6 *4542:CLK 4.46781e-05
7 *4541:CLK 9.33389e-05
8 *4626:X 0
9 *473:26 0.000221699
10 *473:24 0.000545402
11 *473:22 0.000494482
12 *473:20 0.000506622
13 *473:16 0.000623765
14 *473:4 0.000956118
15 *4532:CLK *4158:A1 0.000110307
16 *4532:CLK *653:36 0.000335268
17 *4532:CLK *653:38 0.000130437
18 *4532:CLK *827:10 9.9535e-05
19 *4532:CLK *827:12 1.26626e-05
20 *4534:CLK *4534:D 4.82919e-05
21 *4541:CLK *828:6 2.49909e-05
22 *4541:CLK *828:17 0.000134756
23 *4548:CLK *4199:B1 0.000108511
24 *4548:CLK *4548:D 0.000121019
25 *4548:CLK *653:96 0.000180489
26 *4548:CLK *655:46 8.40269e-05
27 *473:16 *4157:A1 0.000118527
28 *473:16 *4533:D 7.35729e-05
29 *473:16 *653:96 0.000264037
30 *473:22 *4157:B1 0.00017354
31 *473:22 *4533:D 0
32 *473:22 *653:38 8.53113e-06
33 *473:24 *4157:B1 0.000210846
34 *473:24 *4182:A1 0.000155176
35 *473:24 *4533:D 0
36 *473:24 *4543:D 0
37 *473:24 *652:52 0
38 *473:24 *652:56 0
39 *473:26 *4182:A1 0.000210021
40 *473:26 *828:17 0.000149088
41 *4020:B *4541:CLK 0.00013951
42 *4021:D *4542:CLK 1.42674e-05
43 *4154:A *4532:CLK 0.000137578
44 *4155:A2 *4532:CLK 0.000139245
45 *4156:B *4532:CLK 0
46 *4157:A2 *4532:CLK 0
47 *4157:A2 *473:22 0
48 *4157:A2 *473:24 0
49 *4159:B *473:16 6.55406e-05
50 *4160:A2 *473:16 0.00011472
51 *4160:A2 *473:20 1.83847e-05
52 *4180:B *4541:CLK 9.12857e-06
53 *4182:A3 *473:24 0.000185411
54 *4182:A3 *473:26 0.000199229
55 *4195:A_N *4548:CLK 0.000165081
56 *4195:B *4548:CLK 0.000127333
57 *4196:A2 *4548:CLK 1.05984e-05
58 *4199:A2 *4548:CLK 8.52845e-05
59 *232:16 *473:24 0
60 *234:17 *4542:CLK 4.66108e-05
61 *234:19 *4541:CLK 4.28943e-05
62 *234:47 *4541:CLK 2.02316e-05
63 *234:47 *473:26 0.000156791
*RES
1 *4626:X *473:4 1.6 
2 *473:4 *473:16 13.975 
3 *473:16 *473:20 2.45 
4 *473:20 *473:22 2.145 
5 *473:22 *473:24 8.265 
6 *473:24 *473:26 4.185 
7 *473:26 *4541:CLK 6.195 
8 *473:26 *4542:CLK 4.395 
9 *473:24 *4543:CLK 4.74 
10 *473:22 *4534:CLK 4.05 
11 *473:20 *4532:CLK 13.65 
12 *473:16 *4533:CLK 1.6 
13 *473:4 *4548:CLK 13.055 
*END

*D_NET *474 0.00798422
*CONN
*I *4571:CLK I *D sky130_fd_sc_hd__dfrtp_2
*I *4547:CLK I *D sky130_fd_sc_hd__dfrtp_2
*I *4654:A I *D sky130_fd_sc_hd__clkbuf_4
*I *4546:CLK I *D sky130_fd_sc_hd__dfrtp_2
*I *4544:CLK I *D sky130_fd_sc_hd__dfrtp_2
*I *4545:CLK I *D sky130_fd_sc_hd__dfrtp_2
*I *4549:CLK I *D sky130_fd_sc_hd__dfrtp_2
*I *4627:X O *D sky130_fd_sc_hd__clkbuf_16
*CAP
1 *4571:CLK 0.000568251
2 *4547:CLK 0
3 *4654:A 6.10357e-05
4 *4546:CLK 0
5 *4544:CLK 0
6 *4545:CLK 0.000235574
7 *4549:CLK 0.000425646
8 *4627:X 0.000738193
9 *474:82 0.000825559
10 *474:71 0.000483099
11 *474:31 0.000494718
12 *474:25 0.000692446
13 *474:6 0.00143238
14 *4545:CLK *4187:A1 0.000112279
15 *4545:CLK *4187:B1 3.21854e-05
16 *4545:CLK *4545:D 0.000227992
17 *4549:CLK *4201:A1 3.04704e-05
18 *4549:CLK *4201:B1 9.28568e-05
19 *4549:CLK *564:20 9.24127e-05
20 *4549:CLK *564:26 4.13092e-05
21 *474:25 *4024:A 0
22 *474:25 *4189:B1 0
23 *474:25 *4190:A2 0
24 *474:25 *4546:D 5.54336e-05
25 *474:25 *831:25 0
26 *474:31 *4545:D 0.000136679
27 *474:31 *4546:D 3.75882e-06
28 *474:82 *4196:A1 1.00941e-05
29 *474:82 *4197:A 2.23485e-05
30 *474:82 *4547:D 5.92006e-05
31 *4024:B *474:25 7.23602e-05
32 *4024:C *474:25 0.00018471
33 *4194:B *4571:CLK 0.000187759
34 *4194:B *474:82 0.0001752
35 *4195:B *4571:CLK 0
36 *4195:B *474:82 0
37 *4196:A2 *474:82 0
38 *4200:A2 *474:71 0
39 *4200:A2 *474:82 0
40 *4201:A2 *474:25 7.06865e-05
41 *4202:B *474:25 0
42 *4627:A *474:6 2.80988e-05
43 *239:31 *474:71 8.97564e-05
44 *239:31 *474:82 6.18754e-05
45 *239:46 *474:82 0.000163985
46 *242:12 *4571:CLK 7.58604e-05
*RES
1 *4627:X *474:6 7.57 
2 *474:6 *4549:CLK 11.915 
3 *474:6 *474:25 9.5 
4 *474:25 *474:31 4.74 
5 *474:31 *4545:CLK 8.475 
6 *474:31 *4544:CLK 3.6 
7 *474:25 *4546:CLK 3.6 
8 *4627:X *474:71 6.285 
9 *474:71 *4654:A 4.395 
10 *474:71 *474:82 5.97 
11 *474:82 *4547:CLK 3.6 
12 *474:82 *4571:CLK 13.47 
*END

*D_NET *475 0.00470859
*CONN
*I *4414:CLK I *D sky130_fd_sc_hd__dfrtp_2
*I *4401:CLK I *D sky130_fd_sc_hd__dfrtp_2
*I *4655:A I *D sky130_fd_sc_hd__clkbuf_4
*I *4552:CLK I *D sky130_fd_sc_hd__dfrtp_2
*I *4550:CLK I *D sky130_fd_sc_hd__dfrtp_2
*I *4551:CLK I *D sky130_fd_sc_hd__dfrtp_2
*I *4531:CLK I *D sky130_fd_sc_hd__dfrtp_2
*I *4628:X O *D sky130_fd_sc_hd__clkbuf_16
*CAP
1 *4414:CLK 0.000245466
2 *4401:CLK 5.66458e-05
3 *4655:A 0.000136132
4 *4552:CLK 7.87771e-05
5 *4550:CLK 0.000127545
6 *4551:CLK 0.000108436
7 *4531:CLK 0
8 *4628:X 0
9 *475:65 0.00038254
10 *475:43 0.00038889
11 *475:19 0.000574515
12 *475:12 0.000370492
13 *475:8 0.000393758
14 *475:6 0.000268249
15 *4414:CLK *3923:A2 0.000343008
16 *4414:CLK *696:16 9.96207e-05
17 *4551:CLK *4551:D 0.000189872
18 *4655:A *4531:RESET_B 0
19 *4655:A *4552:RESET_B 0
20 *4655:A *4660:A 4.58406e-05
21 *475:8 *4552:D 5.23362e-05
22 *475:8 *4552:RESET_B 8.76102e-05
23 *475:8 *696:16 0.00022252
24 *475:12 *4552:D 0.000116853
25 *475:12 *4552:RESET_B 0.000118513
26 *475:43 *4552:D 9.27326e-05
27 *475:65 *696:16 9.24049e-05
28 *4401:D *4655:A 1.71013e-05
29 *4401:D *475:8 0
30 *4401:D *475:65 0
31 *4617:A *475:19 4.80285e-05
32 *449:222 *4414:CLK 0
33 *449:222 *475:65 0
34 *464:10 *4550:CLK 5.06989e-05
*RES
1 *4628:X *475:6 3.6 
2 *475:6 *475:8 5.205 
3 *475:8 *475:12 3.38 
4 *475:12 *4531:CLK 1.6 
5 *475:12 *475:19 4.59 
6 *475:19 *4551:CLK 7.94 
7 *475:19 *4550:CLK 3.775 
8 *475:8 *475:43 4.175 
9 *475:43 *4552:CLK 2.665 
10 *475:43 *4655:A 8 
11 *475:6 *475:65 1.89 
12 *475:65 *4401:CLK 4.395 
13 *475:65 *4414:CLK 9.57 
*END

*D_NET *476 0.00985723
*CONN
*I *4453:CLK I *D sky130_fd_sc_hd__dfrtp_2
*I *4452:CLK I *D sky130_fd_sc_hd__dfrtp_2
*I *4451:CLK I *D sky130_fd_sc_hd__dfstp_2
*I *4570:CLK I *D sky130_fd_sc_hd__dfrtp_2
*I *4400:CLK I *D sky130_fd_sc_hd__dfrtp_2
*I *4404:CLK I *D sky130_fd_sc_hd__dfrtp_2
*I *4629:X O *D sky130_fd_sc_hd__clkbuf_16
*CAP
1 *4453:CLK 0
2 *4452:CLK 0.00022112
3 *4451:CLK 0.000131361
4 *4570:CLK 0.000660748
5 *4400:CLK 0.000103715
6 *4404:CLK 4.94253e-05
7 *4629:X 7.68654e-05
8 *476:70 0.000901072
9 *476:36 0.000817252
10 *476:34 0.000857318
11 *476:12 0.000502729
12 *476:6 0.000578677
13 *4400:CLK *529:23 1.82563e-05
14 *4404:CLK *3939:A1 2.96426e-05
15 *4451:CLK *4790:A 0.000266164
16 *4452:CLK *3926:B2 2.68464e-05
17 *4452:CLK *3929:A1 9.58867e-05
18 *4452:CLK *4713:A 4.43682e-05
19 *4452:CLK *4719:A 0.000173328
20 *4452:CLK *743:10 6.97034e-05
21 *4570:CLK *4204:A1 0.000178504
22 *4570:CLK *4742:A 0.000164686
23 *4570:CLK *839:8 4.82863e-05
24 *476:12 *529:23 3.05238e-05
25 *476:12 *744:34 0
26 *476:34 *744:34 0.000236227
27 *476:70 *3926:B2 3.03465e-05
28 *476:70 *3929:A1 7.06347e-05
29 *476:70 *4424:RESET_B 4.23378e-05
30 *476:70 *4713:A 0.000153816
31 *476:70 *4790:A 6.52265e-05
32 *3926:A2 *4452:CLK 2.65729e-05
33 *3926:B1 *4452:CLK 4.32064e-05
34 *3941:B *4404:CLK 2.75145e-05
35 *4204:A2 *4570:CLK 7.21296e-06
36 *4358:A1 *4570:CLK 0.000314178
37 *4358:A1 *476:34 0.000292066
38 *4358:A1 *476:36 7.06865e-05
39 *4451:D *476:70 7.27003e-05
40 *4452:D *4452:CLK 0.000361231
41 *4629:A *4570:CLK 0.000665171
42 *4629:A *476:12 4.10476e-05
43 *4629:A *476:34 0.000438023
44 *4629:A *476:36 6.21553e-05
45 *4752:A *4400:CLK 6.47516e-05
46 *4752:A *4404:CLK 3.00381e-05
47 *154:16 *4452:CLK 0.00035825
48 *159:14 *4451:CLK 0.00022957
49 *159:14 *476:70 0.000107791
*RES
1 *4629:X *476:6 2.395 
2 *476:6 *476:12 7.16 
3 *476:12 *4404:CLK 4.74 
4 *476:12 *4400:CLK 5.49 
5 *476:6 *476:34 8.225 
6 *476:34 *476:36 0.87 
7 *476:36 *4570:CLK 19.245 
8 *476:36 *4451:CLK 7.275 
9 *476:34 *476:70 14.985 
10 *476:70 *4452:CLK 13.79 
11 *476:70 *4453:CLK 1.6 
*END

*D_NET *477 0.0059087
*CONN
*I *4521:CLK I *D sky130_fd_sc_hd__dfrtp_2
*I *4651:A I *D sky130_fd_sc_hd__clkbuf_4
*I *4520:CLK I *D sky130_fd_sc_hd__dfrtp_2
*I *4519:CLK I *D sky130_fd_sc_hd__dfrtp_2
*I *4513:CLK I *D sky130_fd_sc_hd__dfrtp_2
*I *4515:CLK I *D sky130_fd_sc_hd__dfrtp_2
*I *4514:CLK I *D sky130_fd_sc_hd__dfrtp_2
*I *4630:X O *D sky130_fd_sc_hd__clkbuf_16
*CAP
1 *4521:CLK 0
2 *4651:A 0.000242715
3 *4520:CLK 2.51306e-05
4 *4519:CLK 0
5 *4513:CLK 0
6 *4515:CLK 0.000182086
7 *4514:CLK 6.08762e-05
8 *4630:X 0.000486791
9 *477:69 0.000242715
10 *477:26 0.000325338
11 *477:24 0.000485919
12 *477:20 0.000654025
13 *477:12 0.000349272
14 *477:10 0.00056045
15 *4514:CLK *4221:B1 5.20193e-05
16 *4514:CLK *661:22 0.000147159
17 *4515:CLK *4219:A1 6.62684e-05
18 *4515:CLK *4220:A 0.000112408
19 *4515:CLK *4513:D 0.000119873
20 *4520:CLK *4233:A 7.35813e-05
21 *4520:CLK *4240:B1 4.99619e-05
22 *4520:CLK *4521:D 4.35432e-05
23 *4651:A *4232:A1 8.65905e-05
24 *4651:A *4662:A 1.56428e-05
25 *4651:A *575:8 5.58206e-05
26 *477:10 *4235:B1 6.97118e-05
27 *477:10 *4240:B1 7.71016e-05
28 *477:12 *4240:B1 9.7872e-05
29 *477:12 *661:12 0
30 *477:20 *4519:D 4.92896e-05
31 *477:20 *575:14 0
32 *477:20 *661:12 0
33 *477:24 *575:14 6.95945e-05
34 *477:24 *575:16 0
35 *477:24 *575:18 0
36 *477:24 *661:22 0.00021094
37 *477:24 *661:59 0.000109016
38 *477:26 *661:22 0.000155112
39 *4219:A2 *4514:CLK 0.000177142
40 *4234:A *477:24 3.25831e-05
41 *4235:A2 *477:24 2.42236e-05
42 *218:25 *477:20 6.27529e-05
43 *220:38 *477:10 0.000133075
44 *220:38 *477:12 0.000193564
45 *220:38 *477:20 8.53113e-06
*RES
1 *4630:X *477:10 11.205 
2 *477:10 *477:12 2.4 
3 *477:12 *477:20 6.17 
4 *477:20 *477:24 10.265 
5 *477:24 *477:26 1.89 
6 *477:26 *4514:CLK 6 
7 *477:26 *4515:CLK 7.17 
8 *477:24 *4513:CLK 3.6 
9 *477:20 *4519:CLK 1.6 
10 *477:12 *4520:CLK 4.74 
11 *477:10 *477:69 2 
12 *477:69 *4651:A 5.515 
13 *477:69 *4521:CLK 1.6 
*END

*D_NET *478 0.00493132
*CONN
*I *4573:CLK I *D sky130_fd_sc_hd__dfrtp_2
*I *4574:CLK I *D sky130_fd_sc_hd__dfrtp_2
*I *4553:CLK I *D sky130_fd_sc_hd__dfrtp_2
*I *4554:CLK I *D sky130_fd_sc_hd__dfrtp_2
*I *4556:CLK I *D sky130_fd_sc_hd__dfrtp_2
*I *4555:CLK I *D sky130_fd_sc_hd__dfrtp_2
*I *4631:X O *D sky130_fd_sc_hd__clkbuf_16
*CAP
1 *4573:CLK 0.000190025
2 *4574:CLK 0
3 *4553:CLK 0
4 *4554:CLK 0
5 *4556:CLK 0
6 *4555:CLK 0.00026329
7 *4631:X 0.000369217
8 *478:54 0.000256479
9 *478:16 0.00065304
10 *478:12 0.00062137
11 *478:10 0.000414954
12 *478:8 0.000619005
13 *4555:CLK *4103:B1 5.88127e-05
14 *4555:CLK *4555:D 0.000136685
15 *4555:CLK *4556:D 0.000121032
16 *4573:CLK *4150:B1_N 8.80095e-05
17 *4573:CLK *4678:A 3.99395e-05
18 *4573:CLK *660:14 0.000159269
19 *478:8 *4150:A1 7.67345e-05
20 *478:10 *4150:B1_N 1.82563e-05
21 *478:10 *4574:D 5.53249e-06
22 *478:10 *697:18 0
23 *478:12 *4095:A1 0
24 *478:12 *4095:A2 0
25 *478:12 *697:18 0
26 *478:12 *697:20 0
27 *478:12 *711:23 7.89611e-05
28 *478:16 *4103:B1 0.000197757
29 *478:16 *711:23 9.68787e-05
30 *478:16 *711:27 0.000200108
31 *478:54 *4150:B1_N 1.01661e-05
32 *478:54 *4574:D 4.65643e-05
33 *4103:A2 *478:16 0
34 *4631:A *4573:CLK 0
35 *4631:A *478:8 0.000209233
36 *4631:A *478:10 0
37 *4631:A *478:54 0
38 *451:8 *4573:CLK 0
*RES
1 *4631:X *478:8 8.535 
2 *478:8 *478:10 2.91 
3 *478:10 *478:12 4.185 
4 *478:12 *478:16 10.265 
5 *478:16 *4555:CLK 10.565 
6 *478:16 *4556:CLK 1.6 
7 *478:12 *4554:CLK 3.6 
8 *478:10 *4553:CLK 3.6 
9 *478:8 *478:54 1.38 
10 *478:54 *4574:CLK 3.6 
11 *478:54 *4573:CLK 7.785 
*END

*D_NET *479 0.00543402
*CONN
*I *4561:CLK I *D sky130_fd_sc_hd__dfrtp_2
*I *4560:CLK I *D sky130_fd_sc_hd__dfrtp_2
*I *4559:CLK I *D sky130_fd_sc_hd__dfrtp_2
*I *4558:CLK I *D sky130_fd_sc_hd__dfrtp_2
*I *4557:CLK I *D sky130_fd_sc_hd__dfrtp_2
*I *4562:CLK I *D sky130_fd_sc_hd__dfrtp_2
*I *4632:X O *D sky130_fd_sc_hd__clkbuf_16
*CAP
1 *4561:CLK 2.946e-05
2 *4560:CLK 0
3 *4559:CLK 0.000323738
4 *4558:CLK 0
5 *4557:CLK 0.000277504
6 *4562:CLK 0.000333347
7 *4632:X 0
8 *479:35 0.000385077
9 *479:33 0.000882856
10 *479:27 0.000548065
11 *479:23 0.000348342
12 *479:4 0.000555708
13 *4557:CLK *4106:B1 9.65637e-05
14 *4557:CLK *4108:A1 6.54361e-06
15 *4557:CLK *4557:D 0.00010234
16 *4557:CLK *4557:RESET_B 9.51579e-05
17 *4559:CLK *4108:B1 0.000197881
18 *4559:CLK *657:55 8.49205e-05
19 *4562:CLK *4114:A1 0.000151486
20 *4562:CLK *4560:D 3.94338e-05
21 *4562:CLK *4562:D 3.72916e-05
22 *4562:CLK *658:36 1.6418e-05
23 *479:23 *4114:B1 8.97642e-05
24 *479:23 *795:10 8.65905e-05
25 *479:23 *795:19 4.66108e-05
26 *479:27 *4043:A 0
27 *479:33 *4111:A1 0
28 *479:33 *4111:B1 6.55406e-05
29 *479:33 *4114:B1 0
30 *479:33 *657:10 0
31 *479:33 *657:92 0
32 *479:35 *4106:B1 0.000104927
33 *479:35 *4111:B1 1.07797e-05
34 *4043:B *479:23 0.000163019
35 *4106:A2 *4557:CLK 6.21647e-05
36 *4114:A2 *4562:CLK 7.35729e-05
37 *4114:A2 *479:27 0.000105841
38 *4114:A2 *479:33 0.000104542
39 *256:8 *479:23 8.53113e-06
*RES
1 *4632:X *479:4 1.6 
2 *479:4 *4562:CLK 7.255 
3 *479:4 *479:23 8.41 
4 *479:23 *479:27 4.145 
5 *479:27 *479:33 8.565 
6 *479:33 *479:35 2.4 
7 *479:35 *4557:CLK 9.27 
8 *479:35 *4558:CLK 3.6 
9 *479:33 *4559:CLK 8.895 
10 *479:27 *4560:CLK 3.6 
11 *479:23 *4561:CLK 2.05 
*END

*D_NET *480 0.00548454
*CONN
*I *4476:CLK I *D sky130_fd_sc_hd__dfrtp_2
*I *4568:CLK I *D sky130_fd_sc_hd__dfrtp_2
*I *4567:CLK I *D sky130_fd_sc_hd__dfrtp_2
*I *4424:CLK I *D sky130_fd_sc_hd__dfrtp_2
*I *4569:CLK I *D sky130_fd_sc_hd__dfrtp_2
*I *4566:CLK I *D sky130_fd_sc_hd__dfrtp_2
*I *4633:X O *D sky130_fd_sc_hd__clkbuf_16
*CAP
1 *4476:CLK 0.00047389
2 *4568:CLK 0.000726161
3 *4567:CLK 0
4 *4424:CLK 0
5 *4569:CLK 0.000173798
6 *4566:CLK 0.000234453
7 *4633:X 0
8 *480:31 0.000503783
9 *480:25 0.00060101
10 *480:10 0.000539258
11 *480:8 0.000801528
12 *480:6 0.000515477
13 *4476:CLK *4680:A 0
14 *4476:CLK *4719:A 0
15 *4476:CLK *659:21 0.000140836
16 *4566:CLK *4719:A 0
17 *4566:CLK *659:21 9.05377e-05
18 *4566:CLK *702:6 0.000109377
19 *4568:CLK *4133:A1 8.49205e-05
20 *4568:CLK *4133:B1 1.45963e-05
21 *4568:CLK *4477:RESET_B 0.000231414
22 *4568:CLK *787:8 2.51419e-05
23 *4569:CLK *4569:D 0
24 *480:8 *4719:A 0
25 *480:8 *659:21 3.86607e-05
26 *480:10 *4719:A 0
27 *480:10 *659:21 4.20983e-05
28 *480:31 *4569:D 0
29 *480:31 *695:8 1.83847e-05
30 *480:31 *695:14 0
31 *4134:B *4568:CLK 8.23457e-05
32 *4358:A1 *4569:CLK 0
33 *4358:A1 *480:31 0
34 *4424:D *4569:CLK 3.68682e-05
*RES
1 *4633:X *480:6 3.6 
2 *480:6 *480:8 0.87 
3 *480:8 *480:10 0.87 
4 *480:10 *4566:CLK 8.01 
5 *480:10 *480:25 5.9 
6 *480:25 *480:31 7.01 
7 *480:31 *4569:CLK 6.39 
8 *480:31 *4424:CLK 3.6 
9 *480:25 *4567:CLK 1.6 
10 *480:8 *4568:CLK 12.255 
11 *480:6 *4476:CLK 11.82 
*END

*D_NET *481 0.00722643
*CONN
*I *4565:CLK I *D sky130_fd_sc_hd__dfrtp_2
*I *4479:CLK I *D sky130_fd_sc_hd__dfrtp_2
*I *4477:CLK I *D sky130_fd_sc_hd__dfrtp_2
*I *4564:CLK I *D sky130_fd_sc_hd__dfrtp_2
*I *4563:CLK I *D sky130_fd_sc_hd__dfrtp_2
*I *4572:CLK I *D sky130_fd_sc_hd__dfrtp_2
*I *4634:X O *D sky130_fd_sc_hd__clkbuf_16
*CAP
1 *4565:CLK 0
2 *4479:CLK 0.000354466
3 *4477:CLK 3.61463e-05
4 *4564:CLK 2.56208e-05
5 *4563:CLK 0
6 *4572:CLK 0.000246357
7 *4634:X 0.000181903
8 *481:53 0.000805477
9 *481:24 0.00035111
10 *481:20 0.000340404
11 *481:18 0.000993229
12 *481:12 0.000550237
13 *4477:CLK *4477:RESET_B 0.000123225
14 *4477:CLK *4718:A 4.82919e-05
15 *4479:CLK *4076:A 4.82863e-05
16 *4479:CLK *4479:D 2.11084e-05
17 *4479:CLK *4770:A 7.53903e-05
18 *4572:CLK *4563:RESET_B 0.000428764
19 *4572:CLK *702:27 0.000339198
20 *481:12 *4564:RESET_B 2.24336e-05
21 *481:12 *4565:D 5.12855e-05
22 *481:12 *701:37 3.39151e-05
23 *481:18 *4565:RESET_B 5.0751e-05
24 *481:20 *4563:D 2.75538e-05
25 *481:24 *4124:B1 0
26 *481:24 *4563:D 6.73665e-05
27 *481:53 *4038:A 0
28 *481:53 *4568:D 0.000308062
29 *4126:B *481:18 1.17309e-05
30 *4127:A2 *481:18 8.8266e-05
31 *4134:A *4479:CLK 0.000100458
32 *4134:A *481:53 1.44259e-05
33 *4134:B *4479:CLK 5.83121e-06
34 *4135:A2 *4479:CLK 0.000106655
35 *4135:A2 *481:53 0.000532769
36 *4633:A *4477:CLK 2.05056e-05
37 *4633:A *481:53 0.000198216
38 *252:10 *481:53 0
39 *253:52 *4572:CLK 0.000283528
40 *253:52 *481:24 0
41 *253:56 *4572:CLK 5.39961e-05
42 *452:14 *4564:CLK 1.83847e-05
43 *452:14 *481:20 0.000144444
44 *452:14 *481:53 0.000116636
*RES
1 *4634:X *481:12 8.375 
2 *481:12 *481:18 7.64 
3 *481:18 *481:20 3.93 
4 *481:20 *481:24 4.145 
5 *481:24 *4572:CLK 13.43 
6 *481:24 *4563:CLK 1.6 
7 *481:20 *4564:CLK 4.05 
8 *481:18 *481:53 10.815 
9 *481:53 *4477:CLK 4.74 
10 *481:53 *4479:CLK 10.185 
11 *481:12 *4565:CLK 1.6 
*END

*D_NET *482 0.0073128
*CONN
*I *4427:CLK I *D sky130_fd_sc_hd__dfrtp_2
*I *4426:CLK I *D sky130_fd_sc_hd__dfrtp_2
*I *4411:CLK I *D sky130_fd_sc_hd__dfrtp_2
*I *4403:CLK I *D sky130_fd_sc_hd__dfrtp_2
*I *4407:CLK I *D sky130_fd_sc_hd__dfrtp_2
*I *4415:CLK I *D sky130_fd_sc_hd__dfrtp_2
*I *4410:CLK I *D sky130_fd_sc_hd__dfrtp_2
*I *4635:X O *D sky130_fd_sc_hd__clkbuf_16
*CAP
1 *4427:CLK 0.000214494
2 *4426:CLK 8.89803e-05
3 *4411:CLK 0.000109369
4 *4403:CLK 0
5 *4407:CLK 0
6 *4415:CLK 0.000313708
7 *4410:CLK 0.000228694
8 *4635:X 0.00011508
9 *482:69 0.000427416
10 *482:58 0.00032035
11 *482:27 0.00057272
12 *482:12 0.000570958
13 *482:10 0.000233276
14 *482:8 0.000352142
15 *4410:CLK *4072:A1 9.14049e-05
16 *4410:CLK *4407:RESET_B 0
17 *4410:CLK *4751:A 0.000335623
18 *4410:CLK *742:26 0.000185405
19 *4411:CLK *541:10 0.000100309
20 *4415:CLK *4410:RESET_B 0.000107754
21 *4415:CLK *527:8 2.75145e-05
22 *4426:CLK *742:12 4.31127e-05
23 *4427:CLK *4365:A1 2.10905e-05
24 *4427:CLK *4365:B2 1.12643e-05
25 *482:8 *3867:B 0.000121043
26 *482:8 *4349:B2 7.08049e-05
27 *482:8 *4361:A0 0.000194914
28 *482:8 *526:14 0.000147133
29 *482:10 *3867:B 0
30 *482:10 *4407:RESET_B 0
31 *482:10 *742:18 3.47498e-05
32 *482:10 *742:26 0.000132096
33 *482:12 *4407:RESET_B 0
34 *482:12 *742:26 0.000179922
35 *482:27 *4751:A 1.56428e-05
36 *482:69 *742:12 1.82571e-05
37 *482:69 *742:18 9.12857e-06
38 *3938:A2 *4415:CLK 6.73751e-05
39 *3941:A *4410:CLK 0.000136276
40 *4363:B1 *482:10 0.00016075
41 *4363:B1 *482:58 0.000145857
42 *4363:B1 *482:69 0.000147159
43 *4365:A2 *4427:CLK 6.62709e-05
44 *4365:B1 *4427:CLK 4.66108e-05
45 *4365:C1 *4427:CLK 0.000252913
46 *4403:D *482:10 7.96171e-05
47 *4407:D *482:27 4.80182e-05
48 *4411:D *4411:CLK 9.04764e-05
49 *4411:D *4427:CLK 0.000155489
50 *4411:D *482:69 0.000300844
51 *4426:D *482:69 9.05592e-05
52 *4427:D *4427:CLK 4.12775e-05
53 *20:6 *482:27 3.64998e-06
54 *428:8 *482:8 8.53011e-05
55 *449:13 *4410:CLK 0
56 *449:13 *482:10 0
*RES
1 *4635:X *482:8 7.5 
2 *482:8 *482:10 4.44 
3 *482:10 *482:12 2.145 
4 *482:12 *4410:CLK 9.96 
5 *482:12 *482:27 5.9 
6 *482:27 *4415:CLK 11.51 
7 *482:27 *4407:CLK 1.6 
8 *482:10 *4403:CLK 3.6 
9 *482:8 *482:58 1.89 
10 *482:58 *4411:CLK 6.12 
11 *482:58 *482:69 4.185 
12 *482:69 *4426:CLK 5.085 
13 *482:69 *4427:CLK 9.045 
*END

*D_NET *483 0.00834241
*CONN
*I *4656:A I *D sky130_fd_sc_hd__clkbuf_4
*I *4405:CLK I *D sky130_fd_sc_hd__dfrtp_2
*I *4408:CLK I *D sky130_fd_sc_hd__dfrtp_2
*I *4446:CLK I *D sky130_fd_sc_hd__dfrtp_2
*I *4412:CLK I *D sky130_fd_sc_hd__dfrtp_2
*I *4413:CLK I *D sky130_fd_sc_hd__dfrtp_2
*I *4402:CLK I *D sky130_fd_sc_hd__dfrtp_2
*I *4636:X O *D sky130_fd_sc_hd__clkbuf_16
*CAP
1 *4656:A 0.000326425
2 *4405:CLK 3.56363e-05
3 *4408:CLK 0
4 *4446:CLK 0
5 *4412:CLK 8.34465e-05
6 *4413:CLK 2.1704e-05
7 *4402:CLK 0.000500431
8 *4636:X 0.000466309
9 *483:57 0.000467863
10 *483:34 0.000866178
11 *483:23 0.000804436
12 *483:21 0.000259852
13 *483:8 0.00112079
14 *4402:CLK *3853:A 7.01303e-05
15 *4402:CLK *3855:A 5.67263e-05
16 *4402:CLK *3868:A1 0
17 *4402:CLK *4400:RESET_B 0.000271081
18 *4405:CLK *4405:D 5.83121e-06
19 *4412:CLK *4446:RESET_B 4.83032e-05
20 *4412:CLK *707:37 1.64067e-05
21 *4413:CLK *4408:RESET_B 4.66108e-05
22 *4656:A *4405:D 4.21484e-05
23 *483:8 *3853:B 2.0187e-05
24 *483:8 *528:47 0.000557649
25 *483:21 *3853:A 0.000132961
26 *483:21 *4405:D 0.000112279
27 *483:34 *4408:RESET_B 0.000134752
28 *483:34 *4446:RESET_B 3.112e-05
29 *483:34 *4813:A 0.000122821
30 *483:34 *522:14 3.112e-05
31 *483:57 *4405:D 0.000170759
32 *3865:B *4402:CLK 5.1875e-05
33 *3887:A2 *4412:CLK 9.91274e-05
34 *3929:A2 *4402:CLK 0.000130669
35 *3929:A3 *4402:CLK 0.000114858
36 *4408:D *4402:CLK 1.06226e-05
37 *4408:D *483:21 4.48485e-05
38 *99:12 *4402:CLK 4.9803e-05
39 *100:14 *4402:CLK 0.000779088
40 *103:10 *4402:CLK 0.00023756
*RES
1 *4636:X *483:8 9.57 
2 *483:8 *4402:CLK 17.19 
3 *483:8 *483:21 3.42 
4 *483:21 *483:23 2 
5 *483:23 *4413:CLK 2.05 
6 *483:23 *483:34 12.54 
7 *483:34 *4412:CLK 7.745 
8 *483:34 *4446:CLK 1.6 
9 *483:23 *4408:CLK 1.6 
10 *483:21 *483:57 2.145 
11 *483:57 *4405:CLK 4.05 
12 *483:57 *4656:A 8.355 
*END

*D_NET *484 0.00623601
*CONN
*I *4590:CLK I *D sky130_fd_sc_hd__dfrtp_2
*I *4440:CLK I *D sky130_fd_sc_hd__dfrtp_2
*I *4589:CLK I *D sky130_fd_sc_hd__dfrtp_2
*I *4588:CLK I *D sky130_fd_sc_hd__dfrtp_2
*I *4593:CLK I *D sky130_fd_sc_hd__dfrtp_2
*I *4592:CLK I *D sky130_fd_sc_hd__dfrtp_2
*I *4637:X O *D sky130_fd_sc_hd__clkbuf_16
*CAP
1 *4590:CLK 0
2 *4440:CLK 0.000556131
3 *4589:CLK 0
4 *4588:CLK 0.000121395
5 *4593:CLK 0.000116129
6 *4592:CLK 0.00010531
7 *4637:X 0.000208877
8 *484:56 0.000556131
9 *484:42 0.000324554
10 *484:36 0.00042063
11 *484:12 0.000961251
12 *484:6 0.00116616
13 *4440:CLK *4440:RESET_B 0.000341562
14 *4440:CLK *4590:D 7.60965e-05
15 *4588:CLK *4589:D 5.83121e-06
16 *4593:CLK *4341:A 5.05521e-05
17 *4593:CLK *4592:D 0.000156155
18 *4593:CLK *4593:D 0
19 *484:6 *3969:A 4.82863e-05
20 *484:6 *3969:B 0.000124007
21 *484:6 *3971:A 0.000163199
22 *484:12 *3964:A 0
23 *484:12 *3965:B 0.000180789
24 *484:12 *4328:A 0
25 *484:12 *4592:D 5.39961e-05
26 *484:12 *4593:D 0
27 *484:12 *939:27 0
28 *484:12 *963:10 0
29 *484:36 *3969:A 0
30 *484:36 *3971:A 0
31 *484:36 *4590:D 0
32 *484:42 *4589:D 6.77501e-05
33 *3966:B *484:42 0
34 *3966:C *484:36 7.26629e-05
35 *3966:C *484:42 4.43871e-06
36 *3970:C *484:12 3.83895e-05
37 *3970:D *484:6 9.80943e-06
38 *3970:D *484:12 5.58206e-05
39 *4337:A2 *484:36 0
40 *4337:A2 *484:42 0
41 *4338:B *484:36 3.09164e-05
42 *181:40 *484:12 0
43 *183:10 *484:12 0
44 *183:12 *484:36 4.92284e-05
45 *188:10 *484:36 0.000139245
46 *189:10 *484:6 3.07031e-05
*RES
1 *4637:X *484:6 5.5 
2 *484:6 *484:12 14.57 
3 *484:12 *4592:CLK 5.085 
4 *484:12 *4593:CLK 6.285 
5 *484:6 *484:36 6.44 
6 *484:36 *484:42 5.285 
7 *484:42 *4588:CLK 3.43 
8 *484:42 *4589:CLK 1.6 
9 *484:36 *484:56 2 
10 *484:56 *4440:CLK 11.155 
11 *484:56 *4590:CLK 1.6 
*END

*D_NET *485 0.00613356
*CONN
*I *4441:CLK I *D sky130_fd_sc_hd__dfrtp_2
*I *4595:CLK I *D sky130_fd_sc_hd__dfrtp_2
*I *4594:CLK I *D sky130_fd_sc_hd__dfrtp_2
*I *4591:CLK I *D sky130_fd_sc_hd__dfrtp_2
*I *4442:CLK I *D sky130_fd_sc_hd__dfrtp_2
*I *4443:CLK I *D sky130_fd_sc_hd__dfrtp_2
*I *4638:X O *D sky130_fd_sc_hd__clkbuf_16
*CAP
1 *4441:CLK 0
2 *4595:CLK 0.000246516
3 *4594:CLK 1.61827e-05
4 *4591:CLK 0
5 *4442:CLK 0.000146397
6 *4443:CLK 0.000257594
7 *4638:X 0.00021155
8 *485:51 0.000462351
9 *485:42 0.00058925
10 *485:36 0.000737928
11 *485:12 0.000573492
12 *485:10 0.000729382
13 *4442:CLK *4729:A 0.000241866
14 *4594:CLK *4594:D 2.65936e-05
15 *4594:CLK *4601:A 1.77665e-05
16 *4595:CLK *649:14 0.00012917
17 *485:10 *4596:RESET_B 1.4399e-05
18 *485:42 *4596:RESET_B 0.000221461
19 *485:42 *4670:A 5.50989e-05
20 *485:51 *4594:D 9.5433e-05
21 *485:51 *4670:A 6.02273e-05
22 *485:51 *649:14 1.92979e-05
23 *4345:B *4595:CLK 3.95347e-05
24 *4345:B *485:51 3.6967e-05
25 *4392:B1 *4443:CLK 8.47289e-05
26 *4392:B1 *485:12 5.88634e-05
27 *4394:A2 *485:10 9.90987e-05
28 *4394:A2 *485:12 0.00012666
29 *4394:B1 *485:10 0.000170759
30 *4394:B1 *485:12 0.000156973
31 *4397:A *4443:CLK 5.34747e-05
32 *4397:B *4443:CLK 9.66106e-05
33 *4442:D *4442:CLK 0.000103489
34 *4442:D *4443:CLK 0.00023457
35 *4638:A *485:10 0
36 *4671:A *4595:CLK 1.9872e-05
37 *189:10 *485:51 0
38 *454:8 *4443:CLK 0
39 *454:8 *485:12 0
*RES
1 *4638:X *485:10 7.815 
2 *485:10 *485:12 4.185 
3 *485:12 *4443:CLK 9.27 
4 *485:12 *4442:CLK 7.5 
5 *485:10 *485:36 6.935 
6 *485:36 *485:42 9.8 
7 *485:42 *4591:CLK 3.6 
8 *485:42 *485:51 4.185 
9 *485:51 *4594:CLK 4.05 
10 *485:51 *4595:CLK 8.175 
11 *485:36 *4441:CLK 1.6 
*END

*D_NET *486 0.00672569
*CONN
*I *4445:CLK I *D sky130_fd_sc_hd__dfrtp_2
*I *4447:CLK I *D sky130_fd_sc_hd__dfrtp_2
*I *4444:CLK I *D sky130_fd_sc_hd__dfstp_2
*I *4485:CLK I *D sky130_fd_sc_hd__dfstp_2
*I *4484:CLK I *D sky130_fd_sc_hd__dfstp_2
*I *4482:CLK I *D sky130_fd_sc_hd__dfstp_2
*I *4639:X O *D sky130_fd_sc_hd__clkbuf_16
*CAP
1 *4445:CLK 0.000396461
2 *4447:CLK 0.000165089
3 *4444:CLK 0
4 *4485:CLK 0.00015455
5 *4484:CLK 3.35304e-05
6 *4482:CLK 0.000748237
7 *4639:X 0.000156226
8 *486:60 0.000955127
9 *486:49 0.000737624
10 *486:12 0.000895333
11 *486:10 0.000420223
12 *486:8 0.000652382
13 *4445:CLK *3886:A 0
14 *4445:CLK *712:10 0
15 *4447:CLK *712:10 0
16 *4447:CLK *712:23 8.49205e-05
17 *486:8 *3871:B1 0.000247574
18 *486:8 *3891:A1 0
19 *486:10 *3891:A1 0
20 *486:10 *4727:A 1.00941e-05
21 *486:10 *710:12 0
22 *486:49 *4368:A1 0.000154624
23 *486:49 *4444:SET_B 2.40101e-05
24 *486:49 *710:26 9.4087e-05
25 *486:49 *1022:6 0.000240392
26 *486:60 *4368:A1 4.99619e-05
27 *3887:B1 *4445:CLK 0
28 *3887:B1 *4447:CLK 0
29 *4086:A2 *4482:CLK 0.000101637
30 *4086:B1 *4482:CLK 0.000199686
31 *4087:A2 *4482:CLK 3.33839e-05
32 *4445:D *4445:CLK 0
33 *121:10 *4485:CLK 3.72916e-05
34 *121:10 *486:10 0
35 *121:19 *486:8 0
36 *121:19 *486:10 0
37 *121:32 *486:8 0
38 *125:10 *4445:CLK 0
39 *125:12 *4445:CLK 0
40 *270:23 *4482:CLK 0
41 *270:23 *486:10 0
42 *270:23 *486:12 0
43 *271:43 *4482:CLK 0
44 *271:56 *4482:CLK 0
45 *271:56 *486:10 0
46 *271:56 *486:12 0
47 *449:181 *486:60 4.80285e-05
48 *449:192 *4447:CLK 8.52172e-05
*RES
1 *4639:X *486:8 7.02 
2 *486:8 *486:10 2.4 
3 *486:10 *486:12 1.89 
4 *486:12 *4482:CLK 16.665 
5 *486:12 *4484:CLK 4.05 
6 *486:10 *4485:CLK 6.12 
7 *486:8 *486:49 9.005 
8 *486:49 *4444:CLK 1.6 
9 *486:49 *486:60 7.64 
10 *486:60 *4447:CLK 6.795 
11 *486:60 *4445:CLK 9.765 
*END

*D_NET *487 0.00710087
*CONN
*I *4657:A I *D sky130_fd_sc_hd__clkbuf_4
*I *4481:CLK I *D sky130_fd_sc_hd__dfstp_2
*I *4428:CLK I *D sky130_fd_sc_hd__dfrtp_2
*I *4483:CLK I *D sky130_fd_sc_hd__dfrtp_2
*I *4478:CLK I *D sky130_fd_sc_hd__dfstp_2
*I *4429:CLK I *D sky130_fd_sc_hd__dfrtp_2
*I *4480:CLK I *D sky130_fd_sc_hd__dfrtp_2
*I *4640:X O *D sky130_fd_sc_hd__clkbuf_16
*CAP
1 *4657:A 0.000289429
2 *4481:CLK 0
3 *4428:CLK 0.00126658
4 *4483:CLK 0
5 *4478:CLK 0
6 *4429:CLK 0.000131417
7 *4480:CLK 0.000144662
8 *4640:X 0
9 *487:73 0.000429169
10 *487:33 0.000385017
11 *487:16 0.000619818
12 *487:10 0.000249031
13 *487:8 0.0013524
14 *487:6 0.000198085
15 *4428:CLK *4428:RESET_B 0.000228856
16 *4428:CLK *4795:A 1.04217e-05
17 *4428:CLK *985:8 7.47952e-05
18 *4429:CLK *4478:SET_B 0.000214272
19 *4480:CLK *4077:A2 5.23362e-05
20 *4480:CLK *999:12 5.00356e-05
21 *4657:A *4085:A1_N 0.000204072
22 *487:16 *4077:A2 0.000179235
23 *487:33 *4478:SET_B 0.00017613
24 *487:33 *999:6 2.49909e-05
25 *487:33 *999:12 4.80285e-05
26 *487:73 *4085:A1_N 4.82863e-05
27 *4077:B1 *487:8 3.68682e-05
28 *4077:B1 *487:10 2.24336e-05
29 *4077:B1 *487:16 9.44039e-05
30 *4077:B1 *487:73 9.29751e-06
31 *4080:A1 *4480:CLK 5.39961e-05
32 *4081:B *4480:CLK 0.00011852
33 *4085:A2_N *4657:A 4.77807e-05
34 *4085:B2 *4657:A 6.96579e-05
35 *89:8 *4428:CLK 0
36 *118:14 *487:73 0
37 *271:19 *487:73 0.000206481
38 *272:12 *4480:CLK 0
39 *272:12 *487:16 0
40 *272:20 *4480:CLK 6.4368e-05
*RES
1 *4640:X *487:6 3.6 
2 *487:6 *487:8 1.125 
3 *487:8 *487:10 0.615 
4 *487:10 *487:16 4.995 
5 *487:16 *4480:CLK 7.53 
6 *487:16 *487:33 7.055 
7 *487:33 *4429:CLK 4.81 
8 *487:33 *4478:CLK 1.6 
9 *487:10 *4483:CLK 3.6 
10 *487:8 *4428:CLK 18.675 
11 *487:6 *487:73 5.105 
12 *487:73 *4481:CLK 1.6 
13 *487:73 *4657:A 6.895 
*END

*D_NET *488 0.00629735
*CONN
*I *4522:CLK I *D sky130_fd_sc_hd__dfrtp_2
*I *4523:CLK I *D sky130_fd_sc_hd__dfrtp_2
*I *4492:CLK I *D sky130_fd_sc_hd__dfrtp_2
*I *4491:CLK I *D sky130_fd_sc_hd__dfrtp_2
*I *4494:CLK I *D sky130_fd_sc_hd__dfrtp_2
*I *4493:CLK I *D sky130_fd_sc_hd__dfrtp_2
*I *4641:X O *D sky130_fd_sc_hd__clkbuf_16
*CAP
1 *4522:CLK 0
2 *4523:CLK 8.65877e-05
3 *4492:CLK 5.4142e-05
4 *4491:CLK 0.000393029
5 *4494:CLK 0.000100004
6 *4493:CLK 5.70574e-05
7 *4641:X 0.000535678
8 *488:67 0.000579279
9 *488:32 0.0010539
10 *488:10 0.000310725
11 *488:6 0.000803377
12 *4493:CLK *619:25 5.0751e-05
13 *4494:CLK *4276:B1 0
14 *4494:CLK *619:10 0
15 *4523:CLK *4244:A 1.01661e-05
16 *4523:CLK *4245:A1 0.000108647
17 *488:6 *4492:RESET_B 4.82863e-05
18 *488:6 *675:36 4.82919e-05
19 *488:10 *4276:B1 0
20 *488:10 *4491:RESET_B 0.000158297
21 *488:10 *4493:D 0
22 *488:32 *4492:RESET_B 7.8947e-05
23 *488:32 *934:8 4.80291e-07
24 *488:67 *3982:B 0.000273695
25 *488:67 *4245:A1 0.000143266
26 *488:67 *4522:D 1.01661e-05
27 *488:67 *675:36 5.05437e-05
28 *488:67 *677:14 0.000137968
29 *4242:A *488:67 0
30 *4242:B *4523:CLK 0.000343914
31 *4242:B *488:67 0.000355816
32 *4243:A2 *488:67 6.74079e-05
33 *4244:B *4523:CLK 0.000163992
34 *4271:B *4494:CLK 9.49958e-05
35 *4271:B *488:10 5.53249e-06
36 *4272:A1 *4491:CLK 0
37 *195:47 *488:10 0.00017241
38 *457:10 *488:67 0
*RES
1 *4641:X *488:6 2.395 
2 *488:6 *488:10 5.675 
3 *488:10 *4493:CLK 4.74 
4 *488:10 *4494:CLK 5.745 
5 *488:6 *488:32 6.675 
6 *488:32 *4491:CLK 10.19 
7 *488:32 *4492:CLK 2.77 
8 *4641:X *488:67 14.145 
9 *488:67 *4523:CLK 7.53 
10 *488:67 *4522:CLK 3.6 
*END

*D_NET *489 0.00539852
*CONN
*I *4438:CLK I *D sky130_fd_sc_hd__dfrtp_2
*I *4436:CLK I *D sky130_fd_sc_hd__dfrtp_2
*I *4435:CLK I *D sky130_fd_sc_hd__dfrtp_2
*I *4437:CLK I *D sky130_fd_sc_hd__dfrtp_2
*I *4596:CLK I *D sky130_fd_sc_hd__dfrtp_2
*I *4439:CLK I *D sky130_fd_sc_hd__dfrtp_2
*I *4642:X O *D sky130_fd_sc_hd__clkbuf_16
*CAP
1 *4438:CLK 0.000180456
2 *4436:CLK 0.000238813
3 *4435:CLK 0.000176276
4 *4437:CLK 0.000103477
5 *4596:CLK 0.00022252
6 *4439:CLK 0
7 *4642:X 0.000141958
8 *489:55 0.000511668
9 *489:42 0.000299551
10 *489:27 0.00080375
11 *489:21 0.000779705
12 *489:10 0.000259472
13 *4435:CLK *4384:A2 4.82919e-05
14 *4436:CLK *4601:A 0
15 *4436:CLK *715:89 2.72482e-05
16 *4437:CLK *4348:A 0
17 *4437:CLK *4601:A 0.00023468
18 *4438:CLK *4388:A2 0
19 *4438:CLK *4438:RESET_B 3.57349e-05
20 *4596:CLK *4386:A1 2.11084e-05
21 *4596:CLK *4386:A2 0.00012779
22 *4596:CLK *651:16 7.67415e-06
23 *489:10 *4438:RESET_B 0
24 *489:21 *4438:RESET_B 0.000187759
25 *489:21 *4767:A 0
26 *489:21 *709:69 0
27 *489:27 *4386:A1 4.90267e-05
28 *489:27 *4386:A2 8.09021e-06
29 *489:27 *4438:RESET_B 0.000119066
30 *489:27 *4767:A 9.65676e-05
31 *489:27 *651:16 1.17114e-05
32 *489:27 *709:69 0
33 *489:27 *1020:6 1.83756e-05
34 *489:42 *4386:A1 9.68709e-05
35 *489:42 *709:69 0
36 *489:42 *709:76 0
37 *489:55 *4386:A1 4.50017e-05
38 *489:55 *4601:A 0
39 *489:55 *715:89 4.31921e-05
40 *4384:B1 *4435:CLK 0.000195663
41 *4386:B1 *4596:CLK 3.64998e-06
42 *4388:B1 *489:10 8.8266e-05
43 *4436:D *4436:CLK 9.37731e-05
44 *4437:D *4437:CLK 3.37194e-05
45 *4438:D *4438:CLK 5.07419e-05
46 *4439:D *489:10 3.68682e-05
*RES
1 *4642:X *489:10 6.03 
2 *489:10 *4439:CLK 3.6 
3 *489:10 *489:21 4.655 
4 *489:21 *489:27 8.48 
5 *489:27 *4596:CLK 7.62 
6 *489:27 *489:42 2.145 
7 *489:42 *4437:CLK 6.135 
8 *489:42 *489:55 1.89 
9 *489:55 *4435:CLK 7.155 
10 *489:55 *4436:CLK 7.08 
11 *489:21 *4438:CLK 4.045 
*END

*D_NET *490 0.00463365
*CONN
*I *4434:CLK I *D sky130_fd_sc_hd__dfrtp_2
*I *4433:CLK I *D sky130_fd_sc_hd__dfrtp_2
*I *4432:CLK I *D sky130_fd_sc_hd__dfrtp_2
*I *4431:CLK I *D sky130_fd_sc_hd__dfrtp_2
*I *4430:CLK I *D sky130_fd_sc_hd__dfrtp_2
*I *4486:CLK I *D sky130_fd_sc_hd__dfrtp_2
*I *4643:X O *D sky130_fd_sc_hd__clkbuf_16
*CAP
1 *4434:CLK 0.00020947
2 *4433:CLK 0.000259528
3 *4432:CLK 3.68678e-05
4 *4431:CLK 0
5 *4430:CLK 0
6 *4486:CLK 0.000382452
7 *4643:X 0.000171082
8 *490:52 0.000568681
9 *490:39 0.000373546
10 *490:30 0.000471815
11 *490:21 0.000346772
12 *490:8 0.000665486
13 *4433:CLK *4434:RESET_B 8.34323e-05
14 *4434:CLK *4378:A1 5.63974e-05
15 *4434:CLK *4378:A2 2.49909e-05
16 *4434:CLK *4766:A 1.56428e-05
17 *4434:CLK *4856:A 0.000179015
18 *4434:CLK *1015:10 0
19 *4486:CLK *3871:B1 0
20 *4486:CLK *3883:A 1.34594e-05
21 *4486:CLK *4369:A 0
22 *4486:CLK *4486:D 7.00889e-06
23 *490:21 *4369:A 0
24 *490:30 *4369:A 0
25 *490:30 *4372:A1 0
26 *490:30 *4372:A3 0
27 *490:39 *4372:A3 0
28 *490:39 *716:65 4.19967e-05
29 *490:39 *716:89 9.49203e-05
30 *490:52 *4378:A1 4.85649e-05
31 *490:52 *716:89 1.1688e-05
32 *3884:B *4486:CLK 0
33 *4093:C *4486:CLK 9.24127e-05
34 *4372:B1 *490:21 0
35 *4372:B1 *490:30 0
36 *4376:B1 *4432:CLK 9.61248e-05
37 *4430:D *490:30 3.59997e-05
38 *4431:D *490:39 3.89528e-05
39 *4432:D *4432:CLK 4.08438e-05
40 *121:19 *4486:CLK 3.25831e-05
41 *121:32 *4486:CLK 0.000233918
42 *123:10 *4486:CLK 0
*RES
1 *4643:X *490:8 6.12 
2 *490:8 *4486:CLK 11.22 
3 *490:8 *490:21 1.89 
4 *490:21 *4430:CLK 3.6 
5 *490:21 *490:30 4.185 
6 *490:30 *4431:CLK 3.6 
7 *490:30 *490:39 4.695 
8 *490:39 *4432:CLK 4.755 
9 *490:39 *490:52 1.89 
10 *490:52 *4433:CLK 7.5 
11 *490:52 *4434:CLK 7.98 
*END

*D_NET *491 0.00614125
*CONN
*I *4418:CLK I *D sky130_fd_sc_hd__dfrtp_2
*I *4423:CLK I *D sky130_fd_sc_hd__dfrtp_2
*I *4419:CLK I *D sky130_fd_sc_hd__dfrtp_2
*I *4422:CLK I *D sky130_fd_sc_hd__dfrtp_2
*I *4530:CLK I *D sky130_fd_sc_hd__dfrtp_2
*I *4524:CLK I *D sky130_fd_sc_hd__dfrtp_2
*I *4644:X O *D sky130_fd_sc_hd__clkbuf_16
*CAP
1 *4418:CLK 3.85135e-05
2 *4423:CLK 0.000126946
3 *4419:CLK 0
4 *4422:CLK 7.95201e-05
5 *4530:CLK 0.000395286
6 *4524:CLK 0.000284863
7 *4644:X 0.000493486
8 *491:51 0.000279087
9 *491:18 0.00104975
10 *491:16 0.000574458
11 *491:14 0.000768331
12 *491:6 0.00102285
13 *4423:CLK *4418:RESET_B 0
14 *4524:CLK *4008:A 0
15 *4524:CLK *4523:RESET_B 4.43871e-06
16 *4524:CLK *876:16 9.37731e-05
17 *4530:CLK *4522:RESET_B 0.00034255
18 *4530:CLK *876:16 3.21052e-05
19 *491:6 *4448:CLK 6.27438e-05
20 *491:14 *4418:RESET_B 0.000167454
21 *491:51 *4418:RESET_B 0
22 *4242:A *491:18 0
23 *4418:D *491:6 3.73473e-05
24 *4419:D *4423:CLK 0
25 *4644:A *4418:CLK 3.54536e-05
26 *4644:A *491:6 3.23663e-05
27 *4644:A *491:14 0.00021992
28 *4644:A *491:16 0
29 *449:284 *491:18 0
30 *450:10 *4524:CLK 0
31 *450:10 *491:18 0
32 *457:10 *491:16 0
33 *457:10 *491:18 0
*RES
1 *4644:X *491:6 7.57 
2 *491:6 *491:14 9.125 
3 *491:14 *491:16 1.89 
4 *491:16 *491:18 5.97 
5 *491:18 *4524:CLK 8.025 
6 *491:18 *4530:CLK 11.295 
7 *491:16 *4422:CLK 4.74 
8 *491:14 *491:51 2.4 
9 *491:51 *4419:CLK 3.6 
10 *491:51 *4423:CLK 5.745 
11 *491:6 *4418:CLK 2.77 
*END

*D_NET *492 0.00479244
*CONN
*I *4526:CLK I *D sky130_fd_sc_hd__dfrtp_2
*I *4525:CLK I *D sky130_fd_sc_hd__dfrtp_2
*I *4509:CLK I *D sky130_fd_sc_hd__dfrtp_2
*I *4510:CLK I *D sky130_fd_sc_hd__dfrtp_2
*I *4511:CLK I *D sky130_fd_sc_hd__dfrtp_2
*I *4512:CLK I *D sky130_fd_sc_hd__dfrtp_2
*I *4645:X O *D sky130_fd_sc_hd__clkbuf_16
*CAP
1 *4526:CLK 0.000276334
2 *4525:CLK 3.37454e-05
3 *4509:CLK 0.000103491
4 *4510:CLK 0
5 *4511:CLK 5.00898e-05
6 *4512:CLK 0.000125215
7 *4645:X 0.000175821
8 *492:58 0.000429758
9 *492:18 0.000348415
10 *492:16 0.000271662
11 *492:10 0.00039241
12 *492:8 0.000485867
13 *4511:CLK *4213:A1 1.91597e-05
14 *4511:CLK *4213:B1 4.77807e-05
15 *4511:CLK *4511:D 8.41384e-05
16 *4512:CLK *4216:B1 0.000114524
17 *4512:CLK *662:16 2.07338e-05
18 *4526:CLK *4662:A 0.000211927
19 *4526:CLK *4682:A 0
20 *4526:CLK *597:20 0
21 *492:8 *4252:B1 2.75145e-05
22 *492:8 *597:20 4.82919e-05
23 *492:8 *597:31 4.99619e-05
24 *492:10 *4252:B1 6.18754e-05
25 *492:10 *597:31 0
26 *492:10 *662:14 0.000119285
27 *492:16 *4211:B1 2.30797e-05
28 *492:16 *4509:D 6.99988e-05
29 *492:16 *662:14 0.000191442
30 *492:18 *4211:B1 0.000205326
31 *492:18 *662:14 0.000217729
32 *492:18 *662:16 0.000305879
33 *492:58 *4525:D 0
34 *4213:A2 *492:18 1.10951e-05
35 *4215:A *4512:CLK 0.000113097
36 *4252:A2 *4526:CLK 0
37 *4252:A2 *492:10 0
38 *4252:A2 *492:58 0
39 *216:8 *4512:CLK 2.98644e-05
40 *216:8 *492:18 0.000126927
*RES
1 *4645:X *492:8 6.465 
2 *492:8 *492:10 4.185 
3 *492:10 *492:16 2.955 
4 *492:16 *492:18 6.225 
5 *492:18 *4512:CLK 6.39 
6 *492:18 *4511:CLK 4.74 
7 *492:16 *4510:CLK 3.6 
8 *492:10 *4509:CLK 5.085 
9 *492:8 *492:58 1.89 
10 *492:58 *4525:CLK 4.05 
11 *492:58 *4526:CLK 8.61 
*END

*D_NET *493 0.00387787
*CONN
*I *4535:CLK I *D sky130_fd_sc_hd__dfrtp_2
*I *4536:CLK I *D sky130_fd_sc_hd__dfrtp_2
*I *4537:CLK I *D sky130_fd_sc_hd__dfrtp_2
*I *4539:CLK I *D sky130_fd_sc_hd__dfrtp_2
*I *4538:CLK I *D sky130_fd_sc_hd__dfrtp_2
*I *4540:CLK I *D sky130_fd_sc_hd__dfrtp_2
*I *4646:X O *D sky130_fd_sc_hd__clkbuf_16
*CAP
1 *4535:CLK 0.000148585
2 *4536:CLK 6.05382e-05
3 *4537:CLK 2.97433e-05
4 *4539:CLK 0
5 *4538:CLK 0
6 *4540:CLK 0.000302223
7 *4646:X 7.91457e-05
8 *493:16 0.000452167
9 *493:14 0.000327911
10 *493:12 0.000398855
11 *493:10 0.000329442
12 *493:8 0.00030549
13 *4535:CLK *4165:B1 2.75145e-05
14 *4535:CLK *4166:A1 0.000125525
15 *4535:CLK *4535:RESET_B 8.49205e-05
16 *4537:CLK *4537:D 6.97202e-05
17 *4537:CLK *542:43 0.000122337
18 *4540:CLK *4176:B1 0.000100932
19 *493:10 *4166:A1 7.70938e-05
20 *493:12 *4166:A1 0.000101118
21 *493:12 *4166:A2 0
22 *493:12 *4168:A1 0
23 *493:12 *4537:D 4.7043e-05
24 *493:12 *652:10 7.63282e-05
25 *493:14 *4168:A1 0
26 *493:14 *4539:D 2.4997e-05
27 *493:14 *542:45 0
28 *493:14 *652:10 0.00020272
29 *493:16 *4176:B1 2.93063e-05
30 *493:16 *4539:D 0.000175933
31 *493:16 *652:10 0.000108664
32 *493:16 *652:12 5.6155e-05
33 *4165:A2 *4535:CLK 1.34594e-05
34 *4168:A2 *493:12 0
*RES
1 *4646:X *493:8 4.395 
2 *493:8 *493:10 1.635 
3 *493:10 *493:12 4.185 
4 *493:12 *493:14 4.185 
5 *493:14 *493:16 4.185 
6 *493:16 *4540:CLK 8.67 
7 *493:16 *4538:CLK 3.6 
8 *493:14 *4539:CLK 3.6 
9 *493:12 *4537:CLK 4.74 
10 *493:10 *4536:CLK 4.395 
11 *493:8 *4535:CLK 7.05 
*END

*D_NET *494 0.00788129
*CONN
*I *4528:CLK I *D sky130_fd_sc_hd__dfrtp_2
*I *4527:CLK I *D sky130_fd_sc_hd__dfrtp_2
*I *4470:CLK I *D sky130_fd_sc_hd__dfrtp_2
*I *4469:CLK I *D sky130_fd_sc_hd__dfrtp_2
*I *4450:CLK I *D sky130_fd_sc_hd__dfrtp_2
*I *4448:CLK I *D sky130_fd_sc_hd__dfstp_2
*I *4647:X O *D sky130_fd_sc_hd__clkbuf_16
*CAP
1 *4528:CLK 0
2 *4527:CLK 0.00029007
3 *4470:CLK 5.79794e-05
4 *4469:CLK 9.26179e-05
5 *4450:CLK 0
6 *4448:CLK 0.000153966
7 *4647:X 1.01446e-05
8 *494:60 0.000587792
9 *494:32 0.000475131
10 *494:23 0.000453747
11 *494:12 0.000456618
12 *494:6 0.000481305
13 *4470:CLK *4470:D 4.40812e-05
14 *4527:CLK *4260:B1 1.34361e-05
15 *4527:CLK *4527:D 2.49909e-05
16 *4527:CLK *4662:A 0.000180689
17 *4527:CLK *597:10 0.000114492
18 *4527:CLK *608:14 0.000114295
19 *4527:CLK *608:16 0.000322604
20 *4527:CLK *663:57 0
21 *4527:CLK *879:25 4.29107e-05
22 *494:6 *4012:A 3.74161e-05
23 *494:12 *3909:B 0.000181376
24 *494:12 *4012:A 8.65905e-05
25 *494:23 *3909:B 0.000118527
26 *494:32 *3954:B 6.0236e-05
27 *494:32 *4450:D 5.42303e-05
28 *494:32 *4469:D 0.000319174
29 *494:32 *4470:D 7.75325e-05
30 *494:60 *4260:B1 3.76596e-05
31 *494:60 *4663:A 0.000220186
32 *494:60 *608:14 0.000177723
33 *494:60 *884:10 3.86529e-05
34 *3911:A *4469:CLK 0
35 *3913:B2 *4470:CLK 7.18738e-05
36 *3913:B2 *494:32 0.000273272
37 *4011:D *4527:CLK 0.000337538
38 *4256:A *4527:CLK 6.74079e-05
39 *4257:A2 *4527:CLK 8.08153e-06
40 *4261:A1 *494:12 0.000226848
41 *4261:A1 *494:60 0.000226052
42 *4262:B *494:12 0
43 *4262:B *494:60 6.73424e-05
44 *86:21 *4469:CLK 0.000158965
45 *107:47 *494:12 8.60912e-05
46 *107:47 *494:23 0.000281004
47 *111:18 *4448:CLK 0.000168213
48 *111:18 *494:23 2.24905e-05
49 *111:28 *494:23 0.000103192
50 *111:28 *494:32 0.000229584
51 *138:25 *494:23 0
52 *138:25 *494:32 0
53 *148:12 *4470:CLK 0
54 *148:12 *494:32 0
55 *224:49 *4527:CLK 8.88715e-05
56 *227:10 *494:60 0
57 *449:266 *494:6 2.75229e-05
58 *449:266 *494:12 4.80285e-05
59 *491:6 *4448:CLK 6.27438e-05
*RES
1 *4647:X *494:6 2.05 
2 *494:6 *494:12 7.235 
3 *494:12 *4448:CLK 7.155 
4 *494:12 *494:23 4.185 
5 *494:23 *4450:CLK 3.6 
6 *494:23 *494:32 10.56 
7 *494:32 *4469:CLK 5.445 
8 *494:32 *4470:CLK 5.235 
9 *494:6 *494:60 10.82 
10 *494:60 *4527:CLK 13.095 
11 *494:60 *4528:CLK 3.6 
*END

*D_NET *495 0.00827998
*CONN
*I *4406:CLK I *D sky130_fd_sc_hd__dfrtp_2
*I *4449:CLK I *D sky130_fd_sc_hd__dfrtp_2
*I *4425:CLK I *D sky130_fd_sc_hd__dfrtp_2
*I *4409:CLK I *D sky130_fd_sc_hd__dfrtp_2
*I *4529:CLK I *D sky130_fd_sc_hd__dfrtp_2
*I *4471:CLK I *D sky130_fd_sc_hd__dfrtp_2
*I *4652:A I *D sky130_fd_sc_hd__clkbuf_4
*I *4648:X O *D sky130_fd_sc_hd__clkbuf_16
*CAP
1 *4406:CLK 0.000342628
2 *4449:CLK 0.000368023
3 *4425:CLK 0
4 *4409:CLK 0.000107357
5 *4529:CLK 0.000603592
6 *4471:CLK 0.000186986
7 *4652:A 1.71225e-05
8 *4648:X 0
9 *495:44 0.000710949
10 *495:33 0.000390331
11 *495:23 0.000339547
12 *495:15 0.000504226
13 *495:6 0.00039157
14 *495:4 0.000717075
15 *4406:CLK *3851:A1 0
16 *4406:CLK *3915:A0 0
17 *4406:CLK *3930:A2 0
18 *4406:CLK *501:14 0
19 *4406:CLK *518:14 0
20 *4406:CLK *519:38 0.000139933
21 *4406:CLK *752:19 0
22 *4409:CLK *3849:A2 0.000295279
23 *4409:CLK *3870:A1 4.70117e-05
24 *4409:CLK *3870:A2 2.1883e-05
25 *4409:CLK *3870:C1 2.49909e-05
26 *4449:CLK *3846:B 0.000116158
27 *4449:CLK *3847:B1 0.000158297
28 *4449:CLK *518:46 0
29 *4449:CLK *751:10 0.0001032
30 *4471:CLK *3870:C1 0.000116151
31 *4471:CLK *4360:A1 0.000122663
32 *4471:CLK *4471:D 0
33 *4471:CLK *747:55 2.92496e-05
34 *4529:CLK *3849:A2 4.66108e-05
35 *4529:CLK *3870:C1 5.83121e-06
36 *4529:CLK *4528:RESET_B 2.65814e-06
37 *4652:A *669:50 8.65905e-05
38 *495:6 *669:50 0.000570045
39 *495:23 *4425:RESET_B 8.65905e-05
40 *495:33 *3851:A2 4.9968e-05
41 *495:33 *3870:C1 5.23362e-05
42 *495:33 *4425:RESET_B 2.0514e-05
43 *495:33 *747:55 0.000152127
44 *3851:A3 *4449:CLK 0
45 *3869:B *495:23 0
46 *3869:B *495:33 3.09233e-05
47 *3870:B1 *4409:CLK 1.47347e-05
48 *3870:B1 *4529:CLK 2.67184e-05
49 *3870:B1 *495:33 0.000148455
50 *4349:A3 *4449:CLK 4.19797e-05
51 *4359:B *4449:CLK 0.000126561
52 *4359:B *495:23 7.17811e-05
53 *4359:B *495:33 0
54 *4360:B1 *4471:CLK 0
55 *4409:D *4409:CLK 1.83847e-05
56 *4425:D *495:33 0.00017225
57 *4648:A *4652:A 5.05437e-05
58 *4648:A *495:6 8.30487e-05
59 *4677:A *4471:CLK 0
60 *96:12 *4449:CLK 0.000177723
61 *98:16 *4449:CLK 0.000176647
62 *111:10 *4449:CLK 6.15428e-05
63 *111:61 *4449:CLK 7.25036e-05
64 *160:27 *4449:CLK 5.12017e-06
65 *449:241 *4529:CLK 7.35729e-05
*RES
1 *4648:X *495:4 1.6 
2 *495:4 *495:6 7.35 
3 *495:6 *4652:A 2.395 
4 *495:6 *495:15 2 
5 *495:15 *495:23 4.79 
6 *495:23 *495:33 7.7 
7 *495:33 *4471:CLK 7.275 
8 *495:33 *495:44 2 
9 *495:44 *4529:CLK 10.345 
10 *495:44 *4409:CLK 4.825 
11 *495:23 *4425:CLK 1.6 
12 *495:15 *4449:CLK 13.905 
13 *495:4 *4406:CLK 11.27 
*END

*D_NET *496 0.0075771
*CONN
*I *4473:CLK I *D sky130_fd_sc_hd__dfrtp_2
*I *4472:CLK I *D sky130_fd_sc_hd__dfrtp_2
*I *4499:CLK I *D sky130_fd_sc_hd__dfrtp_2
*I *4498:CLK I *D sky130_fd_sc_hd__dfrtp_2
*I *4497:CLK I *D sky130_fd_sc_hd__dfrtp_2
*I *4496:CLK I *D sky130_fd_sc_hd__dfrtp_2
*I *4495:CLK I *D sky130_fd_sc_hd__dfrtp_2
*I *4649:X O *D sky130_fd_sc_hd__clkbuf_16
*CAP
1 *4473:CLK 0
2 *4472:CLK 0.000165892
3 *4499:CLK 0.000231343
4 *4498:CLK 2.09808e-05
5 *4497:CLK 0.000195285
6 *4496:CLK 0.000208185
7 *4495:CLK 6.77272e-05
8 *4649:X 0.00045849
9 *496:88 0.000529156
10 *496:46 0.000247561
11 *496:24 0.000511422
12 *496:22 0.000750999
13 *496:8 0.000810763
14 *4472:CLK *714:20 0.000339198
15 *4495:CLK *4281:A 0.000155056
16 *4495:CLK *4282:B1 5.72299e-05
17 *4495:CLK *4496:D 7.25517e-05
18 *4496:CLK *4496:D 0.000105928
19 *4497:CLK *4283:A 0.000224151
20 *4499:CLK *4285:A 5.09929e-05
21 *4499:CLK *4287:A 7.03219e-05
22 *4499:CLK *4499:D 1.01155e-05
23 *4499:CLK *683:38 0.000453287
24 *496:22 *4497:D 5.71481e-05
25 *496:22 *4827:A 7.01359e-05
26 *496:24 *4281:A 0.000104599
27 *496:24 *4282:B1 1.25877e-05
28 *496:24 *4496:D 0.000134379
29 *496:88 *714:20 0.000141592
30 *4283:B *4497:CLK 4.77757e-05
31 *4283:B *496:22 2.84864e-05
32 *4283:B *496:24 0.000237667
33 *4283:B *496:46 8.35068e-05
34 *4284:A1 *496:22 2.14655e-05
35 *4284:A2 *4497:CLK 2.47221e-05
36 *4284:A2 *496:22 0.000260772
37 *4284:A2 *496:24 9.46466e-05
38 *4284:A2 *496:46 9.43331e-06
39 *4286:A2 *4499:CLK 0.00019685
40 *4473:D *4472:CLK 0
41 *203:21 *496:24 0.000136296
42 *204:16 *496:8 8.23457e-05
43 *204:16 *496:22 8.23457e-05
44 *205:10 *4499:CLK 1.37112e-05
*RES
1 *4649:X *496:8 3.1 
2 *496:8 *496:22 10.085 
3 *496:22 *496:24 6.48 
4 *496:24 *4495:CLK 5.745 
5 *496:24 *4496:CLK 7.155 
6 *496:22 *496:46 2.795 
7 *496:46 *4497:CLK 9.41 
8 *496:46 *4498:CLK 1.96 
9 *496:8 *4499:CLK 12.08 
10 *4649:X *496:88 8.445 
11 *496:88 *4472:CLK 7.53 
12 *496:88 *4473:CLK 3.6 
*END

*D_NET *497 0.00652354
*CONN
*I *4417:CLK I *D sky130_fd_sc_hd__dfrtp_2
*I *4421:CLK I *D sky130_fd_sc_hd__dfrtp_2
*I *4464:CLK I *D sky130_fd_sc_hd__dfrtp_2
*I *4468:CLK I *D sky130_fd_sc_hd__dfrtp_2
*I *4467:CLK I *D sky130_fd_sc_hd__dfrtp_2
*I *4463:CLK I *D sky130_fd_sc_hd__dfrtp_2
*I *4653:A I *D sky130_fd_sc_hd__clkbuf_4
*I *4650:X O *D sky130_fd_sc_hd__clkbuf_16
*CAP
1 *4417:CLK 0
2 *4421:CLK 0.00019311
3 *4464:CLK 0
4 *4468:CLK 0.000188997
5 *4467:CLK 0.000183531
6 *4463:CLK 0
7 *4653:A 2.82699e-05
8 *4650:X 0.000257445
9 *497:77 0.000575065
10 *497:44 0.000454402
11 *497:35 0.000307722
12 *497:29 0.000464568
13 *497:27 0.0010088
14 *497:10 0.000673839
15 *4421:CLK *4417:RESET_B 0
16 *4421:CLK *642:28 0.000132721
17 *4468:CLK *4702:A 1.08758e-05
18 *4468:CLK *714:20 0.000111022
19 *4653:A *672:55 2.93063e-05
20 *497:10 *672:55 4.28112e-06
21 *497:10 *672:89 4.4022e-05
22 *497:27 *3908:C 8.52972e-05
23 *497:35 *714:20 0.000124993
24 *497:44 *714:20 8.22287e-05
25 *497:77 *3898:C 9.19585e-05
26 *497:77 *3899:A 0
27 *497:77 *4417:RESET_B 0
28 *497:77 *4472:RESET_B 0.000355173
29 *497:77 *4746:A 4.49328e-05
30 *497:77 *4747:A 0
31 *497:77 *503:10 0
32 *497:77 *642:28 8.3215e-05
33 *497:77 *684:46 5.20193e-05
34 *497:77 *684:48 0.000336855
35 *3908:A *497:27 6.18661e-05
36 *4054:A1 *4467:CLK 8.53011e-05
37 *4417:D *497:77 0
38 *4421:D *4421:CLK 8.53113e-06
39 *4464:D *4467:CLK 8.52972e-05
40 *4467:D *4467:CLK 7.39411e-05
41 *4467:D *4468:CLK 5.14627e-05
42 *142:14 *497:10 8.33066e-06
43 *261:41 *497:27 0.000138123
44 *261:41 *497:29 8.60386e-05
*RES
1 *4650:X *497:10 6.9 
2 *497:10 *4653:A 4.215 
3 *497:10 *497:27 8.78 
4 *497:27 *497:29 3.9 
5 *497:29 *497:35 6.38 
6 *497:35 *4463:CLK 3.6 
7 *497:35 *497:44 1.89 
8 *497:44 *4467:CLK 7.275 
9 *497:44 *4468:CLK 7.485 
10 *497:29 *4464:CLK 1.6 
11 *497:27 *497:77 12.305 
12 *497:77 *4421:CLK 7.41 
13 *497:77 *4417:CLK 3.6 
*END

*D_NET *498 0.0065484
*CONN
*I *4744:A I *D sky130_fd_sc_hd__dlygate4sd3_1
*I *4349:B2 I *D sky130_fd_sc_hd__o32a_2
*I *4415:Q O *D sky130_fd_sc_hd__dfrtp_2
*CAP
1 *4744:A 0.000160758
2 *4349:B2 0.0016841
3 *4415:Q 0.000760854
4 *498:14 0.00260571
5 *4349:B2 *3910:B 9.89099e-05
6 *4349:B2 *3910:C 8.35683e-05
7 *4349:B2 *3910:D 1.56428e-05
8 *4349:B2 *4068:B 1.19928e-05
9 *4349:B2 *4361:A0 4.58257e-05
10 *4349:B2 *4361:S 0.000227047
11 *4349:B2 *732:10 5.4003e-05
12 *4744:A *3950:A1 5.3468e-05
13 *4744:A *4361:A0 7.2718e-05
14 *4744:A *4403:RESET_B 0
15 *498:14 *3952:B1 6.97528e-06
16 *498:14 *4361:S 0.000154106
17 *498:14 *4415:RESET_B 9.70956e-05
18 *498:14 *713:12 0.000249921
19 *4068:C *4349:B2 2.75229e-05
20 *4349:A3 *4349:B2 8.53113e-06
21 *165:6 *4744:A 2.69217e-05
22 *261:69 *4349:B2 1.23244e-05
23 *428:8 *4349:B2 1.96009e-05
24 *482:8 *4349:B2 7.08049e-05
*RES
1 *4415:Q *498:14 15.965 
2 *498:14 *4349:B2 26.075 
3 *498:14 *4744:A 8.705 
*END

*D_NET *499 0.00319074
*CONN
*I *4751:A I *D sky130_fd_sc_hd__dlygate4sd3_1
*I *4353:B2 I *D sky130_fd_sc_hd__o32a_2
*I *4407:Q O *D sky130_fd_sc_hd__dfrtp_2
*CAP
1 *4751:A 0.000514088
2 *4353:B2 0.000591026
3 *4407:Q 0
4 *499:4 0.00110511
5 *4353:B2 *4071:A1 0.000275553
6 *4353:B2 *668:10 0.00011485
7 *4751:A *4072:A1 7.00889e-06
8 *3941:A *4751:A 1.12578e-05
9 *4349:A3 *4353:B2 7.89767e-05
10 *4410:CLK *4751:A 0.000335623
11 *264:8 *4353:B2 0.000141599
12 *449:13 *4751:A 0
13 *482:27 *4751:A 1.56428e-05
*RES
1 *4407:Q *499:4 1.6 
2 *499:4 *4353:B2 16.325 
3 *499:4 *4751:A 13.28 
*END

*D_NET *500 0.00420773
*CONN
*I *3944:B1 I *D sky130_fd_sc_hd__a21o_2
*I *3915:A1 I *D sky130_fd_sc_hd__mux2_1
*I *4799:A I *D sky130_fd_sc_hd__dlygate4sd3_1
*I *4409:Q O *D sky130_fd_sc_hd__dfrtp_2
*CAP
1 *3944:B1 0.000550639
2 *3915:A1 0.000840222
3 *4799:A 3.46091e-05
4 *4409:Q 0.00036029
5 *500:10 0.000684483
6 *3915:A1 *3850:A_N 2.0514e-05
7 *3915:A1 *3915:A0 4.82863e-05
8 *3915:A1 *3915:S 4.66108e-05
9 *3915:A1 *4360:B2 8.53113e-06
10 *3915:A1 *4409:RESET_B 0.000135941
11 *3915:A1 *4688:A 5.8887e-05
12 *3915:A1 *669:46 0.000342349
13 *3915:A1 *669:76 0.00012904
14 *3944:B1 *3850:A_N 4.66108e-05
15 *3944:B1 *3915:A0 0.000268628
16 *3944:B1 *3944:A1 6.05011e-05
17 *3944:B1 *4836:A 1.19928e-05
18 *4799:A *3851:A1 1.96741e-05
19 *500:10 *4360:B2 0.000114492
20 *500:10 *4409:RESET_B 0.000159007
21 *3933:A2 *3915:A1 1.07797e-05
22 *3945:B2 *3944:B1 4.82863e-05
23 *107:92 *3915:A1 0
24 *107:111 *500:10 0.000174201
25 *162:16 *3915:A1 0
26 *449:226 *4799:A 3.31532e-05
*RES
1 *4409:Q *500:10 9.225 
2 *500:10 *4799:A 4.515 
3 *500:10 *3915:A1 11.175 
4 *3915:A1 *3944:B1 10.475 
*END

*D_NET *501 0.00206106
*CONN
*I *3915:A0 I *D sky130_fd_sc_hd__mux2_1
*I *4772:A I *D sky130_fd_sc_hd__dlygate4sd3_1
*I *3933:B1 I *D sky130_fd_sc_hd__a21o_2
*I *4401:Q O *D sky130_fd_sc_hd__dfrtp_2
*CAP
1 *3915:A0 0.000220453
2 *4772:A 9.87186e-05
3 *3933:B1 2.9853e-05
4 *4401:Q 7.91457e-05
5 *501:14 0.000278891
6 *501:8 0.000449918
7 *3915:A0 *3850:A_N 8.40213e-05
8 *3915:A0 *3915:S 1.91597e-05
9 *3915:A0 *4836:A 8.65905e-05
10 *3915:A0 *518:14 2.92496e-05
11 *3915:A0 *519:38 0.00010492
12 *501:14 *519:26 0
13 *501:14 *519:38 0
14 *3915:A1 *3915:A0 4.82863e-05
15 *3934:B2 *3915:A0 5.92191e-05
16 *3934:B2 *4772:A 8.65961e-05
17 *3934:B2 *501:14 0.00011741
18 *3944:B1 *3915:A0 0.000268628
19 *4406:CLK *3915:A0 0
20 *4406:CLK *501:14 0
*RES
1 *4401:Q *501:8 4.395 
2 *501:8 *501:14 5.105 
3 *501:14 *3933:B1 2.05 
4 *501:14 *4772:A 3.43 
5 *501:8 *3915:A0 10.17 
*END

*D_NET *502 0.0016767
*CONN
*I *4773:A I *D sky130_fd_sc_hd__dlygate4sd3_1
*I *3897:A1 I *D sky130_fd_sc_hd__o21a_2
*I *4461:Q O *D sky130_fd_sc_hd__dfrtp_2
*CAP
1 *4773:A 0.000235949
2 *3897:A1 0.000396869
3 *4461:Q 0
4 *502:6 0.000632817
5 *3897:A1 *541:10 0.00028825
6 *3897:A1 *668:23 0.000122817
*RES
1 *4461:Q *502:6 3.6 
2 *502:6 *3897:A1 11.865 
3 *502:6 *4773:A 7.395 
*END

*D_NET *503 0.00117491
*CONN
*I *4747:A I *D sky130_fd_sc_hd__dlygate4sd3_1
*I *3898:B I *D sky130_fd_sc_hd__or3_2
*I *4472:Q O *D sky130_fd_sc_hd__dfrtp_2
*CAP
1 *4747:A 3.67181e-05
2 *3898:B 0.000269669
3 *4472:Q 0.000136377
4 *503:10 0.000442764
5 *3898:B *3898:A 0.000123389
6 *3898:B *4066:A 0.00016063
7 *4417:D *503:10 5.36384e-06
8 *497:77 *4747:A 0
9 *497:77 *503:10 0
*RES
1 *4472:Q *503:10 5.265 
2 *503:10 *3898:B 7.155 
3 *503:10 *4747:A 4.215 
*END

*D_NET *504 0.00141943
*CONN
*I *4746:A I *D sky130_fd_sc_hd__dlygate4sd3_1
*I *3898:C I *D sky130_fd_sc_hd__or3_2
*I *4473:Q O *D sky130_fd_sc_hd__dfrtp_2
*CAP
1 *4746:A 3.39547e-05
2 *3898:C 0.00014379
3 *4473:Q 0
4 *504:6 0.000177744
5 *3898:C *3898:A 0.000310389
6 *3900:C *3898:C 0.000187759
7 *3900:C *4746:A 0.000120186
8 *266:10 *3898:C 0.000308713
9 *497:77 *3898:C 9.19585e-05
10 *497:77 *4746:A 4.49328e-05
*RES
1 *4473:Q *504:6 3.6 
2 *504:6 *3898:C 9.12 
3 *504:6 *4746:A 4.98 
*END

*D_NET *505 0.00245854
*CONN
*I *4738:A I *D sky130_fd_sc_hd__dlygate4sd3_1
*I *3901:B I *D sky130_fd_sc_hd__or3_2
*I *4457:Q O *D sky130_fd_sc_hd__dfrtp_2
*CAP
1 *4738:A 0.000181061
2 *3901:B 0.000445727
3 *4457:Q 0.000626788
4 *3901:B *4064:A2 0.00015871
5 *3901:B *668:31 1.54665e-05
6 *3904:B *4738:A 0.000105654
7 *3905:A1 *3901:B 2.41307e-05
8 *3905:A1 *4738:A 4.28112e-06
9 *3905:A3 *3901:B 0.000134756
10 *4064:A3 *3901:B 5.36364e-05
11 *4458:D *3901:B 0.000429061
12 *4458:D *4738:A 0.000114649
13 *86:71 *4738:A 4.77807e-05
14 *259:38 *4738:A 6.78126e-05
15 *449:57 *4738:A 4.90291e-05
*RES
1 *4457:Q *3901:B 14.7 
2 *4457:Q *4738:A 11.865 
*END

*D_NET *506 0.00154727
*CONN
*I *4848:A I *D sky130_fd_sc_hd__dlygate4sd3_1
*I *3901:C I *D sky130_fd_sc_hd__or3_2
*I *4458:Q O *D sky130_fd_sc_hd__dfrtp_2
*CAP
1 *4848:A 6.2576e-05
2 *3901:C 0.000300901
3 *4458:Q 9.9353e-05
4 *506:8 0.00046283
5 *3901:C *3837:A 0.000135258
6 *3901:C *4063:A1 6.29998e-05
7 *3901:C *666:58 4.28112e-06
8 *4848:A *4063:A1 0.000127436
9 *4848:A *4063:A2 0.000158845
10 *506:8 *4063:A2 3.21772e-05
11 *3905:A2 *3901:C 3.32959e-05
12 *4457:D *3901:C 3.54721e-05
13 *4457:D *4848:A 3.18465e-05
*RES
1 *4458:Q *506:8 4.74 
2 *506:8 *3901:C 9.315 
3 *506:8 *4848:A 6.255 
*END

*D_NET *507 0.00222683
*CONN
*I *4759:A I *D sky130_fd_sc_hd__dlygate4sd3_1
*I *3893:A2 I *D sky130_fd_sc_hd__o311a_2
*I *4459:Q O *D sky130_fd_sc_hd__dfrtp_2
*CAP
1 *4759:A 0.000190247
2 *3893:A2 0.000241135
3 *4459:Q 0
4 *507:6 0.000431382
5 *3893:A2 *3893:A3 0.000553164
6 *3893:A2 *3893:C1 8.73525e-05
7 *4759:A *3893:A3 0.00019231
8 *4759:A *4753:A 5.7627e-05
9 *4056:A *4759:A 7.9642e-06
10 *4056:B *4759:A 8.46818e-05
11 *4058:A3 *3893:A2 4.87759e-05
12 *4058:A3 *4759:A 0.00020687
13 *4623:A *4759:A 0.000121039
14 *264:8 *3893:A2 4.28112e-06
*RES
1 *4459:Q *507:6 3.6 
2 *507:6 *3893:A2 9.825 
3 *507:6 *4759:A 9.99 
*END

*D_NET *508 0.00228253
*CONN
*I *4753:A I *D sky130_fd_sc_hd__dlygate4sd3_1
*I *3893:A3 I *D sky130_fd_sc_hd__o311a_2
*I *4460:Q O *D sky130_fd_sc_hd__dfrtp_2
*CAP
1 *4753:A 0.000144347
2 *3893:A3 0.000341256
3 *4460:Q 0
4 *508:6 0.000485603
5 *4753:A *4730:A 2.75229e-05
6 *3893:A2 *3893:A3 0.000553164
7 *4055:B *4753:A 0.000112799
8 *4056:A *4753:A 6.89164e-05
9 *4759:A *3893:A3 0.00019231
10 *4759:A *4753:A 5.7627e-05
11 *261:69 *3893:A3 0.000248856
12 *261:69 *4753:A 4.3584e-05
13 *264:8 *3893:A3 6.54361e-06
*RES
1 *4460:Q *508:6 3.6 
2 *508:6 *3893:A3 12.705 
3 *508:6 *4753:A 7.47 
*END

*D_NET *509 0.00165423
*CONN
*I *3842:A I *D sky130_fd_sc_hd__inv_2
*I *3897:A2 I *D sky130_fd_sc_hd__o21a_2
*I *4462:Q O *D sky130_fd_sc_hd__dfrtp_2
*CAP
1 *3842:A 0
2 *3897:A2 0.000105093
3 *4462:Q 0.000370643
4 *509:10 0.000475736
5 *3897:A2 *4058:B1 3.12855e-05
6 *3897:A2 *541:10 0.000136685
7 *3897:A2 *668:23 4.77807e-05
8 *509:10 *4058:B1 0.000319034
9 *470:18 *509:10 0.000167973
*RES
1 *4462:Q *509:10 11.085 
2 *509:10 *3897:A2 5.94 
3 *509:10 *3842:A 3.6 
*END

*D_NET *510 0.00221442
*CONN
*I *4843:A I *D sky130_fd_sc_hd__dlygate4sd3_1
*I *3899:A I *D sky130_fd_sc_hd__or3b_2
*I *4463:Q O *D sky130_fd_sc_hd__dfrtp_2
*CAP
1 *4843:A 0.000146077
2 *3899:A 0.000167165
3 *4463:Q 5.94066e-05
4 *510:8 0.000372648
5 *3899:A *3899:B 0.000352237
6 *3899:A *4735:A 8.14286e-05
7 *510:8 *4735:A 0.000156791
8 *3900:C *3899:A 6.73665e-05
9 *3900:D *3899:A 2.60908e-05
10 *4613:A *4843:A 5.64423e-05
11 *4649:A *3899:A 0.000151749
12 *4649:A *510:8 1.21329e-05
13 *4650:A *4843:A 2.69153e-05
14 *142:20 *4843:A 0.000455159
15 *449:94 *4843:A 4.95937e-05
16 *449:94 *510:8 3.32132e-05
17 *497:77 *3899:A 0
*RES
1 *4463:Q *510:8 5.49 
2 *510:8 *3899:A 9.315 
3 *510:8 *4843:A 8.205 
*END

*D_NET *511 0.00257848
*CONN
*I *4735:A I *D sky130_fd_sc_hd__dlygate4sd3_1
*I *3899:B I *D sky130_fd_sc_hd__or3b_2
*I *4464:Q O *D sky130_fd_sc_hd__dfrtp_2
*CAP
1 *4735:A 0.000387539
2 *3899:B 0.000185739
3 *4464:Q 0
4 *511:6 0.000573278
5 *4735:A *4049:A 2.49909e-05
6 *4735:A *4467:RESET_B 0.000138106
7 *4735:A *684:8 0.000161679
8 *3899:A *3899:B 0.000352237
9 *3899:A *4735:A 8.14286e-05
10 *3900:D *3899:B 0.000138596
11 *3908:D *3899:B 4.14392e-05
12 *3908:D *4735:A 3.72007e-05
13 *449:94 *4735:A 9.95691e-06
14 *461:20 *4735:A 0.000289504
15 *510:8 *4735:A 0.000156791
*RES
1 *4464:Q *511:6 3.6 
2 *511:6 *3899:B 8.235 
3 *511:6 *4735:A 13.695 
*END

*D_NET *512 0.000924533
*CONN
*I *4840:A I *D sky130_fd_sc_hd__dlygate4sd3_1
*I *3902:A I *D sky130_fd_sc_hd__or3b_2
*I *4465:Q O *D sky130_fd_sc_hd__dfrtp_2
*CAP
1 *4840:A 3.31611e-05
2 *3902:A 9.2158e-05
3 *4465:Q 0.000179941
4 *512:6 0.00030526
5 *3902:A *691:19 6.52906e-05
6 *3902:A *691:32 8.57024e-05
7 *463:8 *3902:A 0.000163019
*RES
1 *4465:Q *512:6 4.12 
2 *512:6 *3902:A 8.285 
3 *512:6 *4840:A 2.05 
*END

*D_NET *513 0.00178073
*CONN
*I *4841:A I *D sky130_fd_sc_hd__dlygate4sd3_1
*I *3902:B I *D sky130_fd_sc_hd__or3b_2
*I *4466:Q O *D sky130_fd_sc_hd__dfrtp_2
*CAP
1 *4841:A 0.000287567
2 *3902:B 0.000122928
3 *4466:Q 0.000243045
4 *513:8 0.00065354
5 *4841:A *4583:D 0
6 *3962:B *4841:A 0
7 *4583:CLK *3902:B 0
8 *4583:CLK *4841:A 0
9 *463:8 *3902:B 0.000249921
10 *463:8 *4841:A 0.000223727
*RES
1 *4466:Q *513:8 6.12 
2 *513:8 *3902:B 6.51 
3 *513:8 *4841:A 8.775 
*END

*D_NET *514 0.00217953
*CONN
*I *4754:A I *D sky130_fd_sc_hd__dlygate4sd3_1
*I *3908:B I *D sky130_fd_sc_hd__or4_2
*I *4467:Q O *D sky130_fd_sc_hd__dfrtp_2
*CAP
1 *4754:A 0.00021059
2 *3908:B 0.00017251
3 *4467:Q 0.000111368
4 *514:8 0.000494467
5 *3908:B *3908:C 0.000412943
6 *4754:A *3908:C 0.00029027
7 *4754:A *4748:A 0.000108322
8 *4754:A *714:61 0.00011577
9 *3908:D *3908:B 2.41231e-05
10 *461:20 *3908:B 8.09092e-05
11 *461:20 *4754:A 0.000158254
*RES
1 *4467:Q *514:8 4.74 
2 *514:8 *3908:B 8.55 
3 *514:8 *4754:A 10.125 
*END

*D_NET *515 0.00241351
*CONN
*I *4748:A I *D sky130_fd_sc_hd__dlygate4sd3_1
*I *3908:C I *D sky130_fd_sc_hd__or4_2
*I *4468:Q O *D sky130_fd_sc_hd__dfrtp_2
*CAP
1 *4748:A 0.000191578
2 *3908:C 0.000313021
3 *4468:Q 9.41333e-05
4 *515:8 0.000598733
5 *3908:A *3908:C 2.88357e-05
6 *3908:B *3908:C 0.000412943
7 *4047:A *3908:C 4.95554e-05
8 *4457:CLK *3908:C 0
9 *4457:CLK *4748:A 0
10 *4754:A *3908:C 0.00029027
11 *4754:A *4748:A 0.000108322
12 *142:14 *3908:C 0.000150581
13 *260:14 *515:8 8.65905e-05
14 *261:41 *3908:C 3.64998e-06
15 *461:20 *4748:A 0
16 *497:27 *3908:C 8.52972e-05
*RES
1 *4468:Q *515:8 4.74 
2 *515:8 *3908:C 13.17 
3 *515:8 *4748:A 7.02 
*END

*D_NET *516 0.000426036
*CONN
*I *3894:A I *D sky130_fd_sc_hd__nor2_2
*I *4761:A I *D sky130_fd_sc_hd__dlygate4sd3_1
*I *4474:Q O *D sky130_fd_sc_hd__dfrtp_2
*CAP
1 *3894:A 5.53712e-05
2 *4761:A 8.39729e-05
3 *4474:Q 0
4 *516:4 0.000139344
5 *4761:A *3894:B 0
6 *4761:A *4475:RESET_B 9.428e-05
7 *3895:D *3894:A 5.30673e-05
*RES
1 *4474:Q *516:4 1.6 
2 *516:4 *4761:A 7.49 
3 *516:4 *3894:A 2.755 
*END

*D_NET *517 0.00127682
*CONN
*I *3894:B I *D sky130_fd_sc_hd__nor2_2
*I *4800:A I *D sky130_fd_sc_hd__dlygate4sd3_1
*I *4475:Q O *D sky130_fd_sc_hd__dfrtp_2
*CAP
1 *3894:B 0.000242281
2 *4800:A 0.000157896
3 *4475:Q 0.000400177
4 *3894:B *4475:RESET_B 0
5 *3894:B *742:26 0.000178496
6 *4800:A *4072:A1 2.49909e-05
7 *4800:A *742:26 0.000272978
8 *4761:A *3894:B 0
*RES
1 *4475:Q *4800:A 6.41 
2 *4475:Q *3894:B 12.015 
*END

*D_NET *518 0.00685409
*CONN
*I *3930:A1 I *D sky130_fd_sc_hd__a21bo_2
*I *3847:A1 I *D sky130_fd_sc_hd__o21ai_2
*I *3942:B I *D sky130_fd_sc_hd__and4b_2
*I *3846:A I *D sky130_fd_sc_hd__nor2_2
*I *3870:A1 I *D sky130_fd_sc_hd__o211a_2
*I *3944:A1 I *D sky130_fd_sc_hd__a21o_2
*I *4836:A I *D sky130_fd_sc_hd__dlygate4sd3_1
*I *4414:Q O *D sky130_fd_sc_hd__dfrtp_2
*CAP
1 *3930:A1 1.85694e-05
2 *3847:A1 6.87418e-05
3 *3942:B 0.000207274
4 *3846:A 2.76541e-05
5 *3870:A1 0.000397156
6 *3944:A1 0.000155232
7 *4836:A 5.81133e-05
8 *4414:Q 0.000157365
9 *518:48 0.000473967
10 *518:46 0.000364503
11 *518:42 0.00026598
12 *518:38 0.000656086
13 *518:14 0.000336392
14 *518:10 0.000828762
15 *3847:A1 *3847:A2 0.000139245
16 *3870:A1 *3870:A2 4.51241e-05
17 *3870:A1 *4471:D 0.000113797
18 *3942:B *3846:B 1.91597e-05
19 *3942:B *3847:B1 1.48096e-05
20 *518:38 *3930:A2 0.00014132
21 *518:42 *3846:B 2.04337e-05
22 *518:42 *519:53 1.29961e-05
23 *518:46 *3846:B 8.08153e-06
24 *518:46 *3847:A2 1.44177e-05
25 *518:46 *519:49 1.44259e-05
26 *3851:A3 *3942:B 8.49205e-05
27 *3851:B1 *3870:A1 4.1977e-05
28 *3915:A0 *4836:A 8.65905e-05
29 *3915:A0 *518:14 2.92496e-05
30 *3934:B2 *518:10 7.06865e-05
31 *3934:B2 *518:14 0.000248268
32 *3943:A *3944:A1 1.85674e-05
33 *3944:B1 *3944:A1 6.05011e-05
34 *3944:B1 *4836:A 1.19928e-05
35 *3945:B2 *3944:A1 3.00381e-05
36 *4359:B *3870:A1 0.000550981
37 *4359:B *518:46 1.07797e-05
38 *4359:B *518:48 5.65627e-05
39 *4406:CLK *518:14 0
40 *4406:D *518:38 5.05437e-05
41 *4409:CLK *3870:A1 4.70117e-05
42 *4425:D *3870:A1 0
43 *4449:CLK *518:46 0
44 *98:16 *3846:A 0.000119756
45 *111:65 *518:10 1.16762e-05
46 *150:18 *3846:A 0.000122331
47 *160:10 *3847:A1 0
48 *160:10 *518:46 4.43871e-06
49 *160:27 *3847:A1 4.18603e-06
50 *162:16 *3870:A1 0.000289772
51 *162:16 *518:46 4.43871e-06
52 *162:16 *518:48 6.10014e-05
53 *167:35 *3942:B 8.49205e-05
54 *167:35 *518:38 0.000146192
55 *167:35 *518:42 4.7101e-05
*RES
1 *4414:Q *518:10 5.61 
2 *518:10 *518:14 4.91 
3 *518:14 *4836:A 2.74 
4 *518:14 *3944:A1 4.48 
5 *518:10 *518:38 9.47 
6 *518:38 *518:42 3.485 
7 *518:42 *518:46 1.92 
8 *518:46 *518:48 1.38 
9 *518:48 *3870:A1 13.6012 
10 *518:48 *3846:A 4.74 
11 *518:46 *3942:B 6.12 
12 *518:42 *3847:A1 5.235 
13 *518:38 *3930:A1 1.96 
*END

*D_NET *519 0.00699728
*CONN
*I *3863:A1 I *D sky130_fd_sc_hd__o21ba_2
*I *3849:A1 I *D sky130_fd_sc_hd__a21oi_2
*I *3933:A1 I *D sky130_fd_sc_hd__a21o_2
*I *3847:A2 I *D sky130_fd_sc_hd__o21ai_2
*I *3930:B1_N I *D sky130_fd_sc_hd__a21bo_2
*I *3846:B I *D sky130_fd_sc_hd__nor2_2
*I *3850:B I *D sky130_fd_sc_hd__nand2b_2
*I *4406:Q O *D sky130_fd_sc_hd__dfrtp_2
*CAP
1 *3863:A1 0
2 *3849:A1 0
3 *3933:A1 0
4 *3847:A2 0.000137923
5 *3930:B1_N 0
6 *3846:B 0.00021835
7 *3850:B 1.65547e-05
8 *4406:Q 0.000318197
9 *519:53 0.000225191
10 *519:49 0.000251431
11 *519:38 0.00077714
12 *519:26 0.000814745
13 *519:20 0.000395904
14 *519:14 0.000553275
15 *3846:B *3847:B1 5.83121e-06
16 *3846:B *3862:C 0
17 *3847:A2 *4688:A 0
18 *519:14 *4531:RESET_B 0.000342254
19 *519:14 *694:14 0.000339191
20 *519:26 *3849:A2 2.97004e-06
21 *519:26 *3851:A1 0
22 *519:38 *3850:A_N 6.12198e-05
23 *519:38 *3851:A1 0
24 *519:38 *3915:S 7.14699e-05
25 *519:38 *4688:A 0.00016063
26 *519:49 *4688:A 0
27 *3847:A1 *3847:A2 0.000139245
28 *3851:B1 *519:26 2.23203e-05
29 *3915:A0 *519:38 0.00010492
30 *3919:A2 *3846:B 3.26889e-05
31 *3934:B1 *519:26 0
32 *3942:B *3846:B 1.91597e-05
33 *4359:B *3846:B 9.30787e-05
34 *4401:D *519:14 6.52265e-05
35 *4401:D *519:20 0.000203178
36 *4406:CLK *519:38 0.000139933
37 *4449:CLK *3846:B 0.000116158
38 *4681:A *519:14 2.05571e-05
39 *107:92 *3850:B 2.75229e-05
40 *107:92 *519:38 4.35348e-05
41 *111:65 *3847:A2 5.05437e-05
42 *150:18 *3846:B 0.000131441
43 *150:18 *3850:B 2.49909e-05
44 *150:18 *519:38 4.35432e-05
45 *160:10 *3846:B 5.05437e-05
46 *160:27 *3847:A2 0
47 *161:10 *3847:A2 3.03684e-05
48 *162:16 *519:49 0.000137578
49 *167:35 *3846:B 0.000184063
50 *167:35 *519:53 1.32064e-05
51 *449:222 *519:14 0.000246527
52 *449:226 *519:14 6.97034e-05
53 *449:226 *519:20 0.000197093
54 *449:226 *519:26 2.75229e-05
55 *501:14 *519:26 0
56 *501:14 *519:38 0
57 *518:42 *3846:B 2.04337e-05
58 *518:42 *519:53 1.29961e-05
59 *518:46 *3846:B 8.08153e-06
60 *518:46 *3847:A2 1.44177e-05
61 *518:46 *519:49 1.44259e-05
*RES
1 *4406:Q *519:14 15.29 
2 *519:14 *519:20 5.31 
3 *519:20 *519:26 4.85 
4 *519:26 *519:38 12.56 
5 *519:38 *3850:B 2.05 
6 *519:38 *519:49 4.145 
7 *519:49 *519:53 2.2325 
8 *519:53 *3846:B 10.7825 
9 *519:53 *3930:B1_N 1.6 
10 *519:49 *3847:A2 6.795 
11 *519:26 *3933:A1 3.6 
12 *519:20 *3849:A1 1.6 
13 *519:14 *3863:A1 1.6 
*END

*D_NET *520 0.00336599
*CONN
*I *4774:A I *D sky130_fd_sc_hd__dlygate4sd3_1
*I *3854:A I *D sky130_fd_sc_hd__or3_2
*I *3853:A I *D sky130_fd_sc_hd__nor3_2
*I *3948:C I *D sky130_fd_sc_hd__and3b_2
*I *4413:Q O *D sky130_fd_sc_hd__dfrtp_2
*CAP
1 *4774:A 6.40438e-05
2 *3854:A 0.000146665
3 *3853:A 8.02261e-05
4 *3948:C 0
5 *4413:Q 0.000210573
6 *520:36 0.000329452
7 *520:23 0.000546532
8 *520:12 0.000558136
9 *520:12 *4415:RESET_B 7.1624e-05
10 *520:12 *984:36 5.9145e-05
11 *520:23 *3948:A_N 2.68526e-05
12 *520:23 *984:36 6.64135e-05
13 *3948:B *520:23 0.000185127
14 *3948:B *520:36 0.000123832
15 *3951:B *4774:A 6.04372e-05
16 *3951:B *520:36 5.83121e-06
17 *3952:A2 *3854:A 0.000192184
18 *4402:CLK *3853:A 7.01303e-05
19 *4408:D *3853:A 0.000104451
20 *4818:A *520:23 1.31227e-05
21 *101:8 *3854:A 0.000155988
22 *171:10 *520:12 9.19395e-05
23 *453:8 *520:12 7.03276e-05
24 *483:21 *3853:A 0.000132961
*RES
1 *4413:Q *520:12 8.95625 
2 *520:12 *3948:C 1.6 
3 *520:12 *520:23 5.68875 
4 *520:23 *3853:A 8 
5 *520:23 *520:36 2.175 
6 *520:36 *3854:A 9.785 
7 *520:36 *4774:A 2.74 
*END

*D_NET *521 0.00840486
*CONN
*I *4363:A1 I *D sky130_fd_sc_hd__a221o_2
*I *4365:A1 I *D sky130_fd_sc_hd__a221o_2
*I *3860:B1 I *D sky130_fd_sc_hd__o21a_2
*I *3938:B2 I *D sky130_fd_sc_hd__a22o_2
*I *3852:A I *D sky130_fd_sc_hd__nor3_2
*I *3856:A1 I *D sky130_fd_sc_hd__o31ai_2
*I *4405:Q O *D sky130_fd_sc_hd__dfrtp_2
*CAP
1 *4363:A1 2.12785e-05
2 *4365:A1 0.000248355
3 *3860:B1 0
4 *3938:B2 0.000363174
5 *3852:A 0
6 *3856:A1 8.79132e-05
7 *4405:Q 0.0001491
8 *521:66 0.000908583
9 *521:32 0.00067151
10 *521:22 0.00109463
11 *521:18 0.000320552
12 *521:10 0.000960746
13 *3856:A1 *3852:B 5.87112e-05
14 *3938:B2 *3867:C 0.000464505
15 *3938:B2 *3938:A1 5.30673e-05
16 *4363:A1 *4363:B2 3.58971e-06
17 *521:10 *4415:RESET_B 9.24881e-05
18 *521:10 *984:8 0.000235299
19 *521:18 *3860:A1 2.14995e-05
20 *521:18 *3937:A 0.000132821
21 *521:18 *4415:RESET_B 0.000257819
22 *521:18 *713:12 9.12857e-06
23 *521:18 *984:8 7.08297e-05
24 *521:22 *4415:RESET_B 0.000345651
25 *521:32 *3852:B 2.99518e-06
26 *521:32 *4415:RESET_B 0.000139238
27 *521:32 *665:32 0
28 *521:32 *713:12 0
29 *521:66 *4363:B2 0.000192917
30 *521:66 *4365:B2 6.17955e-06
31 *521:66 *4720:A 0.000381896
32 *3860:A2 *521:18 8.23457e-05
33 *3860:A2 *521:22 0
34 *3860:A2 *521:32 0
35 *3939:A3 *3856:A1 0.000112393
36 *3939:A3 *521:32 5.02126e-06
37 *4363:A2 *4365:A1 1.5868e-05
38 *4363:B1 *4363:A1 1.20411e-05
39 *4363:B1 *4365:A1 1.72859e-05
40 *4363:B1 *521:66 2.04657e-05
41 *4365:B1 *4365:A1 0.000313773
42 *4411:D *4365:A1 1.74776e-05
43 *4427:CLK *4365:A1 2.10905e-05
44 *4635:A *521:22 0.000112103
45 *17:10 *3938:B2 1.91597e-05
46 *171:10 *521:66 9.65055e-05
47 *449:13 *4365:A1 0.000187247
48 *453:8 *521:10 5.68786e-05
49 *453:8 *521:22 2.07338e-05
*RES
1 *4405:Q *521:10 7.305 
2 *521:10 *521:18 6.32 
3 *521:18 *521:22 6.185 
4 *521:22 *521:32 3.79047 
5 *521:32 *3856:A1 6 
6 *521:32 *3852:A 3.6 
7 *521:22 *3938:B2 10.605 
8 *521:18 *3860:B1 1.6 
9 *521:10 *521:66 10.385 
10 *521:66 *4365:A1 11.39 
11 *521:66 *4363:A1 2.07625 
*END

*D_NET *522 0.00417394
*CONN
*I *4784:A I *D sky130_fd_sc_hd__dlygate4sd3_1
*I *3854:B I *D sky130_fd_sc_hd__or3_2
*I *3853:B I *D sky130_fd_sc_hd__nor3_2
*I *3872:A1 I *D sky130_fd_sc_hd__mux2_1
*I *3947:A1 I *D sky130_fd_sc_hd__a32o_2
*I *4408:Q O *D sky130_fd_sc_hd__dfrtp_2
*CAP
1 *4784:A 0
2 *3854:B 0.000224654
3 *3853:B 0.000279814
4 *3872:A1 0.000270315
5 *3947:A1 0
6 *4408:Q 0
7 *522:49 0.000448836
8 *522:18 0.000378856
9 *522:14 0.000648401
10 *522:4 0.000484227
11 *3853:B *3853:C 5.12969e-06
12 *3853:B *528:47 0.00063322
13 *3854:B *3854:C 0.000129653
14 *3872:A1 *3872:A0 8.23457e-05
15 *3872:A1 *3947:B2 7.11301e-05
16 *3872:A1 *665:16 9.80032e-06
17 *3872:A1 *665:22 7.83841e-05
18 *522:14 *3854:C 6.56971e-05
19 *522:14 *528:47 0.000199935
20 *4636:A *3853:B 0.000112233
21 *483:8 *3853:B 2.0187e-05
22 *483:34 *522:14 3.112e-05
*RES
1 *4408:Q *522:4 1.6 
2 *522:4 *522:14 6.77 
3 *522:14 *522:18 3.635 
4 *522:18 *3947:A1 1.6 
5 *522:18 *3872:A1 5.155 
6 *522:14 *3853:B 10.275 
7 *522:4 *522:49 7.45 
8 *522:49 *3854:B 5.185 
9 *522:49 *4784:A 1.6 
*END

*D_NET *523 0.00568295
*CONN
*I *3872:A0 I *D sky130_fd_sc_hd__mux2_1
*I *3936:A1 I *D sky130_fd_sc_hd__a31o_2
*I *3940:B1 I *D sky130_fd_sc_hd__o21ai_2
*I *3852:B I *D sky130_fd_sc_hd__nor3_2
*I *3856:A2 I *D sky130_fd_sc_hd__o31ai_2
*I *4400:Q O *D sky130_fd_sc_hd__dfrtp_2
*CAP
1 *3872:A0 0.000162162
2 *3936:A1 0.000334496
3 *3940:B1 0
4 *3852:B 6.44796e-05
5 *3856:A2 3.07952e-05
6 *4400:Q 8.38367e-05
7 *523:47 0.000602556
8 *523:22 0.000480583
9 *523:16 0.000684242
10 *523:10 0.00048867
11 *3852:B *3852:C 0.000136296
12 *3856:A2 *3856:A3 1.20052e-05
13 *3872:A0 *3873:A1 0.000249874
14 *3872:A0 *3873:S 0.000153449
15 *3872:A0 *3947:B2 2.98644e-05
16 *3872:A0 *665:14 6.58423e-05
17 *3872:A0 *665:16 5.83121e-06
18 *523:10 *987:14 3.67779e-05
19 *523:16 *3873:A0 0.000201503
20 *523:22 *3852:C 8.35106e-05
21 *523:22 *529:27 0.000310768
22 *523:22 *744:34 2.8185e-05
23 *523:47 *3873:A0 0
24 *523:47 *3873:A1 0.000226841
25 *523:47 *3873:S 0.000122877
26 *523:47 *3935:A1 7.90356e-06
27 *523:47 *987:14 2.7881e-05
28 *3856:A1 *3852:B 5.87112e-05
29 *3857:A *523:22 1.52352e-05
30 *3872:A1 *3872:A0 8.23457e-05
31 *3936:A2 *3936:A1 4.82863e-05
32 *3941:B *523:16 2.30292e-05
33 *3941:B *523:22 0.0001249
34 *4686:A *3872:A0 7.17267e-05
35 *89:8 *3936:A1 0.000158965
36 *89:10 *3936:A1 0.000314745
37 *90:10 *523:10 2.11084e-05
38 *102:34 *523:47 0
39 *103:10 *3852:B 8.74345e-06
40 *103:10 *523:22 0.000120923
41 *521:32 *3852:B 2.99518e-06
*RES
1 *4400:Q *523:10 4.92 
2 *523:10 *523:16 5.915 
3 *523:16 *523:22 7.29 
4 *523:22 *3856:A2 2.215 
5 *523:22 *3852:B 7.49 
6 *523:16 *3940:B1 1.6 
7 *523:10 *523:47 3.42 
8 *523:47 *3936:A1 8.19 
9 *523:47 *3872:A0 8.67 
*END

*D_NET *524 0.00245213
*CONN
*I *4782:A I *D sky130_fd_sc_hd__dlygate4sd3_1
*I *3921:A2 I *D sky130_fd_sc_hd__a31oi_2
*I *4410:Q O *D sky130_fd_sc_hd__dfrtp_2
*CAP
1 *4782:A 0.000180484
2 *3921:A2 0.000156153
3 *4410:Q 6.52939e-05
4 *524:8 0.000401931
5 *3921:A2 *3920:A 4.44927e-05
6 *3921:A2 *3921:A1 0.00011379
7 *3921:A2 *3945:A2 0
8 *3921:A2 *664:33 7.23533e-05
9 *3921:A2 *664:43 0.000200056
10 *3921:A2 *741:14 0.000202314
11 *4782:A *3945:A2 0
12 *4782:A *3950:A1 0.000117832
13 *4782:A *583:10 0
14 *4782:A *664:27 0.000175894
15 *4782:A *664:33 0.000224487
16 *524:8 *703:90 8.23457e-05
17 *3921:B1 *3921:A2 1.79098e-05
18 *3950:B1 *3921:A2 9.71067e-05
19 *3950:B1 *4782:A 0.000217345
20 *104:16 *4782:A 8.23457e-05
*RES
1 *4410:Q *524:8 4.395 
2 *524:8 *3921:A2 9.06 
3 *524:8 *4782:A 9.09 
*END

*D_NET *525 0.00281928
*CONN
*I *4783:A I *D sky130_fd_sc_hd__dlygate4sd3_1
*I *3925:A2 I *D sky130_fd_sc_hd__a31oi_2
*I *4402:Q O *D sky130_fd_sc_hd__dfrtp_2
*CAP
1 *4783:A 0.000128185
2 *3925:A2 0.000544136
3 *4402:Q 0.000672321
4 *3925:A2 *3859:A 2.65814e-06
5 *3925:A2 *3945:A1 5.53249e-06
6 *3925:A2 *3945:A2 0.000651196
7 *3925:A2 *4410:RESET_B 1.94636e-05
8 *3925:A2 *741:31 6.02123e-05
9 *4783:A *713:12 0.000116158
10 *3921:B1 *4783:A 0.000116158
11 *3925:B1 *3925:A2 0
12 *3950:A2 *3925:A2 0.000118081
13 *3950:B1 *3925:A2 3.17699e-05
14 *4410:D *3925:A2 0.000116165
15 *104:16 *4783:A 0.000237243
16 *449:222 *3925:A2 0
*RES
1 *4402:Q *3925:A2 17.91 
2 *4402:Q *4783:A 10.755 
*END

*D_NET *526 0.00291716
*CONN
*I *4757:A I *D sky130_fd_sc_hd__dlygate4sd3_1
*I *4361:A1 I *D sky130_fd_sc_hd__mux2_1
*I *3867:B I *D sky130_fd_sc_hd__and3_2
*I *4411:Q O *D sky130_fd_sc_hd__dfrtp_2
*CAP
1 *4757:A 0.000350348
2 *4361:A1 0
3 *3867:B 0.000282316
4 *4411:Q 3.37871e-05
5 *526:14 0.000536362
6 *526:8 0.000638181
7 *3867:B *3867:C 2.50602e-05
8 *4757:A *3866:A 8.20398e-05
9 *4757:A *4363:B2 8.9257e-05
10 *4757:A *4427:RESET_B 5.31158e-06
11 *4757:A *703:8 3.3625e-05
12 *4757:A *703:25 0.000116652
13 *4757:A *742:6 2.69217e-05
14 *4757:A *742:12 2.49909e-05
15 *526:14 *3952:B1 6.90254e-05
16 *526:14 *4361:A0 4.31979e-05
17 *526:14 *4403:RESET_B 4.58691e-05
18 *526:14 *703:8 5.25417e-05
19 *4403:D *3867:B 4.82919e-05
20 *165:6 *526:8 4.77769e-05
21 *449:13 *3867:B 9.7426e-05
22 *482:8 *3867:B 0.000121043
23 *482:8 *526:14 0.000147133
24 *482:10 *3867:B 0
*RES
1 *4411:Q *526:8 4.05 
2 *526:8 *526:14 6.32 
3 *526:14 *3867:B 10.025 
4 *526:14 *4361:A1 1.6 
5 *526:8 *4757:A 10.575 
*END

*D_NET *527 0.0024039
*CONN
*I *4361:A0 I *D sky130_fd_sc_hd__mux2_1
*I *4763:A I *D sky130_fd_sc_hd__dlygate4sd3_1
*I *3859:B I *D sky130_fd_sc_hd__and3_2
*I *4403:Q O *D sky130_fd_sc_hd__dfrtp_2
*CAP
1 *4361:A0 0.000198384
2 *4763:A 0
3 *3859:B 0.000243202
4 *4403:Q 3.58965e-05
5 *527:21 0.000281522
6 *527:8 0.000362236
7 *3859:B *3950:A1 0.000101317
8 *3859:B *4403:RESET_B 0
9 *3859:B *4410:RESET_B 0
10 *4361:A0 *3950:A1 0.000100266
11 *4361:A0 *3952:B1 0.000134505
12 *4361:A0 *4361:S 0.000423626
13 *4361:A0 *4403:RESET_B 0
14 *527:21 *3950:A1 7.09999e-05
15 *527:21 *4403:RESET_B 0
16 *4349:B2 *4361:A0 4.58257e-05
17 *4415:CLK *527:8 2.75145e-05
18 *4744:A *4361:A0 7.2718e-05
19 *104:16 *3859:B 6.77734e-05
20 *482:8 *4361:A0 0.000194914
21 *526:14 *4361:A0 4.31979e-05
*RES
1 *4403:Q *527:8 4.05 
2 *527:8 *3859:B 7.575 
3 *527:8 *527:21 1.635 
4 *527:21 *4763:A 3.6 
5 *527:21 *4361:A0 10.68 
*END

*D_NET *528 0.00964751
*CONN
*I *3854:C I *D sky130_fd_sc_hd__or3_2
*I *3853:C I *D sky130_fd_sc_hd__nor3_2
*I *3950:A1 I *D sky130_fd_sc_hd__a32o_2
*I *4813:A I *D sky130_fd_sc_hd__dlygate4sd3_1
*I *3873:A1 I *D sky130_fd_sc_hd__mux2_1
*I *4412:Q O *D sky130_fd_sc_hd__dfrtp_2
*CAP
1 *3854:C 0.000273789
2 *3853:C 1.92299e-05
3 *3950:A1 0.000912549
4 *4813:A 0.000177618
5 *3873:A1 0.000429475
6 *4412:Q 0.00037377
7 *528:47 0.0011981
8 *528:41 0.000585634
9 *528:8 0.000935342
10 *3873:A1 *3935:A1 0.000185405
11 *3873:A1 *3947:B2 4.69705e-05
12 *3873:A1 *707:10 0
13 *3873:A1 *707:37 0
14 *3950:A1 *3859:A 0
15 *3950:A1 *3937:A 6.52411e-05
16 *3950:A1 *4410:RESET_B 0
17 *3950:A1 *4413:D 4.89295e-05
18 *3950:A1 *583:10 0
19 *3950:A1 *664:23 3.43917e-05
20 *3950:A1 *664:25 0.000202663
21 *3950:A1 *664:27 0.000186392
22 *4813:A *3947:B2 6.7033e-05
23 *3853:B *3853:C 5.12969e-06
24 *3853:B *528:47 0.00063322
25 *3854:B *3854:C 0.000129653
26 *3859:B *3950:A1 0.000101317
27 *3860:A2 *3950:A1 0.000369644
28 *3872:A0 *3873:A1 0.000249874
29 *3951:A *528:47 3.52569e-05
30 *3951:B *3854:C 0.0001635
31 *3951:B *528:47 5.51127e-05
32 *4361:A0 *3950:A1 0.000100266
33 *4636:A *3950:A1 0.000102285
34 *4636:A *528:47 2.58336e-05
35 *4686:A *3873:A1 0.00019685
36 *4744:A *3950:A1 5.3468e-05
37 *4782:A *3950:A1 0.000117832
38 *4818:A *3950:A1 0.000274012
39 *90:45 *3873:A1 0
40 *165:6 *3950:A1 4.77807e-05
41 *483:8 *528:47 0.000557649
42 *483:34 *4813:A 0.000122821
43 *522:14 *3854:C 6.56971e-05
44 *522:14 *528:47 0.000199935
45 *523:47 *3873:A1 0.000226841
46 *527:21 *3950:A1 7.09999e-05
*RES
1 *4412:Q *528:8 7.155 
2 *528:8 *3873:A1 13.695 
3 *528:8 *4813:A 7.395 
4 *4412:Q *528:41 4.05 
5 *528:41 *528:47 11.06 
6 *528:47 *3950:A1 25.445 
7 *528:47 *3853:C 1.96 
8 *528:41 *3854:C 9.45 
*END

*D_NET *529 0.0070837
*CONN
*I *3873:A0 I *D sky130_fd_sc_hd__mux2_1
*I *3935:B1 I *D sky130_fd_sc_hd__o21a_2
*I *3856:A3 I *D sky130_fd_sc_hd__o31ai_2
*I *3852:C I *D sky130_fd_sc_hd__nor3_2
*I *3939:A1 I *D sky130_fd_sc_hd__a32o_2
*I *4404:Q O *D sky130_fd_sc_hd__dfrtp_2
*CAP
1 *3873:A0 0.00023724
2 *3935:B1 2.08101e-05
3 *3856:A3 1.59339e-05
4 *3852:C 8.2564e-05
5 *3939:A1 0.000492934
6 *4404:Q 0.000568034
7 *529:57 0.000527414
8 *529:27 0.000189711
9 *529:23 0.000528805
10 *529:6 0.0012292
11 *3873:A0 *3873:S 9.44515e-05
12 *3873:A0 *3940:A1 7.03516e-05
13 *3873:A0 *4786:A 1.08758e-05
14 *529:6 *4404:RESET_B 4.24575e-05
15 *529:23 *744:34 0.000203671
16 *529:27 *744:34 0.000113247
17 *3852:B *3852:C 0.000136296
18 *3856:A2 *3856:A3 1.20052e-05
19 *3857:A *3852:C 4.78678e-05
20 *3935:A2 *3873:A0 0.000160752
21 *3935:A2 *529:57 5.83121e-06
22 *3936:A2 *529:57 5.30673e-05
23 *3936:A3 *529:57 2.75229e-05
24 *3936:B1 *529:57 0.00012657
25 *3941:A *3939:A1 0.000479149
26 *3941:B *3939:A1 4.82863e-05
27 *3941:B *529:6 0.000160641
28 *4400:CLK *529:23 1.82563e-05
29 *4404:CLK *3939:A1 2.96426e-05
30 *4404:D *3873:A0 0
31 *4404:D *529:23 1.73877e-05
32 *4404:D *529:57 0.000138762
33 *4752:A *529:23 0.000289011
34 *89:10 *3873:A0 2.75145e-05
35 *89:10 *529:57 6.20787e-05
36 *99:12 *3852:C 0.000156474
37 *100:14 *529:23 0
38 *100:14 *529:57 0
39 *102:34 *3873:A0 3.25831e-05
40 *476:12 *529:23 3.05238e-05
41 *523:16 *3873:A0 0.000201503
42 *523:22 *3852:C 8.35106e-05
43 *523:22 *529:27 0.000310768
44 *523:47 *3873:A0 0
*RES
1 *4404:Q *529:6 8.26 
2 *529:6 *3939:A1 9.085 
3 *529:6 *529:23 6.95 
4 *529:23 *529:27 4.865 
5 *529:27 *3852:C 8.285 
6 *529:27 *3856:A3 1.96 
7 *529:23 *529:57 8 
8 *529:57 *3935:B1 1.96 
9 *529:57 *3873:A0 11.33 
*END

*D_NET *530 0.00181318
*CONN
*I *4456:RESET_B I *D sky130_fd_sc_hd__dfrtp_2
*I *4454:RESET_B I *D sky130_fd_sc_hd__dfrtp_2
*I *4851:X O *D sky130_fd_sc_hd__clkdlybuf4s25_1
*CAP
1 *4456:RESET_B 6.16382e-05
2 *4454:RESET_B 0.000137599
3 *4851:X 0.000460804
4 *530:18 0.000660041
5 *4454:RESET_B *4456:D 2.40647e-05
6 *4454:RESET_B *630:50 5.79922e-05
7 *4456:RESET_B *4501:D 7.95799e-05
8 *530:18 *4298:B1 4.66108e-05
9 *530:18 *4456:D 8.17763e-05
10 *530:18 *630:44 0.000112907
11 *4298:A2 *530:18 6.5018e-05
12 *208:24 *4456:RESET_B 2.5149e-05
13 *208:24 *530:18 0
*RES
1 *4851:X *530:18 10.8675 
2 *530:18 *4454:RESET_B 4.7825 
3 *530:18 *4456:RESET_B 3.425 
*END

*D_NET *531 0.0092548
*CONN
*I *4116:A1 I *D sky130_fd_sc_hd__o21ai_2
*I *4119:A1 I *D sky130_fd_sc_hd__o21ai_2
*I *4114:A1 I *D sky130_fd_sc_hd__o21ai_2
*I *4734:A I *D sky130_fd_sc_hd__clkdlybuf4s25_1
*I *4139:A1 I *D sky130_fd_sc_hd__o21ai_2
*I *4141:A1 I *D sky130_fd_sc_hd__o21ai_2
*I *4728:A I *D sky130_fd_sc_hd__clkdlybuf4s25_1
*I *4658:X O *D sky130_fd_sc_hd__clkdlybuf4s25_1
*CAP
1 *4116:A1 9.25524e-05
2 *4119:A1 0
3 *4114:A1 0.000289021
4 *4734:A 0
5 *4139:A1 0.000611253
6 *4141:A1 0
7 *4728:A 0.000210805
8 *4658:X 0.000687708
9 *531:95 0.000224023
10 *531:46 0.00139281
11 *531:32 0.00141381
12 *531:22 0.00126671
13 *4114:A1 *4560:D 2.75229e-05
14 *4114:A1 *658:36 0.00018363
15 *4139:A1 *4139:B1 4.82863e-05
16 *4139:A1 *4567:D 5.42473e-05
17 *4139:A1 *4719:A 4.82863e-05
18 *4139:A1 *660:12 0
19 *4139:A1 *660:51 0
20 *4728:A *4095:A1 3.00381e-05
21 *531:22 *4678:A 0.000634576
22 *531:22 *697:12 0
23 *531:22 *697:18 0
24 *531:22 *697:20 0
25 *531:22 *782:10 0
26 *531:32 *4042:B 0
27 *531:32 *4124:A1 5.83121e-06
28 *531:32 *4147:B1 0
29 *531:32 *4572:D 0.000139238
30 *531:32 *4572:RESET_B 0
31 *531:32 *4715:A 2.05571e-05
32 *531:32 *697:10 0
33 *531:32 *697:12 0
34 *531:32 *702:27 0.000296249
35 *531:32 *720:26 3.37941e-05
36 *531:46 *4570:D 0
37 *531:46 *4570:RESET_B 0.000161829
38 *531:46 *4571:RESET_B 0.000120655
39 *531:46 *660:12 0
40 *531:46 *660:14 0
41 *531:95 *3845:A 0
42 *531:95 *4560:D 7.21296e-06
43 *531:95 *4561:D 0
44 *4114:A2 *531:95 1.70935e-05
45 *4116:A2 *4116:A1 7.96171e-05
46 *4116:A2 *531:95 4.18603e-06
47 *4139:A2 *4139:A1 0.000199914
48 *4140:B *4139:A1 0.000118513
49 *4141:A2 *4139:A1 9.50036e-05
50 *4141:A2 *531:46 5.53249e-06
51 *4143:B *531:46 0
52 *4562:CLK *4114:A1 0.000151486
53 *4681:A *4139:A1 8.28419e-05
54 *253:56 *531:32 8.09021e-06
55 *254:8 *531:46 0
56 *256:8 *4114:A1 0
57 *256:8 *4116:A1 0
58 *256:8 *531:22 0
59 *256:8 *531:32 0
60 *256:25 *4114:A1 0.000199833
61 *451:8 *531:32 0
62 *451:8 *531:46 0.000292059
*RES
1 *4658:X *4728:A 6.41 
2 *4658:X *531:22 12.9675 
3 *531:22 *531:32 13.2125 
4 *531:32 *531:46 18.15 
5 *531:46 *4141:A1 3.6 
6 *531:46 *4139:A1 16.395 
7 *531:32 *4734:A 1.6 
8 *531:22 *4114:A1 8.3025 
9 *4114:A1 *531:95 5.745 
10 *531:95 *4119:A1 3.6 
11 *531:95 *4116:A1 5.745 
*END

*D_NET *532 0.00134141
*CONN
*I *4054:B1 I *D sky130_fd_sc_hd__o21a_2
*I *4735:X O *D sky130_fd_sc_hd__dlygate4sd3_1
*CAP
1 *4054:B1 0.000272068
2 *4735:X 0.000272068
3 *4054:B1 *642:28 0
4 *4054:B1 *714:61 1.34594e-05
5 *4049:B *4054:B1 0.000315527
6 *4054:A1 *4054:B1 9.12494e-06
7 *4467:D *4054:B1 0.00028891
8 *4468:D *4054:B1 0.00017025
*RES
1 *4735:X *4054:B1 14.085 
*END

*D_NET *533 0.000345167
*CONN
*I *4349:B1 I *D sky130_fd_sc_hd__o32a_2
*I *4736:X O *D sky130_fd_sc_hd__dlygate4sd3_1
*CAP
1 *4349:B1 6.45523e-05
2 *4736:X 6.45523e-05
3 *4349:B1 *4736:A 0.000108031
4 *4068:C *4349:B1 0.000108031
*RES
1 *4736:X *4349:B1 5.03 
*END

*D_NET *534 0.000305458
*CONN
*I *4416:D I *D sky130_fd_sc_hd__dfrtp_2
*I *4737:X O *D sky130_fd_sc_hd__dlygate4sd3_1
*CAP
1 *4416:D 5.72265e-05
2 *4737:X 5.72265e-05
3 *4416:D *671:16 9.30787e-05
4 *3895:D *4416:D 4.66108e-05
5 *469:10 *4416:D 5.13155e-05
*RES
1 *4737:X *4416:D 8.775 
*END

*D_NET *535 0.000755225
*CONN
*I *4063:B1 I *D sky130_fd_sc_hd__o31a_2
*I *4738:X O *D sky130_fd_sc_hd__dlygate4sd3_1
*CAP
1 *4063:B1 0.000162625
2 *4738:X 0.000162625
3 *4063:B1 *4063:A1 6.07227e-05
4 *4063:B1 *686:10 0.000205795
5 *259:44 *4063:B1 5.4003e-05
6 *449:57 *4063:B1 2.21074e-05
7 *449:67 *4063:B1 8.73485e-05
*RES
1 *4738:X *4063:B1 11.43 
*END

*D_NET *536 0.00122565
*CONN
*I *4352:B1 I *D sky130_fd_sc_hd__o21a_2
*I *4739:X O *D sky130_fd_sc_hd__dlygate4sd3_1
*CAP
1 *4352:B1 0.000322656
2 *4739:X 0.000322656
3 *4352:B1 *4356:B1 4.65607e-05
4 *3912:C1 *4352:B1 0.000183036
5 *4352:A2 *4352:B1 0.000197264
6 *111:28 *4352:B1 0.000153474
7 *138:25 *4352:B1 0
*RES
1 *4739:X *4352:B1 14.28 
*END

*D_NET *537 0.000158662
*CONN
*I *4353:B1 I *D sky130_fd_sc_hd__o32a_2
*I *4740:X O *D sky130_fd_sc_hd__dlygate4sd3_1
*CAP
1 *4353:B1 6.71633e-05
2 *4740:X 6.71633e-05
3 *4353:B1 *4740:A 1.34594e-05
4 *4475:CLK *4353:B1 1.08758e-05
*RES
1 *4740:X *4353:B1 4.37 
*END

*D_NET *538 0.000198718
*CONN
*I *4420:D I *D sky130_fd_sc_hd__dfrtp_2
*I *4741:X O *D sky130_fd_sc_hd__dlygate4sd3_1
*CAP
1 *4420:D 5.19862e-05
2 *4741:X 5.19862e-05
3 *4420:D *671:16 9.47454e-05
4 *4420:D *673:23 0
*RES
1 *4741:X *4420:D 8.325 
*END

*D_NET *539 0.000655445
*CONN
*I *4204:B1 I *D sky130_fd_sc_hd__o21ai_2
*I *4742:X O *D sky130_fd_sc_hd__dlygate4sd3_1
*CAP
1 *4204:B1 9.15526e-05
2 *4742:X 9.15526e-05
3 *4204:B1 *695:26 0.000203762
4 *4204:A2 *4204:B1 0.000184557
5 *4629:A *4204:B1 8.40213e-05
*RES
1 *4742:X *4204:B1 10.395 
*END

*D_NET *540 0.00200086
*CONN
*I *4205:C1 I *D sky130_fd_sc_hd__o211ai_2
*I *4743:X O *D sky130_fd_sc_hd__dlygate4sd3_1
*CAP
1 *4205:C1 0.000791426
2 *4743:X 0.000791426
3 *4205:C1 *4205:B1 1.20052e-05
4 *4205:C1 *4550:RESET_B 8.41785e-05
5 *4205:C1 *695:26 4.22809e-05
6 *4743:A *4205:C1 4.1652e-06
7 *242:12 *4205:C1 0.000144704
8 *449:335 *4205:C1 9.95191e-05
9 *449:340 *4205:C1 3.11511e-05
*RES
1 *4743:X *4205:C1 19.815 
*END

*D_NET *541 0.00728913
*CONN
*I *3952:B1 I *D sky130_fd_sc_hd__a21o_2
*I *4058:B1 I *D sky130_fd_sc_hd__a31o_2
*I *4059:C1 I *D sky130_fd_sc_hd__a211oi_2
*I *4744:X O *D sky130_fd_sc_hd__dlygate4sd3_1
*CAP
1 *3952:B1 0.00100993
2 *4058:B1 0.000289284
3 *4059:C1 0
4 *4744:X 0
5 *541:10 0.00146202
6 *541:4 0.00218267
7 *3952:B1 *3868:B1 0.000288011
8 *3952:B1 *4361:S 8.45551e-05
9 *4058:B1 *4730:A 4.82919e-05
10 *4058:B1 *687:10 9.23375e-05
11 *541:10 *4411:RESET_B 7.78022e-05
12 *541:10 *668:23 1.32102e-05
13 *3897:A1 *541:10 0.00028825
14 *3897:A2 *4058:B1 3.12855e-05
15 *3897:A2 *541:10 0.000136685
16 *4059:B1 *4058:B1 0.000385798
17 *4361:A0 *3952:B1 0.000134505
18 *4363:A2 *541:10 1.63826e-05
19 *4408:D *3952:B1 8.64421e-05
20 *4411:CLK *541:10 0.000100309
21 *4411:D *541:10 3.97604e-06
22 *4635:A *3952:B1 0.000119247
23 *165:6 *541:10 2.93836e-05
24 *165:8 *541:10 1.37141e-05
25 *470:64 *4058:B1 0
26 *498:14 *3952:B1 6.97528e-06
27 *509:10 *4058:B1 0.000319034
28 *526:14 *3952:B1 6.90254e-05
*RES
1 *4744:X *541:4 1.6 
2 *541:4 *541:10 17.525 
3 *541:10 *4059:C1 3.6 
4 *541:10 *4058:B1 12.57 
5 *541:4 *3952:B1 20.27 
*END

*D_NET *542 0.00863241
*CONN
*I *4179:A1 I *D sky130_fd_sc_hd__o21ai_2
*I *4184:A1 I *D sky130_fd_sc_hd__o21ai_2
*I *4168:A1 I *D sky130_fd_sc_hd__o21ai_2
*I *4171:A1 I *D sky130_fd_sc_hd__o21ai_2
*I *4176:A1 I *D sky130_fd_sc_hd__o21ai_2
*I *4173:A1 I *D sky130_fd_sc_hd__o21ai_2
*I *4029:A I *D sky130_fd_sc_hd__inv_2
*I *4181:A1 I *D sky130_fd_sc_hd__o21ai_2
*I *4659:X O *D sky130_fd_sc_hd__clkdlybuf4s25_1
*CAP
1 *4179:A1 0
2 *4184:A1 0
3 *4168:A1 0.000147232
4 *4171:A1 0
5 *4176:A1 0.000173728
6 *4173:A1 0.000160952
7 *4029:A 0
8 *4181:A1 0.000220601
9 *4659:X 6.29085e-05
10 *542:62 0.000542038
11 *542:45 0.000845307
12 *542:43 0.00171003
13 *542:35 0.00180621
14 *542:29 0.000586245
15 *542:10 0.000256716
16 *4168:A1 *4537:D 0
17 *4173:A1 *4539:D 0
18 *4173:A1 *883:34 0
19 *4176:A1 *4176:B1 0.000107746
20 *4176:A1 *4538:D 0.000114016
21 *4176:A1 *652:10 1.28996e-05
22 *4181:A1 *4187:B1 0.000205772
23 *542:10 *4598:A 7.1624e-05
24 *542:10 *4853:A 1.64132e-05
25 *542:29 *4181:B1 8.64599e-05
26 *542:29 *652:67 0.0001615
27 *542:35 *4182:A2 0
28 *542:35 *4542:D 0.00011152
29 *542:35 *652:56 0.000585018
30 *542:35 *693:16 0
31 *542:43 *4537:D 0.000111417
32 *542:43 *4543:D 4.66826e-05
33 *542:45 *4539:D 0
34 *542:62 *652:10 3.21682e-05
35 *4018:B *542:62 0.000194302
36 *4168:A2 *4168:A1 3.25831e-05
37 *4171:A2 *4176:A1 3.75882e-06
38 *4171:A2 *542:62 2.46062e-05
39 *4179:A2 *4181:A1 5.09431e-05
40 *4179:A2 *542:29 2.86767e-05
41 *4210:B *4173:A1 0
42 *4210:B *542:45 0
43 *4537:CLK *542:43 0.000122337
44 *4645:A *4168:A1 0
45 *493:12 *4168:A1 0
46 *493:14 *4168:A1 0
47 *493:14 *542:45 0
*RES
1 *4659:X *542:10 6.98 
2 *542:10 *4181:A1 6.19 
3 *542:10 *4029:A 1.6 
4 *4181:A1 *542:29 3.085 
5 *542:29 *542:35 16.345 
6 *542:35 *542:43 21.2 
7 *542:43 *542:45 5.205 
8 *542:45 *4173:A1 6.255 
9 *542:45 *542:62 8.77 
10 *542:62 *4176:A1 7.53 
11 *542:62 *4171:A1 3.6 
12 *542:43 *4168:A1 6.255 
13 *542:35 *4184:A1 1.6 
14 *542:29 *4179:A1 1.6 
*END

*D_NET *543 0.000622522
*CONN
*I *4462:D I *D sky130_fd_sc_hd__dfrtp_2
*I *4745:X O *D sky130_fd_sc_hd__dlygate4sd3_1
*CAP
1 *4462:D 0.000158924
2 *4745:X 0.000158924
3 *4462:D *687:10 6.90254e-05
4 *4462:D *687:24 0.000121043
5 *4462:CLK *4462:D 1.34687e-05
6 *4623:A *4462:D 2.99026e-05
7 *470:12 *4462:D 4.58691e-05
8 *470:18 *4462:D 2.53645e-05
*RES
1 *4745:X *4462:D 10.26 
*END

*D_NET *544 0.00147477
*CONN
*I *4067:A I *D sky130_fd_sc_hd__and2_2
*I *4746:X O *D sky130_fd_sc_hd__dlygate4sd3_1
*CAP
1 *4067:A 0.00050453
2 *4746:X 0.00050453
3 *4067:A *642:28 0
4 *4067:A *714:20 0.000126743
5 *4067:B *4067:A 0.000159741
6 *4472:D *4067:A 4.80285e-05
7 *4649:A *4067:A 0.000110691
8 *266:10 *4067:A 2.05056e-05
*RES
1 *4746:X *4067:A 15.915 
*END

*D_NET *545 0.000758782
*CONN
*I *4066:A I *D sky130_fd_sc_hd__and2_2
*I *4747:X O *D sky130_fd_sc_hd__dlygate4sd3_1
*CAP
1 *4066:A 0.000159152
2 *4747:X 0.000159152
3 *4066:A *3898:A 0.000198934
4 *3898:B *4066:A 0.00016063
5 *266:10 *4066:A 8.09157e-05
*RES
1 *4747:X *4066:A 7.115 
*END

*D_NET *546 0.00142177
*CONN
*I *4049:A I *D sky130_fd_sc_hd__and2_2
*I *4748:X O *D sky130_fd_sc_hd__dlygate4sd3_1
*CAP
1 *4049:A 0.000144006
2 *4748:X 0.000144006
3 *4049:A *684:8 0.000113797
4 *4049:A *714:61 0.000497676
5 *4049:B *4049:A 0.000313852
6 *4735:A *4049:A 2.49909e-05
7 *260:14 *4049:A 0.000123225
8 *461:20 *4049:A 6.02202e-05
*RES
1 *4748:X *4049:A 13.17 
*END

*D_NET *547 0.000814324
*CONN
*I *4399:A1 I *D sky130_fd_sc_hd__a21o_2
*I *4749:X O *D sky130_fd_sc_hd__dlygate4sd3_1
*CAP
1 *4399:A1 0.000238688
2 *4749:X 0.000238688
3 *4399:A1 *4443:RESET_B 9.54399e-05
4 *4399:A1 *709:6 4.82863e-05
5 *4399:A1 *709:21 4.82919e-05
6 *4399:A1 *712:10 0
7 *4397:B *4399:A1 3.86607e-05
8 *4399:A2 *4399:A1 4.99619e-05
9 *4399:B1 *4399:A1 0
10 *449:177 *4399:A1 5.63069e-05
*RES
1 *4749:X *4399:A1 11.595 
*END

*D_NET *548 0.000961205
*CONN
*I *4083:A I *D sky130_fd_sc_hd__nand2_2
*I *4750:X O *D sky130_fd_sc_hd__dlygate4sd3_1
*CAP
1 *4083:A 0.000332215
2 *4750:X 0.000332215
3 *4083:A *3879:A 0
4 *4083:A *3880:C 0.000178255
5 *4083:A *4087:B1 0
6 *4083:A *4483:RESET_B 0
7 *4083:A *1004:10 0.00011852
*RES
1 *4750:X *4083:A 13.11 
*END

*D_NET *549 0.00106823
*CONN
*I *3839:A I *D sky130_fd_sc_hd__inv_2
*I *4071:B1 I *D sky130_fd_sc_hd__a31o_2
*I *4751:X O *D sky130_fd_sc_hd__dlygate4sd3_1
*CAP
1 *3839:A 2.08101e-05
2 *4071:B1 0.000210548
3 *4751:X 1.96304e-05
4 *549:6 0.000250989
5 *4071:B1 *4072:A1 7.272e-05
6 *549:6 *4072:A1 2.11084e-05
7 *4071:A2 *4071:B1 0.000234674
8 *4072:C1 *4071:B1 0.000203178
9 *4475:D *4071:B1 3.45679e-05
*RES
1 *4751:X *549:6 2.05 
2 *549:6 *4071:B1 6.535 
3 *549:6 *3839:A 1.96 
*END

*D_NET *550 0.000816133
*CONN
*I *4400:D I *D sky130_fd_sc_hd__dfrtp_2
*I *4752:X O *D sky130_fd_sc_hd__dlygate4sd3_1
*CAP
1 *4400:D 0.000293496
2 *4752:X 0.000293496
3 *3941:B *4400:D 9.78876e-05
4 *90:10 *4400:D 0.000131253
5 *102:34 *4400:D 0
*RES
1 *4752:X *4400:D 11.5688 
*END

*D_NET *551 0.000281782
*CONN
*I *4062:A I *D sky130_fd_sc_hd__and2_2
*I *4753:X O *D sky130_fd_sc_hd__dlygate4sd3_1
*CAP
1 *4062:A 7.98134e-05
2 *4753:X 7.98134e-05
3 *4062:A *4730:A 0.000122155
*RES
1 *4753:X *4062:A 5.03 
*END

*D_NET *552 0.00192045
*CONN
*I *4048:A I *D sky130_fd_sc_hd__and2_2
*I *4754:X O *D sky130_fd_sc_hd__dlygate4sd3_1
*CAP
1 *4048:A 0.000574494
2 *4754:X 0.000574494
3 *4048:A *642:28 0.000159763
4 *4048:A *714:10 0
5 *4048:A *714:61 0.0006117
6 *4467:D *4048:A 0
*RES
1 *4754:X *4048:A 16.245 
*END

*D_NET *553 0.0122759
*CONN
*I *4152:A2 I *D sky130_fd_sc_hd__o21ai_2
*I *4196:A1 I *D sky130_fd_sc_hd__o21ai_2
*I *4199:A1 I *D sky130_fd_sc_hd__o21ai_2
*I *4163:A1 I *D sky130_fd_sc_hd__o21ai_2
*I *4165:A1 I *D sky130_fd_sc_hd__o21ai_2
*I *4160:A1 I *D sky130_fd_sc_hd__o21ai_2
*I *4157:A1 I *D sky130_fd_sc_hd__o21ai_2
*I *4155:A1 I *D sky130_fd_sc_hd__o21ai_2
*I *4660:X O *D sky130_fd_sc_hd__clkdlybuf4s25_1
*CAP
1 *4152:A2 0
2 *4196:A1 0.000714747
3 *4199:A1 0.000491955
4 *4163:A1 3.55506e-05
5 *4165:A1 0.000374307
6 *4160:A1 0.000118513
7 *4157:A1 0.000156161
8 *4155:A1 0
9 *4660:X 0.000393562
10 *553:81 0.00228011
11 *553:59 0.0012413
12 *553:42 0.00131973
13 *553:38 0.00144318
14 *553:27 0.000337697
15 *553:16 0.000338427
16 *553:10 0.000550453
17 *4160:A1 *4017:A 0
18 *4160:A1 *4157:B1 1.52184e-05
19 *4160:A1 *4160:B1 4.82863e-05
20 *4160:A1 *653:36 5.53549e-06
21 *4160:A1 *653:38 7.28685e-05
22 *4165:A1 *4163:B1 2.0514e-05
23 *4165:A1 *4166:A1 4.40725e-05
24 *4165:A1 *4535:D 8.40213e-05
25 *4196:A1 *4547:D 1.92979e-05
26 *553:10 *4531:D 0
27 *553:10 *4531:RESET_B 9.23971e-05
28 *553:10 *4532:D 0
29 *553:10 *4660:A 0
30 *553:10 *827:10 0
31 *553:16 *4152:B1 0
32 *553:16 *4532:D 0
33 *553:27 *4155:B1 4.82863e-05
34 *553:27 *653:70 0.000359252
35 *553:59 *4017:A 3.66286e-05
36 *553:59 *653:36 8.28341e-05
37 *553:59 *843:14 0.000344459
38 *4154:A *553:16 2.75229e-05
39 *4154:A *553:27 2.75145e-05
40 *4156:B *553:16 2.86623e-05
41 *4156:B *553:27 0.000189276
42 *4157:A2 *4157:A1 0.000505427
43 *4157:A2 *553:27 9.67081e-06
44 *4159:B *4157:A1 0.000156577
45 *4159:B *553:27 3.16707e-06
46 *4195:A_N *4199:A1 0
47 *4199:A2 *4199:A1 0
48 *3:16 *4165:A1 0
49 *229:6 *553:27 1.46828e-05
50 *230:27 *553:59 0.000115378
51 *473:16 *4157:A1 0.000118527
52 *474:82 *4196:A1 1.00941e-05
*RES
1 *4660:X *553:10 10.11 
2 *553:10 *553:16 4.595 
3 *553:16 *4155:A1 1.6 
4 *553:16 *553:27 7.4525 
5 *553:27 *4157:A1 9.4425 
6 *553:27 *553:38 0.5 
7 *553:38 *553:42 1.35373 
8 *553:42 *4160:A1 6.0675 
9 *553:42 *553:59 13.1825 
10 *553:59 *4165:A1 10.19 
11 *553:59 *4163:A1 2.215 
12 *553:38 *553:81 1.81513 
13 *553:81 *4199:A1 5.1841 
14 *553:81 *4196:A1 5.5067 
15 *553:10 *4152:A2 3.6 
*END

*D_NET *554 0.000531624
*CONN
*I *4380:A2 I *D sky130_fd_sc_hd__a31o_2
*I *4755:X O *D sky130_fd_sc_hd__dlygate4sd3_1
*CAP
1 *4380:A2 0.00014446
2 *4755:X 0.00014446
3 *4380:A2 *4380:A1 9.50342e-06
4 *4380:A2 *4601:A 3.45679e-05
5 *4377:B *4380:A2 0.000187071
6 *4380:A3 *4380:A2 1.1561e-05
7 *4433:D *4380:A2 0
*RES
1 *4755:X *4380:A2 10.14 
*END

*D_NET *555 0.000781999
*CONN
*I *4434:D I *D sky130_fd_sc_hd__dfrtp_2
*I *4756:X O *D sky130_fd_sc_hd__dlygate4sd3_1
*CAP
1 *4434:D 0.000368963
2 *4756:X 0.000368963
3 *4434:D *4856:A 4.40725e-05
*RES
1 *4756:X *4434:D 11.79 
*END

*D_NET *556 0.00131549
*CONN
*I *3949:A1 I *D sky130_fd_sc_hd__a21o_2
*I *4757:X O *D sky130_fd_sc_hd__dlygate4sd3_1
*CAP
1 *3949:A1 0.000429858
2 *4757:X 0.000429858
3 *3949:A1 *3866:A 8.75068e-05
4 *3949:A2 *3949:A1 0.000346161
5 *3949:B1 *3949:A1 2.21074e-05
*RES
1 *4757:X *3949:A1 14.175 
*END

*D_NET *557 0.000460685
*CONN
*I *4382:A2 I *D sky130_fd_sc_hd__a31o_2
*I *4758:X O *D sky130_fd_sc_hd__dlygate4sd3_1
*CAP
1 *4382:A2 0.000215949
2 *4758:X 0.000215949
3 *4382:A2 *4383:B 2.87867e-05
4 *4756:A *4382:A2 0
*RES
1 *4758:X *4382:A2 9.9 
*END

*D_NET *558 0.000794549
*CONN
*I *4061:A I *D sky130_fd_sc_hd__and2_2
*I *4759:X O *D sky130_fd_sc_hd__dlygate4sd3_1
*CAP
1 *4061:A 0.000239013
2 *4759:X 0.000239013
3 *4061:A *4730:A 2.05056e-05
4 *4055:B *4061:A 0
5 *4062:B *4061:A 0.000164874
6 *4460:D *4061:A 5.05521e-05
7 *4583:CLK *4061:A 0
8 *4622:A *4061:A 2.75229e-05
9 *4623:A *4061:A 5.30673e-05
*RES
1 *4759:X *4061:A 11.55 
*END

*D_NET *559 0.00135632
*CONN
*I *3926:B2 I *D sky130_fd_sc_hd__a22o_2
*I *4760:X O *D sky130_fd_sc_hd__dlygate4sd3_1
*CAP
1 *3926:B2 0.000367356
2 *4760:X 0.000367356
3 *3926:B2 *3923:B2 0.00024756
4 *3926:B2 *3929:A1 0.000143329
5 *3926:B2 *4719:A 3.10667e-05
6 *3927:A_N *3926:B2 5.83121e-06
7 *4452:CLK *3926:B2 2.68464e-05
8 *4453:D *3926:B2 0.000136625
9 *476:70 *3926:B2 3.03465e-05
*RES
1 *4760:X *3926:B2 14.7 
*END

*D_NET *560 0.00127072
*CONN
*I *4071:A1 I *D sky130_fd_sc_hd__a31o_2
*I *4761:X O *D sky130_fd_sc_hd__dlygate4sd3_1
*CAP
1 *4071:A1 0.000362831
2 *4761:X 0.000362831
3 *4071:A1 *4688:A 0.000144122
4 *4071:A1 *4693:A 0
5 *4071:A3 *4071:A1 1.89685e-05
6 *4353:B2 *4071:A1 0.000275553
7 *4474:D *4071:A1 0.000106419
*RES
1 *4761:X *4071:A1 13.905 
*END

*D_NET *561 0.000355986
*CONN
*I *4384:A2 I *D sky130_fd_sc_hd__a31o_2
*I *4762:X O *D sky130_fd_sc_hd__dlygate4sd3_1
*CAP
1 *4384:A2 0.000105098
2 *4762:X 0.000105098
3 *4384:B1 *4384:A2 4.82919e-05
4 *4435:CLK *4384:A2 4.82919e-05
5 *4436:D *4384:A2 4.92062e-05
*RES
1 *4762:X *4384:A2 5.3 
*END

*D_NET *562 0.000380689
*CONN
*I *3938:A1 I *D sky130_fd_sc_hd__a22o_2
*I *4763:X O *D sky130_fd_sc_hd__dlygate4sd3_1
*CAP
1 *3938:A1 0.000141627
2 *4763:X 0.000141627
3 *3938:A1 *3867:C 4.43682e-05
4 *3938:B2 *3938:A1 5.30673e-05
*RES
1 *4763:X *3938:A1 5.645 
*END

*D_NET *563 0.00107134
*CONN
*I *4374:A2 I *D sky130_fd_sc_hd__a31o_2
*I *4764:X O *D sky130_fd_sc_hd__dlygate4sd3_1
*CAP
1 *4374:A2 0.000460347
2 *4764:X 0.000460347
3 *4374:A2 *4375:A 0
4 *4374:A2 *4432:RESET_B 0
5 *4374:A2 *716:69 6.40523e-05
6 *4374:B1 *4374:A2 8.65905e-05
*RES
1 *4764:X *4374:A2 14.04 
*END

*D_NET *564 0.0112762
*CONN
*I *4660:A I *D sky130_fd_sc_hd__clkdlybuf4s25_1
*I *4203:A1 I *D sky130_fd_sc_hd__o21ai_2
*I *4201:A1 I *D sky130_fd_sc_hd__o21ai_2
*I *4192:A1 I *D sky130_fd_sc_hd__o21ai_2
*I *4189:A1 I *D sky130_fd_sc_hd__o21ai_2
*I *4187:A1 I *D sky130_fd_sc_hd__o21ai_2
*I *4659:A I *D sky130_fd_sc_hd__clkdlybuf4s25_1
*I *4661:X O *D sky130_fd_sc_hd__clkdlybuf4s25_1
*CAP
1 *4660:A 0.00106762
2 *4203:A1 0
3 *4201:A1 0.000134582
4 *4192:A1 0.000147678
5 *4189:A1 4.44429e-05
6 *4187:A1 0.000454448
7 *4659:A 0
8 *4661:X 0.000537412
9 *564:95 0.00115904
10 *564:38 0.000614947
11 *564:30 0.000383774
12 *564:26 0.000744824
13 *564:20 0.00120866
14 *564:14 0.0012846
15 *4187:A1 *4187:B1 0.000121356
16 *4187:A1 *4544:RESET_B 0.00011138
17 *4187:A1 *4545:D 3.34493e-05
18 *4189:A1 *4189:B1 4.8854e-05
19 *4192:A1 *4192:B1 0.000114858
20 *4201:A1 *4201:B1 0.000234358
21 *4660:A *3844:A 0.000162978
22 *4660:A *4153:B 4.35348e-05
23 *4660:A *4203:B1 2.781e-05
24 *4660:A *4531:D 0.000201503
25 *4660:A *4531:RESET_B 9.99492e-05
26 *4660:A *4552:RESET_B 0
27 *4660:A *4777:A 1.17409e-05
28 *564:14 *4550:D 5.83121e-06
29 *564:20 *4201:B1 0.000197321
30 *564:20 *4676:A 0.000105841
31 *564:20 *655:46 0.000148925
32 *564:26 *4189:B1 5.23362e-05
33 *564:26 *4192:B1 1.91597e-05
34 *564:26 *4201:B1 1.22762e-05
35 *564:26 *655:46 2.49909e-05
36 *564:30 *4189:B1 0.000312834
37 *564:30 *4598:A 1.28996e-05
38 *564:38 *4544:RESET_B 0.000197215
39 *564:38 *4598:A 0.000180373
40 *564:38 *4853:A 0.000136685
41 *564:95 *3844:A 6.0047e-05
42 *564:95 *4676:A 0
43 *4024:B *564:26 0
44 *4195:A_N *564:20 0.000202079
45 *4201:A2 *564:26 0
46 *4203:A2 *4660:A 9.9087e-06
47 *4205:A1 *564:95 0
48 *4545:CLK *4187:A1 0.000112279
49 *4549:CLK *4201:A1 3.04704e-05
50 *4549:CLK *564:20 9.24127e-05
51 *4549:CLK *564:26 4.13092e-05
52 *4626:A *564:20 0
53 *4655:A *4660:A 4.58406e-05
54 *4661:A *564:14 4.8854e-05
55 *236:10 *4189:A1 0.000161467
56 *464:10 *4660:A 0
57 *464:10 *564:14 7.09999e-05
58 *464:10 *564:20 0
59 *553:10 *4660:A 0
*RES
1 *4661:X *564:14 12.62 
2 *564:14 *564:20 14.99 
3 *564:20 *564:26 9.275 
4 *564:26 *564:30 6.185 
5 *564:30 *564:38 6.425 
6 *564:38 *4659:A 1.6 
7 *564:38 *4187:A1 13.265 
8 *564:30 *4189:A1 5.085 
9 *564:26 *4192:A1 4.12 
10 *564:20 *4201:A1 6.465 
11 *564:14 *564:95 3.38 
12 *564:95 *4203:A1 3.6 
13 *564:95 *4660:A 22.915 
*END

*D_NET *565 0.000691654
*CONN
*I *4372:A2 I *D sky130_fd_sc_hd__a31o_2
*I *4765:X O *D sky130_fd_sc_hd__dlygate4sd3_1
*CAP
1 *4372:A2 0.000319293
2 *4765:X 0.000319293
3 *4372:A2 *4373:A 5.30673e-05
*RES
1 *4765:X *4372:A2 8.18 
*END

*D_NET *566 0.000433486
*CONN
*I *4378:A2 I *D sky130_fd_sc_hd__a31o_2
*I *4766:X O *D sky130_fd_sc_hd__dlygate4sd3_1
*CAP
1 *4378:A2 0.000167207
2 *4766:X 0.000167207
3 *4378:A2 *4378:A1 9.50342e-06
4 *4378:A2 *4434:RESET_B 2.87867e-05
5 *4378:A2 *4766:A 1.32843e-05
6 *4378:A2 *4856:A 2.25075e-05
7 *4434:CLK *4378:A2 2.49909e-05
*RES
1 *4766:X *4378:A2 9.555 
*END

*D_NET *567 0.000662076
*CONN
*I *4386:A2 I *D sky130_fd_sc_hd__a31o_2
*I *4767:X O *D sky130_fd_sc_hd__dlygate4sd3_1
*CAP
1 *4386:A2 0.000173915
2 *4767:X 0.000173915
3 *4386:A2 *4384:A3 7.63883e-05
4 *4386:A2 *4386:A1 5.76534e-05
5 *4386:A2 *651:16 3.25831e-05
6 *4386:B1 *4386:A2 1.17409e-05
7 *4596:CLK *4386:A2 0.00012779
8 *489:27 *4386:A2 8.09021e-06
*RES
1 *4767:X *4386:A2 9.9525 
*END

*D_NET *568 0.00149543
*CONN
*I *4388:A2 I *D sky130_fd_sc_hd__a31o_2
*I *4389:B2 I *D sky130_fd_sc_hd__a2bb2o_2
*I *4768:X O *D sky130_fd_sc_hd__dlygate4sd3_1
*CAP
1 *4388:A2 9.51701e-05
2 *4389:B2 0.000243727
3 *4768:X 0.000338897
4 *4388:A2 *4388:A1 0.000124895
5 *4388:A2 *716:65 7.40446e-05
6 *4389:B2 *4380:A1 0.000130974
7 *4389:B2 *4768:A 7.06865e-05
8 *4389:B2 *716:65 2.15025e-05
9 *4388:B1 *4388:A2 0.0001249
10 *4438:CLK *4388:A2 0
11 *433:14 *4389:B2 0.000270633
*RES
1 *4768:X *4389:B2 12.195 
2 *4768:X *4388:A2 5.735 
*END

*D_NET *569 0.00120126
*CONN
*I *4376:A2 I *D sky130_fd_sc_hd__a31o_2
*I *4769:X O *D sky130_fd_sc_hd__dlygate4sd3_1
*CAP
1 *4376:A2 0.00031754
2 *4769:X 0.00031754
3 *4376:A2 *4378:A3 0.000247567
4 *4376:A2 *4434:RESET_B 0.000162332
5 *4376:A2 *4856:A 0.000111909
6 *4377:B *4376:A2 4.43682e-05
7 *4380:B1 *4376:A2 0
*RES
1 *4769:X *4376:A2 12.975 
*END

*D_NET *570 0.000947774
*CONN
*I *4076:A I *D sky130_fd_sc_hd__nor2_2
*I *4770:X O *D sky130_fd_sc_hd__dlygate4sd3_1
*CAP
1 *4076:A 0.000285962
2 *4770:X 0.000285962
3 *4076:A *4479:RESET_B 0
4 *4076:A *701:37 0.000210144
5 *4076:B *4076:A 0.000117419
6 *4479:CLK *4076:A 4.82863e-05
*RES
1 *4770:X *4076:A 13.365 
*END

*D_NET *571 0.00216522
*CONN
*I *4360:B2 I *D sky130_fd_sc_hd__a22o_2
*I *4771:X O *D sky130_fd_sc_hd__dlygate4sd3_1
*CAP
1 *4360:B2 0.000419719
2 *4771:X 0.000419719
3 *4360:B2 *3870:C1 0.000387896
4 *4360:B2 *4360:A1 8.49205e-05
5 *4360:B2 *4409:RESET_B 1.15688e-05
6 *4360:B2 *669:27 0.000386388
7 *4360:B2 *669:46 1.15399e-05
8 *3915:A1 *4360:B2 8.53113e-06
9 *4151:A *4360:B2 8.65905e-05
10 *4360:A2 *4360:B2 0.000215593
11 *4360:B1 *4360:B2 1.82667e-05
12 *107:92 *4360:B2 0
13 *500:10 *4360:B2 0.000114492
*RES
1 *4771:X *4360:B2 18.15 
*END

*D_NET *572 0.000441148
*CONN
*I *3863:A2 I *D sky130_fd_sc_hd__o21ba_2
*I *4772:X O *D sky130_fd_sc_hd__dlygate4sd3_1
*CAP
1 *3863:A2 0.000201294
2 *4772:X 0.000201294
3 *3863:A2 *4531:RESET_B 0
4 *3934:B1 *3863:A2 3.85599e-05
5 *107:111 *3863:A2 0
*RES
1 *4772:X *3863:A2 9.975 
*END

*D_NET *573 0.00164568
*CONN
*I *4058:A1 I *D sky130_fd_sc_hd__a31o_2
*I *4773:X O *D sky130_fd_sc_hd__dlygate4sd3_1
*CAP
1 *4058:A1 0.000548138
2 *4773:X 0.000548138
3 *4058:A1 *4706:A 4.9968e-05
4 *4058:A1 *4730:A 0.000467068
5 *4058:A1 *687:24 8.33066e-06
6 *449:39 *4058:A1 2.40377e-05
7 *470:64 *4058:A1 0
*RES
1 *4773:X *4058:A1 15.63 
*END

*D_NET *574 0.00209037
*CONN
*I *3868:B1 I *D sky130_fd_sc_hd__o21a_2
*I *4774:X O *D sky130_fd_sc_hd__dlygate4sd3_1
*CAP
1 *3868:B1 0.000421866
2 *4774:X 0.000421866
3 *3865:A *3868:B1 5.26518e-05
4 *3868:A2 *3868:B1 8.49205e-05
5 *3952:A2 *3868:B1 1.34503e-05
6 *3952:B1 *3868:B1 0.000288011
7 *4408:D *3868:B1 0.000531079
8 *100:14 *3868:B1 7.21296e-06
9 *101:8 *3868:B1 0.000269309
*RES
1 *4774:X *3868:B1 17.565 
*END

*D_NET *575 0.00895341
*CONN
*I *4227:A1 I *D sky130_fd_sc_hd__o21ai_2
*I *4232:A1 I *D sky130_fd_sc_hd__o21ai_2
*I *4235:A1 I *D sky130_fd_sc_hd__o21ai_2
*I *4237:A1 I *D sky130_fd_sc_hd__o21ai_2
*I *4229:A1 I *D sky130_fd_sc_hd__o21ai_2
*I *4224:A1 I *D sky130_fd_sc_hd__o21ai_2
*I *4219:A1 I *D sky130_fd_sc_hd__o21ai_2
*I *4221:A1 I *D sky130_fd_sc_hd__o21ai_2
*I *4662:X O *D sky130_fd_sc_hd__clkdlybuf4s25_1
*CAP
1 *4227:A1 0.000275183
2 *4232:A1 0.000487525
3 *4235:A1 5.11366e-05
4 *4237:A1 0.000171492
5 *4229:A1 0.000494507
6 *4224:A1 0
7 *4219:A1 0.000442721
8 *4221:A1 0.000129156
9 *4662:X 0.000618111
10 *575:24 0.000519829
11 *575:18 0.000319114
12 *575:16 0.000704717
13 *575:14 0.000560136
14 *575:8 0.000456135
15 *4219:A1 *4513:D 8.34281e-06
16 *4221:A1 *4221:B1 4.97938e-05
17 *4221:A1 *4514:D 0.000112589
18 *4221:A1 *661:22 6.12027e-05
19 *4227:A1 *4227:B1 0.000496222
20 *4227:A1 *4513:D 4.89395e-05
21 *4227:A1 *4516:D 2.20014e-05
22 *4229:A1 *4003:A 2.86792e-05
23 *4229:A1 *4229:B1 4.88478e-05
24 *4229:A1 *661:59 0.000535332
25 *4235:A1 *4240:A1 0.00022304
26 *4235:A1 *4519:D 0.000208491
27 *4237:A1 *4520:D 2.75145e-05
28 *575:14 *4240:A1 0.000118513
29 *575:14 *4519:D 0.00024756
30 *575:14 *661:12 0
31 *575:14 *661:18 0
32 *575:16 *661:18 0
33 *575:18 *4002:C 0
34 *575:18 *661:18 0
35 *575:18 *661:22 1.82476e-05
36 *575:18 *661:59 4.49585e-05
37 *575:24 *4002:C 0
38 *575:24 *4513:D 9.05592e-05
39 *575:24 *661:22 0.000107333
40 *4003:B *4229:A1 0.000154208
41 *4218:A *4221:A1 0.000123188
42 *4218:A *575:24 1.10435e-05
43 *4219:A2 *4219:A1 0.00019608
44 *4219:A2 *4221:A1 9.12857e-06
45 *4223:B *575:18 0
46 *4224:A2 *575:18 0.000117832
47 *4232:A2 *4232:A1 0.00020335
48 *4234:A *575:14 6.74234e-05
49 *4515:CLK *4219:A1 6.62684e-05
50 *4651:A *4232:A1 8.65905e-05
51 *4651:A *575:8 5.58206e-05
52 *217:10 *575:24 5.47844e-05
53 *220:38 *4235:A1 1.01661e-05
54 *477:20 *575:14 0
55 *477:24 *575:14 6.95945e-05
56 *477:24 *575:16 0
57 *477:24 *575:18 0
*RES
1 *4662:X *575:8 5.085 
2 *575:8 *575:14 6.615 
3 *575:14 *575:16 1.89 
4 *575:16 *575:18 2.4 
5 *575:18 *575:24 4.74 
6 *575:24 *4221:A1 7.53 
7 *575:24 *4219:A1 6.81 
8 *575:18 *4224:A1 3.6 
9 *575:16 *4229:A1 14.4 
10 *575:14 *4237:A1 6.12 
11 *575:8 *4235:A1 6.255 
12 *4662:X *4232:A1 10.91 
13 *4219:A1 *4227:A1 9.17 
*END

*D_NET *576 0.00100671
*CONN
*I *4413:D I *D sky130_fd_sc_hd__dfrtp_2
*I *4775:X O *D sky130_fd_sc_hd__dlygate4sd3_1
*CAP
1 *4413:D 0.000371634
2 *4775:X 0.000371634
3 *4413:D *3868:A1 7.08257e-05
4 *4413:D *4408:RESET_B 9.47017e-05
5 *4413:D *4413:RESET_B 4.89867e-05
6 *3950:A1 *4413:D 4.89295e-05
*RES
1 *4775:X *4413:D 13.92 
*END

*D_NET *577 0.000628686
*CONN
*I *4208:A1 I *D sky130_fd_sc_hd__o21ai_2
*I *4776:X O *D sky130_fd_sc_hd__dlygate4sd3_1
*CAP
1 *4208:A1 0.000222595
2 *4776:X 0.000222595
3 *4208:A1 *4000:A 2.69217e-05
4 *4208:A1 *4214:B1 2.69153e-05
5 *4208:A1 *872:14 8.25505e-05
6 *4215:B *4208:A1 4.71087e-05
*RES
1 *4776:X *4208:A1 7.1 
*END

*D_NET *578 0.000448938
*CONN
*I *4152:A1 I *D sky130_fd_sc_hd__o21ai_2
*I *4777:X O *D sky130_fd_sc_hd__dlygate4sd3_1
*CAP
1 *4152:A1 3.62866e-05
2 *4777:X 3.62866e-05
3 *4152:A1 *4152:B1 0.000124895
4 *4152:A1 *4153:B 0.000203178
5 *4152:A1 *4777:A 4.82919e-05
*RES
1 *4777:X *4152:A1 5.03 
*END

*D_NET *579 0.000525043
*CONN
*I *4306:A I *D sky130_fd_sc_hd__and2_2
*I *4305:A0 I *D sky130_fd_sc_hd__mux2_1
*I *4778:X O *D sky130_fd_sc_hd__dlygate4sd3_1
*CAP
1 *4306:A 0
2 *4305:A0 6.82256e-05
3 *4778:X 0.000108383
4 *579:6 0.000176608
5 *4305:A0 *4508:RESET_B 6.23206e-05
6 *4306:B *4305:A0 9.24127e-05
7 *213:12 *4305:A0 1.70935e-05
*RES
1 *4778:X *579:6 3.085 
2 *579:6 *4305:A0 7.745 
3 *579:6 *4306:A 1.6 
*END

*D_NET *580 0.003315
*CONN
*I *3891:A1 I *D sky130_fd_sc_hd__a21o_2
*I *3887:A1 I *D sky130_fd_sc_hd__a22o_2
*I *4779:X O *D sky130_fd_sc_hd__dlygate4sd3_1
*CAP
1 *3891:A1 0.000338353
2 *3887:A1 0.000780986
3 *4779:X 4.78064e-05
4 *580:8 0.00116715
5 *3887:A1 *3887:B2 2.69153e-05
6 *3887:A1 *1024:29 2.41307e-05
7 *3891:A1 *3871:B1 0
8 *3891:A1 *4733:A 1.34594e-05
9 *3891:A1 *710:12 4.76581e-05
10 *3891:A1 *1024:29 7.09607e-05
11 *3891:A1 *1024:44 4.29789e-05
12 *3887:A2 *3887:A1 1.45464e-05
13 *3889:B1 *3891:A1 5.16348e-05
14 *3890:B *3887:A1 4.60814e-05
15 *4368:A2 *3887:A1 6.62684e-05
16 *4389:A2_N *3891:A1 0.00016501
17 *122:8 *3891:A1 4.66108e-05
18 *270:23 *3887:A1 6.90254e-05
19 *270:23 *3891:A1 0.000295429
20 *486:8 *3891:A1 0
21 *486:10 *3891:A1 0
*RES
1 *4779:X *580:8 4.05 
2 *580:8 *3887:A1 12.87 
3 *580:8 *3891:A1 11.895 
*END

*D_NET *581 0.000942162
*CONN
*I *4095:A1 I *D sky130_fd_sc_hd__o21ai_2
*I *4780:X O *D sky130_fd_sc_hd__dlygate4sd3_1
*CAP
1 *4095:A1 0.000407204
2 *4780:X 0.000407204
3 *4095:A1 *4095:A2 8.41345e-05
4 *4095:A1 *711:23 1.3582e-05
5 *4728:A *4095:A1 3.00381e-05
6 *478:12 *4095:A1 0
*RES
1 *4780:X *4095:A1 12.48 
*END

*D_NET *582 0.00320013
*CONN
*I *4347:A0 I *D sky130_fd_sc_hd__mux2_1
*I *4348:A I *D sky130_fd_sc_hd__and2_2
*I *4781:X O *D sky130_fd_sc_hd__dlygate4sd3_1
*CAP
1 *4347:A0 0.000273106
2 *4348:A 0.000158384
3 *4781:X 0.000387375
4 *582:8 0.000818864
5 *4348:A *4595:RESET_B 0.000113797
6 *4348:A *4601:A 0.000349592
7 *4348:A *4781:A 0
8 *582:8 *4595:RESET_B 1.0063e-05
9 *582:8 *974:8 9.94554e-06
10 *4347:A1 *4347:A0 0.000197059
11 *4347:S *4347:A0 0.000298349
12 *4348:B *4348:A 0.000312964
13 *4437:CLK *4348:A 0
14 *191:10 *4347:A0 6.28498e-05
15 *191:10 *4348:A 0.000207783
*RES
1 *4781:X *582:8 7.845 
2 *582:8 *4348:A 9.57 
3 *582:8 *4347:A0 9.63 
*END

*D_NET *583 0.00290548
*CONN
*I *3950:B2 I *D sky130_fd_sc_hd__a32o_2
*I *3945:A2 I *D sky130_fd_sc_hd__a32o_2
*I *4782:X O *D sky130_fd_sc_hd__dlygate4sd3_1
*CAP
1 *3950:B2 0
2 *3945:A2 0.00045409
3 *4782:X 9.51551e-05
4 *583:10 0.000549245
5 *3945:A2 *3945:A1 7.60048e-05
6 *3945:A2 *3945:A3 0.000287664
7 *3945:A2 *4410:RESET_B 0
8 *3945:A2 *4714:A 4.82919e-05
9 *3945:A2 *664:43 0.000154262
10 *3945:A2 *664:45 6.23375e-05
11 *583:10 *3859:A 9.54469e-05
12 *3858:B *3945:A2 2.97004e-06
13 *3858:B *583:10 4.24292e-06
14 *3921:A2 *3945:A2 0
15 *3925:A2 *3945:A2 0.000651196
16 *3950:A1 *583:10 0
17 *3950:B1 *3945:A2 0
18 *4414:D *3945:A2 0.000376278
19 *4782:A *3945:A2 0
20 *4782:A *583:10 0
21 *104:16 *583:10 4.82919e-05
*RES
1 *4782:X *583:10 5.43 
2 *583:10 *3945:A2 17.46 
3 *583:10 *3950:B2 3.6 
*END

*D_NET *584 0.00456975
*CONN
*I *3939:B2 I *D sky130_fd_sc_hd__a32o_2
*I *3934:A2 I *D sky130_fd_sc_hd__a32o_2
*I *4783:X O *D sky130_fd_sc_hd__dlygate4sd3_1
*CAP
1 *3939:B2 0.000149001
2 *3934:A2 0.000825397
3 *4783:X 0.000445459
4 *584:10 0.00141986
5 *3934:A2 *3934:A1 0.00030615
6 *3934:A2 *4357:A 0.000139933
7 *3934:A2 *713:12 0.000174846
8 *584:10 *713:12 0.000182978
9 *3925:A3 *3934:A2 0.000379301
10 *3934:A3 *3934:A2 4.43682e-05
11 *3941:A *3939:B2 0.000108788
12 *104:6 *584:10 0.000224463
13 *104:16 *584:10 0.000161529
14 *104:38 *3934:A2 0
15 *104:38 *584:10 0
16 *104:40 *3934:A2 0
17 *157:10 *3934:A2 7.68414e-06
*RES
1 *4783:X *584:10 11.085 
2 *584:10 *3934:A2 16.5 
3 *584:10 *3939:B2 6.12 
*END

*D_NET *585 0.00208048
*CONN
*I *3952:A1 I *D sky130_fd_sc_hd__a21o_2
*I *4784:X O *D sky130_fd_sc_hd__dlygate4sd3_1
*CAP
1 *3952:A1 0.000446639
2 *4784:X 0.000446639
3 *3951:A *3952:A1 0.000312075
4 *3952:A2 *3952:A1 0.000844057
5 *4408:D *3952:A1 1.34594e-05
6 *4686:A *3952:A1 1.33293e-05
7 *89:23 *3952:A1 4.28112e-06
*RES
1 *4784:X *3952:A1 17.4 
*END

*D_NET *586 0.00561406
*CONN
*I *4248:A1 I *D sky130_fd_sc_hd__o21ai_2
*I *4240:A1 I *D sky130_fd_sc_hd__o21ai_2
*I *4243:A1 I *D sky130_fd_sc_hd__o21ai_2
*I *4245:A1 I *D sky130_fd_sc_hd__o21ai_2
*I *4663:X O *D sky130_fd_sc_hd__clkdlybuf4s25_1
*CAP
1 *4248:A1 0.000189921
2 *4240:A1 0.000417046
3 *4243:A1 2.89361e-05
4 *4245:A1 0.000426716
5 *4663:X 0.000376345
6 *586:39 0.000652787
7 *586:6 0.000786177
8 *4240:A1 *4007:A 0
9 *4240:A1 *677:14 4.39734e-05
10 *4243:A1 *4243:B1 1.85674e-05
11 *4245:A1 *4244:A 0.000141599
12 *4245:A1 *4522:D 6.5525e-05
13 *4245:A1 *4523:D 0.000118527
14 *4248:A1 *663:16 5.30673e-05
15 *4248:A1 *663:20 2.75229e-05
16 *4248:A1 *677:33 6.61613e-05
17 *586:6 *4243:B1 0.000505378
18 *586:39 *677:14 8.6099e-05
19 *4234:A *4240:A1 0.000255632
20 *4235:A1 *4240:A1 0.00022304
21 *4242:A *4245:A1 6.67166e-05
22 *4244:B *4240:A1 0.000162318
23 *4244:B *586:39 0.000162332
24 *4245:A2 *4245:A1 6.16478e-05
25 *4523:CLK *4245:A1 0.000108647
26 *4619:A *4248:A1 8.40213e-05
27 *4630:A *4240:A1 0
28 *220:38 *4240:A1 0
29 *450:10 *4245:A1 0.000199062
30 *457:10 *4245:A1 4.05674e-06
31 *457:10 *586:6 2.04648e-05
32 *488:67 *4245:A1 0.000143266
33 *575:14 *4240:A1 0.000118513
*RES
1 *4663:X *586:6 6.88 
2 *586:6 *4245:A1 15.485 
3 *586:6 *4243:A1 2.215 
4 *4245:A1 *586:39 5.49 
5 *586:39 *4240:A1 13.905 
6 *586:39 *4248:A1 7.155 
*END

*D_NET *587 0.00025529
*CONN
*I *4394:A1 I *D sky130_fd_sc_hd__a21o_2
*I *4785:X O *D sky130_fd_sc_hd__dlygate4sd3_1
*CAP
1 *4394:A1 0.000103502
2 *4785:X 0.000103502
3 *4394:A2 *4394:A1 4.82863e-05
*RES
1 *4785:X *4394:A1 4.685 
*END

*D_NET *588 0.000907454
*CONN
*I *4367:A1 I *D sky130_fd_sc_hd__o21a_2
*I *4786:X O *D sky130_fd_sc_hd__dlygate4sd3_1
*CAP
1 *4367:A1 0.00023086
2 *4786:X 0.00023086
3 *4367:A1 *4366:A1 0.000445734
4 *4367:A2 *4367:A1 0
*RES
1 *4786:X *4367:A1 12.015 
*END

*D_NET *589 6.4827e-05
*CONN
*I *4093:A I *D sky130_fd_sc_hd__and3_2
*I *4787:X O *D sky130_fd_sc_hd__dlygate4sd3_1
*CAP
1 *4093:A 3.24135e-05
2 *4787:X 3.24135e-05
*RES
1 *4787:X *4093:A 3.65 
*END

*D_NET *590 0.000188093
*CONN
*I *4263:A1 I *D sky130_fd_sc_hd__a21bo_2
*I *4788:X O *D sky130_fd_sc_hd__dlygate4sd3_1
*CAP
1 *4263:A1 1.5088e-05
2 *4788:X 1.5088e-05
3 *4263:A1 *4663:A 8.65961e-05
4 *4263:A2 *4263:A1 4.82919e-05
5 *350:12 *4263:A1 2.30292e-05
*RES
1 *4788:X *4263:A1 3.995 
*END

*D_NET *591 0.00100089
*CONN
*I *4200:A1 I *D sky130_fd_sc_hd__a21boi_2
*I *4789:X O *D sky130_fd_sc_hd__dlygate4sd3_1
*CAP
1 *4200:A1 0.00022275
2 *4789:X 0.00022275
3 *4200:A1 *4024:A 1.41095e-05
4 *4200:A1 *4025:C 0.000160529
5 *4200:A1 *836:6 4.80285e-05
6 *4200:A2 *4200:A1 7.44006e-05
7 *4202:B *4200:A1 9.72223e-05
8 *239:14 *4200:A1 0.000161101
*RES
1 *4789:X *4200:A1 12.9 
*END

*D_NET *592 0.00191913
*CONN
*I *3923:B2 I *D sky130_fd_sc_hd__a22o_2
*I *4790:X O *D sky130_fd_sc_hd__dlygate4sd3_1
*CAP
1 *3923:B2 0.000494584
2 *4790:X 0.000494584
3 *3923:B2 *3923:A1 0
4 *3926:B2 *3923:B2 0.00024756
5 *3927:A_N *3923:B2 7.9642e-06
6 *4453:D *3923:B2 0.000288091
7 *159:14 *3923:B2 0.000386351
*RES
1 *4790:X *3923:B2 15.555 
*END

*D_NET *593 0.00121778
*CONN
*I *4206:A1 I *D sky130_fd_sc_hd__a21bo_2
*I *4791:X O *D sky130_fd_sc_hd__dlygate4sd3_1
*CAP
1 *4206:A1 0.000308576
2 *4791:X 0.000308576
3 *4206:A1 *4206:B1_N 8.65961e-05
4 *4206:A1 *4791:A 4.80285e-05
5 *4206:A1 *654:8 0
6 *4206:A1 *654:10 6.57653e-06
7 *4206:A1 *696:16 0.000267491
8 *449:300 *4206:A1 0.000191932
*RES
1 *4791:X *4206:A1 14.805 
*END

*D_NET *594 0.00184577
*CONN
*I *4150:A1 I *D sky130_fd_sc_hd__a21bo_2
*I *4792:X O *D sky130_fd_sc_hd__dlygate4sd3_1
*CAP
1 *4150:A1 0.000630317
2 *4792:X 0.000630317
3 *4150:A1 *4114:B1 0
4 *4150:A1 *4150:B1_N 1.20741e-05
5 *4150:A1 *4678:A 0.000141606
6 *4043:B *4150:A1 0
7 *4631:A *4150:A1 0.000354725
8 *478:8 *4150:A1 7.67345e-05
*RES
1 *4792:X *4150:A1 18.6 
*END

*D_NET *595 0.000329046
*CONN
*I *4358:B2 I *D sky130_fd_sc_hd__a22o_2
*I *4793:X O *D sky130_fd_sc_hd__dlygate4sd3_1
*CAP
1 *4358:B2 9.31375e-05
2 *4793:X 9.31375e-05
3 *4358:B2 *4760:A 7.9642e-06
4 *4358:B2 *695:26 7.39277e-05
5 *4358:A2 *4358:B2 8.7152e-06
6 *4629:A *4358:B2 5.21638e-05
*RES
1 *4793:X *4358:B2 9.285 
*END

*D_NET *596 0.000778889
*CONN
*I *4092:A1 I *D sky130_fd_sc_hd__a21o_2
*I *4794:X O *D sky130_fd_sc_hd__dlygate4sd3_1
*CAP
1 *4092:A1 0.00030036
2 *4794:X 0.00030036
3 *4092:A1 *708:10 3.09179e-05
4 *4092:A1 *710:26 1.61831e-05
5 *4092:A2 *4092:A1 0.000131069
*RES
1 *4794:X *4092:A1 8.495 
*END

*D_NET *597 0.00780142
*CONN
*I *4257:A1 I *D sky130_fd_sc_hd__o21ai_2
*I *4254:A1 I *D sky130_fd_sc_hd__o21ai_2
*I *4208:A2 I *D sky130_fd_sc_hd__o21ai_2
*I *4213:A1 I *D sky130_fd_sc_hd__o21ai_2
*I *4216:A1 I *D sky130_fd_sc_hd__o21ai_2
*I *4211:A1 I *D sky130_fd_sc_hd__o21ai_2
*I *4013:A I *D sky130_fd_sc_hd__inv_2
*I *4252:A1 I *D sky130_fd_sc_hd__o21ai_2
*I *4664:X O *D sky130_fd_sc_hd__clkdlybuf4s25_1
*CAP
1 *4257:A1 0
2 *4254:A1 0
3 *4208:A2 3.4754e-05
4 *4213:A1 0.000175634
5 *4216:A1 0.000250847
6 *4211:A1 0.000176183
7 *4013:A 0.000399672
8 *4252:A1 0
9 *4664:X 0.000147442
10 *597:75 0.000563463
11 *597:73 0.0002699
12 *597:52 0.000396267
13 *597:33 0.000709716
14 *597:31 0.000322902
15 *597:20 0.000440287
16 *597:10 0.00045295
17 *4013:A *4000:B 0.000196747
18 *4013:A *4000:D 5.01624e-05
19 *4013:A *4214:A3 0.000154987
20 *4013:A *679:34 0
21 *4013:A *883:10 0.000137054
22 *4013:A *886:14 6.14645e-05
23 *4208:A2 *662:40 1.08758e-05
24 *4211:A1 *4510:D 8.40069e-05
25 *4213:A1 *4511:D 4.77807e-05
26 *4216:A1 *4216:B1 0.000120312
27 *4216:A1 *4512:D 0.000115726
28 *4216:A1 *662:16 4.4439e-05
29 *597:10 *4527:D 0.000112445
30 *597:10 *4662:A 3.08559e-05
31 *597:20 *4526:D 0
32 *597:20 *4662:A 0.000134808
33 *597:31 *4252:B1 0
34 *597:31 *4526:D 0.000137571
35 *597:31 *662:14 0
36 *597:33 *679:23 0
37 *597:33 *679:25 0
38 *597:33 *679:34 0
39 *597:52 *4510:D 5.83121e-06
40 *597:52 *883:10 2.49909e-05
41 *597:73 *662:14 0.000109688
42 *597:75 *4000:A 0.000136685
43 *597:75 *662:14 5.00903e-05
44 *597:75 *662:16 0.000253227
45 *4210:A *4013:A 0.00014604
46 *4210:A *597:33 0.000214381
47 *4210:A *597:73 6.04839e-05
48 *4211:A2 *4211:A1 1.4683e-05
49 *4212:B *4013:A 2.10905e-05
50 *4215:B *4013:A 2.0794e-05
51 *4215:B *4216:A1 0
52 *4251:A_N *597:20 0
53 *4251:B *597:10 1.98158e-05
54 *4251:B *597:20 0.00016264
55 *4252:A2 *597:20 0.00031916
56 *4254:A2 *597:31 1.26548e-05
57 *4254:A2 *597:33 5.53249e-06
58 *4256:B *597:10 2.49909e-05
59 *4257:A2 *597:10 0.000138636
60 *4511:CLK *4213:A1 1.91597e-05
61 *4526:CLK *597:20 0
62 *4527:CLK *597:10 0.000114492
63 *216:25 *4213:A1 4.88428e-05
64 *492:8 *597:20 4.82919e-05
65 *492:8 *597:31 4.99619e-05
66 *492:10 *597:31 0
*RES
1 *4664:X *597:10 7.47 
2 *597:10 *597:20 9.485 
3 *597:20 *4252:A1 1.6 
4 *597:20 *597:31 4.685 
5 *597:31 *597:33 4.44 
6 *597:33 *4013:A 12.315 
7 *597:33 *597:52 3.83 
8 *597:52 *4211:A1 4.6 
9 *597:52 *597:73 4.7 
10 *597:73 *597:75 3.675 
11 *597:75 *4216:A1 8.85 
12 *597:75 *4213:A1 6.39 
13 *597:73 *4208:A2 4.05 
14 *597:31 *4254:A1 3.6 
15 *597:10 *4257:A1 3.6 
*END

*D_NET *598 0.00119524
*CONN
*I *4366:A1 I *D sky130_fd_sc_hd__o21a_2
*I *4795:X O *D sky130_fd_sc_hd__dlygate4sd3_1
*CAP
1 *4366:A1 0.000192338
2 *4795:X 0.000192338
3 *4366:A1 *4476:RESET_B 0
4 *4366:A2 *4366:A1 0.000300109
5 *4367:A1 *4366:A1 0.000445734
6 *4367:A2 *4366:A1 0
7 *113:8 *4366:A1 6.47192e-05
8 *115:12 *4366:A1 0
*RES
1 *4795:X *4366:A1 13.305 
*END

*D_NET *599 0.000917305
*CONN
*I *3919:B2 I *D sky130_fd_sc_hd__a221o_2
*I *4796:X O *D sky130_fd_sc_hd__dlygate4sd3_1
*CAP
1 *3919:B2 0.000275695
2 *4796:X 0.000275695
3 *3919:B2 *748:23 0
4 *3918:A *3919:B2 4.20162e-06
5 *3919:B1 *3919:B2 2.48445e-05
6 *3919:C1 *3919:B2 5.05733e-05
7 *4349:A3 *3919:B2 0
8 *4353:A3 *3919:B2 0.000157501
9 *3:16 *3919:B2 0.000128795
*RES
1 *4796:X *3919:B2 13.3237 
*END

*D_NET *600 0.000177235
*CONN
*I *4086:A1 I *D sky130_fd_sc_hd__o21ai_2
*I *4797:X O *D sky130_fd_sc_hd__dlygate4sd3_1
*CAP
1 *4086:A1 7.61219e-05
2 *4797:X 7.61219e-05
3 *4086:B1 *4086:A1 2.49909e-05
*RES
1 *4797:X *4086:A1 4.34 
*END

*D_NET *601 0.00065198
*CONN
*I *4090:A1 I *D sky130_fd_sc_hd__a21o_2
*I *4798:X O *D sky130_fd_sc_hd__dlygate4sd3_1
*CAP
1 *4090:A1 0.00021502
2 *4798:X 0.00021502
3 *4090:A1 *4481:SET_B 7.03219e-05
4 *4090:A1 *4484:SET_B 4.66108e-05
5 *4090:A1 *1005:17 3.33839e-05
6 *123:10 *4090:A1 7.1624e-05
*RES
1 *4798:X *4090:A1 10.245 
*END

*D_NET *602 0.00071126
*CONN
*I *3870:A2 I *D sky130_fd_sc_hd__o211a_2
*I *4799:X O *D sky130_fd_sc_hd__dlygate4sd3_1
*CAP
1 *3870:A2 0.000218139
2 *4799:X 0.000218139
3 *3870:A1 *3870:A2 4.51241e-05
4 *3870:B1 *3870:A2 3.26889e-05
5 *4409:CLK *3870:A2 2.1883e-05
6 *4409:D *3870:A2 4.82919e-05
7 *107:92 *3870:A2 3.39151e-05
8 *162:16 *3870:A2 9.30787e-05
*RES
1 *4799:X *3870:A2 10.98 
*END

*D_NET *603 0.00145244
*CONN
*I *4072:A1 I *D sky130_fd_sc_hd__o211a_2
*I *4800:X O *D sky130_fd_sc_hd__dlygate4sd3_1
*CAP
1 *4072:A1 0.000398316
2 *4800:X 0.000398316
3 *3941:A *4072:A1 0.000316415
4 *4071:B1 *4072:A1 7.272e-05
5 *4072:C1 *4072:A1 0.000122155
6 *4410:CLK *4072:A1 9.14049e-05
7 *4751:A *4072:A1 7.00889e-06
8 *4800:A *4072:A1 2.49909e-05
9 *549:6 *4072:A1 2.11084e-05
*RES
1 *4800:X *4072:A1 15.3638 
*END

*D_NET *604 0.0008353
*CONN
*I *4291:A I *D sky130_fd_sc_hd__nand2_2
*I *4801:X O *D sky130_fd_sc_hd__dlygate4sd3_1
*CAP
1 *4291:A 0.000247003
2 *4801:X 0.000247003
3 *4291:A *4289:B1 4.89295e-05
4 *4289:A2 *4291:A 5.8322e-05
5 *4290:A2 *4291:A 4.77757e-05
6 *4292:A2 *4291:A 9.37846e-05
7 *4500:CLK *4291:A 9.24825e-05
*RES
1 *4801:X *4291:A 11.1 
*END

*D_NET *605 0.000830073
*CONN
*I *4081:A I *D sky130_fd_sc_hd__nand2_2
*I *4802:X O *D sky130_fd_sc_hd__dlygate4sd3_1
*CAP
1 *4081:A 0.000309178
2 *4802:X 0.000309178
3 *4081:A *3878:D 3.00381e-05
4 *4081:A *4480:D 4.82919e-05
5 *4082:A1 *4081:A 4.82919e-05
6 *4082:A2 *4081:A 8.50959e-05
*RES
1 *4802:X *4081:A 8.15 
*END

*D_NET *606 0.000675444
*CONN
*I *4328:A I *D sky130_fd_sc_hd__xnor2_2
*I *4803:X O *D sky130_fd_sc_hd__dlygate4sd3_1
*CAP
1 *4328:A 0.000240316
2 *4803:X 0.000240316
3 *4328:A *4592:D 0
4 *4328:A *939:27 0.000194812
5 *4328:B *4328:A 0
6 *484:12 *4328:A 0
*RES
1 *4803:X *4328:A 10.86 
*END

*D_NET *607 0.000407918
*CONN
*I *4312:A I *D sky130_fd_sc_hd__nand2_2
*I *4804:X O *D sky130_fd_sc_hd__dlygate4sd3_1
*CAP
1 *4312:A 0.000198746
2 *4804:X 0.000198746
3 *4312:A *647:10 1.04258e-05
4 *4312:A *976:23 0
5 *4319:A2 *4312:A 0
*RES
1 *4804:X *4312:A 9.72 
*END

*D_NET *608 0.0103431
*CONN
*I *4663:A I *D sky130_fd_sc_hd__clkdlybuf4s25_1
*I *4259:A1 I *D sky130_fd_sc_hd__o21ai_2
*I *4664:A I *D sky130_fd_sc_hd__clkdlybuf4s25_1
*I *4662:A I *D sky130_fd_sc_hd__clkdlybuf4s25_1
*I *4665:X O *D sky130_fd_sc_hd__clkdlybuf4s25_1
*CAP
1 *4663:A 0.000549087
2 *4259:A1 0
3 *4664:A 0.000102656
4 *4662:A 0.00165779
5 *4665:X 0.000591948
6 *608:16 0.00193905
7 *608:14 0.00036764
8 *608:8 0.00133006
9 *4662:A *4526:D 2.97004e-06
10 *4662:A *4527:D 0.000112445
11 *4662:A *661:8 0.000260572
12 *4662:A *679:10 0
13 *4662:A *679:12 0
14 *4663:A *4243:B1 6.96579e-05
15 *4663:A *663:6 1.6418e-05
16 *608:8 *4530:RESET_B 0.000306738
17 *608:8 *681:63 0.000262108
18 *608:14 *4528:D 0.000149292
19 *608:16 *4528:D 1.71013e-05
20 *4012:B *4663:A 0.000117116
21 *4252:A2 *4662:A 4.66108e-05
22 *4254:A2 *4662:A 0
23 *4256:B *4664:A 0.000235573
24 *4258:B *608:16 0
25 *4260:A2 *608:16 0
26 *4262:A *608:14 0.000108096
27 *4262:A *608:16 0
28 *4262:B *4663:A 0.000273695
29 *4262:B *608:14 7.06865e-05
30 *4263:A1 *4663:A 8.65961e-05
31 *4263:A2 *4663:A 0.000170472
32 *4263:B1_N *4663:A 1.12643e-05
33 *4526:CLK *4662:A 0.000211927
34 *4527:CLK *4662:A 0.000180689
35 *4527:CLK *608:14 0.000114295
36 *4527:CLK *608:16 0.000322604
37 *4651:A *4662:A 1.56428e-05
38 *224:43 *4662:A 0
39 *224:43 *608:16 0
40 *225:20 *608:16 0
41 *350:12 *4663:A 2.54431e-05
42 *449:226 *608:8 5.33172e-05
43 *494:60 *4663:A 0.000220186
44 *494:60 *608:14 0.000177723
45 *597:10 *4662:A 3.08559e-05
46 *597:20 *4662:A 0.000134808
*RES
1 *4665:X *608:8 11.295 
2 *608:8 *608:14 6.27 
3 *608:14 *608:16 3.93 
4 *608:16 *4662:A 26.7 
5 *608:16 *4664:A 5.775 
6 *608:14 *4259:A1 3.6 
7 *608:8 *4663:A 15.165 
*END

*D_NET *609 0.00103451
*CONN
*I *4338:A I *D sky130_fd_sc_hd__nand2_2
*I *4805:X O *D sky130_fd_sc_hd__dlygate4sd3_1
*CAP
1 *4338:A 0.000314574
2 *4805:X 0.000314574
3 *4338:A *3971:A 5.72091e-05
4 *4338:A *4339:B1 0.000255384
5 *4338:A *4805:A 4.06643e-05
6 *4338:A *705:52 5.21046e-05
*RES
1 *4805:X *4338:A 13.05 
*END

*D_NET *610 0.00065709
*CONN
*I *4277:A I *D sky130_fd_sc_hd__nand2_2
*I *4806:X O *D sky130_fd_sc_hd__dlygate4sd3_1
*CAP
1 *4277:A 0.000191713
2 *4806:X 0.000191713
3 *4277:A *4701:A 4.66108e-05
4 *4277:A *642:45 3.54025e-05
5 *4277:A *642:57 0
6 *4277:A *714:20 1.91597e-05
7 *4277:B *4277:A 0.00011852
8 *4278:A2 *4277:A 5.39718e-05
*RES
1 *4806:X *4277:A 10.41 
*END

*D_NET *611 0.00106128
*CONN
*I *4281:A I *D sky130_fd_sc_hd__nand2_2
*I *4807:X O *D sky130_fd_sc_hd__dlygate4sd3_1
*CAP
1 *4281:A 0.000355024
2 *4807:X 0.000355024
3 *4281:B *4281:A 3.7837e-05
4 *4282:A1 *4281:A 2.76356e-05
5 *4495:CLK *4281:A 0.000155056
6 *203:10 *4281:A 2.61093e-05
7 *496:24 *4281:A 0.000104599
*RES
1 *4807:X *4281:A 13.005 
*END

*D_NET *612 0.000983967
*CONN
*I *4324:A I *D sky130_fd_sc_hd__nand2_2
*I *4808:X O *D sky130_fd_sc_hd__dlygate4sd3_1
*CAP
1 *4324:A 0.000215658
2 *4808:X 0.000215658
3 *4324:A *3962:A 0
4 *4324:A *4325:B1 0.000498395
5 *4324:A *982:25 0
6 *4323:A2 *4324:A 5.4256e-05
*RES
1 *4808:X *4324:A 12.915 
*END

*D_NET *613 0.000838052
*CONN
*I *4269:A I *D sky130_fd_sc_hd__nand2_2
*I *4809:X O *D sky130_fd_sc_hd__dlygate4sd3_1
*CAP
1 *4269:A 0.000228384
2 *4809:X 0.000228384
3 *4269:A *4488:RESET_B 4.75576e-05
4 *4269:A *4489:RESET_B 8.49205e-05
5 *4269:A *917:42 0.000180682
6 *194:10 *4269:A 6.81237e-05
*RES
1 *4809:X *4269:A 11.67 
*END

*D_NET *614 0.00111215
*CONN
*I *4087:B1 I *D sky130_fd_sc_hd__o21ai_2
*I *4810:X O *D sky130_fd_sc_hd__dlygate4sd3_1
*CAP
1 *4087:B1 0.000419373
2 *4810:X 0.000419373
3 *4087:B1 *3879:A 7.4027e-05
4 *4087:B1 *4750:A 0.000199376
5 *4083:A *4087:B1 0
*RES
1 *4810:X *4087:B1 13.92 
*END

*D_NET *615 0.000616105
*CONN
*I *4285:A I *D sky130_fd_sc_hd__nand2_2
*I *4811:X O *D sky130_fd_sc_hd__dlygate4sd3_1
*CAP
1 *4285:A 0.000201663
2 *4811:X 0.000201663
3 *4285:A *4498:D 1.87062e-05
4 *4285:A *4811:A 3.64998e-06
5 *4286:A2 *4285:A 1.26548e-05
6 *4499:CLK *4285:A 5.09929e-05
7 *204:16 *4285:A 0.000114492
8 *205:10 *4285:A 1.22839e-05
*RES
1 *4811:X *4285:A 10.32 
*END

*D_NET *616 0.00118504
*CONN
*I *4336:B1 I *D sky130_fd_sc_hd__o21ai_2
*I *4812:X O *D sky130_fd_sc_hd__dlygate4sd3_1
*CAP
1 *4336:B1 0.00038884
2 *4812:X 0.00038884
3 *4336:B1 *4336:A1 7.00889e-06
4 *4336:B1 *4730:A 7.26551e-05
5 *4336:B1 *705:10 0
6 *4336:B1 *713:12 0.000139933
7 *4336:B1 *713:46 0.000187766
*RES
1 *4812:X *4336:B1 14.775 
*END

*D_NET *617 0.0010883
*CONN
*I *3947:B2 I *D sky130_fd_sc_hd__a32o_2
*I *4813:X O *D sky130_fd_sc_hd__dlygate4sd3_1
*CAP
1 *3947:B2 0.000267825
2 *4813:X 0.000267825
3 *3947:B2 *665:16 4.82919e-05
4 *3947:B2 *665:22 8.65905e-05
5 *3872:A0 *3947:B2 2.98644e-05
6 *3872:A1 *3947:B2 7.11301e-05
7 *3873:A1 *3947:B2 4.69705e-05
8 *4686:A *3947:B2 6.80167e-05
9 *4813:A *3947:B2 6.7033e-05
10 *4814:A *3947:B2 0.00013475
*RES
1 *4813:X *3947:B2 13.8 
*END

*D_NET *618 0.000397296
*CONN
*I *4412:D I *D sky130_fd_sc_hd__dfrtp_2
*I *4814:X O *D sky130_fd_sc_hd__dlygate4sd3_1
*CAP
1 *4412:D 0.000123503
2 *4814:X 0.000123503
3 *4412:D *707:37 0.000114649
4 *4686:A *4412:D 3.56402e-05
*RES
1 *4814:X *4412:D 9.375 
*END

*D_NET *619 0.00997942
*CONN
*I *4274:B1 I *D sky130_fd_sc_hd__a21oi_2
*I *4270:B1 I *D sky130_fd_sc_hd__a21oi_2
*I *4266:B1 I *D sky130_fd_sc_hd__a21oi_2
*I *4268:B1 I *D sky130_fd_sc_hd__a21oi_2
*I *3998:A I *D sky130_fd_sc_hd__inv_2
*I *4264:B I *D sky130_fd_sc_hd__nor2_2
*I *4272:B1 I *D sky130_fd_sc_hd__a21oi_2
*I *4276:B1 I *D sky130_fd_sc_hd__a21oi_2
*I *4666:X O *D sky130_fd_sc_hd__clkdlybuf4s25_1
*CAP
1 *4274:B1 0
2 *4270:B1 0.000138665
3 *4266:B1 0.000322946
4 *4268:B1 0
5 *3998:A 0.000650553
6 *4264:B 6.48029e-05
7 *4272:B1 8.11367e-05
8 *4276:B1 8.80287e-05
9 *4666:X 0.000403107
10 *619:58 0.000852526
11 *619:56 0.000449508
12 *619:46 0.000865593
13 *619:44 0.000928104
14 *619:29 0.000705108
15 *619:25 0.000748499
16 *619:10 0.00117479
17 *3998:A *4487:D 0.000136296
18 *3998:A *4600:A 9.2741e-05
19 *4266:B1 *4489:D 6.13596e-05
20 *4272:B1 *4491:D 8.52845e-05
21 *4276:B1 *4493:D 0.000141606
22 *4276:B1 *675:36 0.000118504
23 *619:10 *4494:D 0
24 *619:10 *4696:A 0.000138808
25 *619:25 *3983:A 7.28902e-06
26 *619:25 *3983:B 2.19562e-06
27 *619:25 *4492:D 1.16854e-05
28 *619:29 *4492:D 8.52883e-05
29 *619:44 *4267:A 4.84487e-05
30 *619:44 *4492:D 0.000309719
31 *619:56 *4265:B 2.26364e-05
32 *619:56 *4489:D 2.92522e-05
33 *619:58 *4265:B 1.5996e-05
34 *3983:D *619:25 8.40269e-05
35 *4268:A2 *619:44 0.000126569
36 *4268:A2 *619:46 0.000431939
37 *4268:A2 *619:56 0.000237809
38 *4270:A1 *4270:B1 1.08758e-05
39 *4272:A1 *619:44 8.13946e-05
40 *4274:A2 *619:25 4.1745e-05
41 *4277:B *4276:B1 0
42 *4277:B *619:10 0
43 *4493:CLK *619:25 5.0751e-05
44 *4494:CLK *4276:B1 0
45 *4494:CLK *619:10 0
46 *466:8 *619:56 8.53224e-05
47 *466:12 *3998:A 0
48 *466:58 *4266:B1 1.05476e-05
49 *466:69 *4266:B1 3.79606e-05
50 *488:10 *4276:B1 0
*RES
1 *4666:X *619:10 10.17 
2 *619:10 *4276:B1 6.255 
3 *619:10 *619:25 9.965 
4 *619:25 *619:29 1.5 
5 *619:29 *4272:B1 3.085 
6 *619:29 *619:44 12.695 
7 *619:44 *619:46 5.205 
8 *619:46 *619:56 9.265 
9 *619:56 *619:58 1.89 
10 *619:58 *4264:B 4.395 
11 *619:58 *3998:A 14.205 
12 *619:56 *4268:B1 3.6 
13 *619:46 *4266:B1 11.755 
14 *619:44 *4270:B1 5.445 
15 *619:25 *4274:B1 1.6 
*END

*D_NET *620 0.000316859
*CONN
*I *4297:B1 I *D sky130_fd_sc_hd__o21ai_2
*I *4815:X O *D sky130_fd_sc_hd__dlygate4sd3_1
*CAP
1 *4297:B1 8.90115e-05
2 *4815:X 8.90115e-05
3 *4297:B1 *4297:A1 9.22251e-05
4 *4297:B1 *4502:D 4.66108e-05
*RES
1 *4815:X *4297:B1 8.775 
*END

*D_NET *621 0.000725953
*CONN
*I *4318:B1 I *D sky130_fd_sc_hd__o31ai_2
*I *4816:X O *D sky130_fd_sc_hd__dlygate4sd3_1
*CAP
1 *4318:B1 0.000362976
2 *4816:X 0.000362976
3 *4319:A2 *4318:B1 0
*RES
1 *4816:X *4318:B1 11.61 
*END

*D_NET *622 0.00415514
*CONN
*I *3860:A1 I *D sky130_fd_sc_hd__o21a_2
*I *4365:B2 I *D sky130_fd_sc_hd__a221o_2
*I *4817:X O *D sky130_fd_sc_hd__dlygate4sd3_1
*CAP
1 *3860:A1 7.22658e-05
2 *4365:B2 0.000660396
3 *4817:X 0.000149627
4 *622:6 0.000882288
5 *3860:A1 *3937:A 0.00016037
6 *3860:A1 *713:12 0.000154857
7 *4365:B2 *4363:B2 1.29378e-07
8 *4365:B2 *664:6 0.000122817
9 *4365:B2 *664:23 8.41384e-05
10 *622:6 *984:36 0.000230021
11 *4363:A2 *4365:B2 3.3625e-05
12 *4363:B1 *4365:B2 0.000102654
13 *4365:B1 *4365:B2 0.000345165
14 *4411:D *4365:B2 0.000409085
15 *4427:CLK *4365:B2 1.12643e-05
16 *171:10 *4365:B2 0.0006481
17 *171:10 *622:6 1.91597e-05
18 *171:20 *4365:B2 4.15046e-05
19 *521:18 *3860:A1 2.14995e-05
20 *521:66 *4365:B2 6.17955e-06
*RES
1 *4817:X *622:6 4.12 
2 *622:6 *4365:B2 20.1987 
3 *622:6 *3860:A1 7.94 
*END

*D_NET *623 0.00085915
*CONN
*I *4405:D I *D sky130_fd_sc_hd__dfrtp_2
*I *4818:X O *D sky130_fd_sc_hd__dlygate4sd3_1
*CAP
1 *4405:D 0.000264066
2 *4818:X 0.000264066
3 *4405:CLK *4405:D 5.83121e-06
4 *4656:A *4405:D 4.21484e-05
5 *483:21 *4405:D 0.000112279
6 *483:57 *4405:D 0.000170759
*RES
1 *4818:X *4405:D 12.27 
*END

*D_NET *624 0.000116022
*CONN
*I *4330:B1 I *D sky130_fd_sc_hd__o21ai_2
*I *4819:X O *D sky130_fd_sc_hd__dlygate4sd3_1
*CAP
1 *4330:B1 9.71884e-06
2 *4819:X 9.71884e-06
3 *4330:A2 *4330:B1 4.82919e-05
4 *184:14 *4330:B1 4.82919e-05
*RES
1 *4819:X *4330:B1 3.65 
*END

*D_NET *625 0.00072297
*CONN
*I *4279:A I *D sky130_fd_sc_hd__nand2_2
*I *4820:X O *D sky130_fd_sc_hd__dlygate4sd3_1
*CAP
1 *4279:A 0.000207109
2 *4820:X 0.000207109
3 *4280:A2 *4279:A 2.86975e-05
4 *200:17 *4279:A 0.000161529
5 *200:21 *4279:A 0.000118527
*RES
1 *4820:X *4279:A 11.37 
*END

*D_NET *626 0.00108263
*CONN
*I *4147:B1 I *D sky130_fd_sc_hd__o31a_2
*I *4821:X O *D sky130_fd_sc_hd__dlygate4sd3_1
*CAP
1 *4147:B1 0.000388449
2 *4821:X 0.000388449
3 *4147:B1 *697:10 7.23602e-05
4 *4147:B1 *794:6 5.30673e-05
5 *4148:A1 *4147:B1 4.17547e-05
6 *451:8 *4147:B1 0.000138551
7 *531:32 *4147:B1 0
*RES
1 *4821:X *4147:B1 12.735 
*END

*D_NET *627 0.00173291
*CONN
*I *4275:A I *D sky130_fd_sc_hd__nand2_2
*I *4822:X O *D sky130_fd_sc_hd__dlygate4sd3_1
*CAP
1 *4275:A 0.000266801
2 *4822:X 0.000266801
3 *4275:A *677:14 0.000471301
4 *4276:A2 *4275:A 0.000728008
*RES
1 *4822:X *4275:A 15.87 
*END

*D_NET *628 0.000717732
*CONN
*I *4289:B1 I *D sky130_fd_sc_hd__o21ai_2
*I *4823:X O *D sky130_fd_sc_hd__dlygate4sd3_1
*CAP
1 *4289:B1 0.00016166
2 *4823:X 0.00016166
3 *4289:A2 *4289:B1 0.000195432
4 *4291:A *4289:B1 4.89295e-05
5 *205:49 *4289:B1 0.00015005
*RES
1 *4823:X *4289:B1 6.41 
*END

*D_NET *629 0.000902657
*CONN
*I *4342:B1 I *D sky130_fd_sc_hd__o21a_2
*I *4824:X O *D sky130_fd_sc_hd__dlygate4sd3_1
*CAP
1 *4342:B1 0.000294885
2 *4824:X 0.000294885
3 *4342:B1 *3955:A 4.7043e-05
4 *4342:B1 *4342:A1 6.65887e-05
5 *4344:B *4342:B1 1.19928e-05
6 *4345:B *4342:B1 2.75229e-05
7 *189:38 *4342:B1 0.00015974
*RES
1 *4824:X *4342:B1 12.45 
*END

*D_NET *630 0.00757126
*CONN
*I *4298:B1 I *D sky130_fd_sc_hd__a21oi_2
*I *4292:B1 I *D sky130_fd_sc_hd__a21oi_2
*I *4290:B1 I *D sky130_fd_sc_hd__a21oi_2
*I *4288:B1 I *D sky130_fd_sc_hd__a21oi_2
*I *4286:B1 I *D sky130_fd_sc_hd__a21oi_2
*I *4284:B1 I *D sky130_fd_sc_hd__a21oi_2
*I *4296:B1 I *D sky130_fd_sc_hd__a21oi_2
*I *4294:B1 I *D sky130_fd_sc_hd__a21oi_2
*I *4667:X O *D sky130_fd_sc_hd__clkdlybuf4s25_1
*CAP
1 *4298:B1 0.000165122
2 *4292:B1 0
3 *4290:B1 0
4 *4288:B1 3.39263e-05
5 *4286:B1 0
6 *4284:B1 0.000146429
7 *4296:B1 0.000157752
8 *4294:B1 2.2622e-05
9 *4667:X 0.000221123
10 *630:58 0.000340572
11 *630:52 0.000438937
12 *630:50 0.000733042
13 *630:44 0.00088214
14 *630:34 0.000819721
15 *630:8 0.000224636
16 *630:6 0.000560018
17 *4284:B1 *4827:A 5.18317e-06
18 *4294:B1 *4502:D 8.35068e-05
19 *4296:B1 *4297:A1 0.000156344
20 *4296:B1 *4503:D 6.13115e-05
21 *630:6 *4815:A 0.00016031
22 *630:44 *4456:D 1.56428e-05
23 *630:50 *3991:B 0.000112907
24 *630:50 *920:10 0.000163714
25 *630:52 *920:10 0.000244853
26 *3991:D *630:50 0.000195536
27 *3992:B *4298:B1 0.000138102
28 *4284:A2 *4284:B1 6.94735e-06
29 *4294:A2 *4294:B1 4.78678e-05
30 *4294:A2 *630:6 0.0001628
31 *4294:A2 *630:8 4.60061e-05
32 *4298:A1 *4298:B1 5.48123e-05
33 *4298:A2 *4298:B1 0.000160314
34 *4298:A2 *630:34 1.56982e-05
35 *4454:RESET_B *630:50 5.79922e-05
36 *4456:CLK *630:44 6.18325e-06
37 *4503:CLK *4296:B1 4.89295e-05
38 *208:30 *4298:B1 7.8157e-05
39 *209:8 *630:34 0.000329269
40 *209:32 *4296:B1 0.000156344
41 *209:32 *630:34 0.000156973
42 *530:18 *4298:B1 4.66108e-05
43 *530:18 *630:44 0.000112907
*RES
1 *4667:X *630:6 5.845 
2 *630:6 *630:8 0.795 
3 *630:8 *4294:B1 2.395 
4 *630:8 *4296:B1 9.335 
5 *630:6 *630:34 8.48 
6 *630:34 *630:44 9.865 
7 *630:44 *630:50 9.255 
8 *630:50 *630:52 4.185 
9 *630:52 *630:58 4.94 
10 *630:58 *4284:B1 8 
11 *630:58 *4286:B1 1.6 
12 *630:52 *4288:B1 4.05 
13 *630:50 *4290:B1 3.6 
14 *630:44 *4292:B1 3.6 
15 *630:34 *4298:B1 7.54125 
*END

*D_NET *631 0.000691121
*CONN
*I *4273:B1 I *D sky130_fd_sc_hd__o21ai_2
*I *4825:X O *D sky130_fd_sc_hd__dlygate4sd3_1
*CAP
1 *4273:B1 0.000220219
2 *4825:X 0.000220219
3 *4273:B1 *675:36 4.7043e-05
4 *3983:D *4273:B1 7.10578e-05
5 *4276:A2 *4273:B1 0
6 *197:12 *4273:B1 5.83121e-06
7 *197:25 *4273:B1 0.000126751
*RES
1 *4825:X *4273:B1 12.015 
*END

*D_NET *632 0.000976812
*CONN
*I *4344:A I *D sky130_fd_sc_hd__xnor2_2
*I *4826:X O *D sky130_fd_sc_hd__dlygate4sd3_1
*CAP
1 *4344:A 0.000308823
2 *4826:X 0.000308823
3 *4344:A *4826:A 0.000108859
4 *4344:A *972:27 2.58336e-05
5 *3973:C *4344:A 6.41594e-05
6 *3973:D *4344:A 0.000160314
*RES
1 *4826:X *4344:A 8.495 
*END

*D_NET *633 0.000953217
*CONN
*I *4283:A I *D sky130_fd_sc_hd__nand2_2
*I *4827:X O *D sky130_fd_sc_hd__dlygate4sd3_1
*CAP
1 *4283:A 0.000364533
2 *4827:X 0.000364533
3 *4497:CLK *4283:A 0.000224151
*RES
1 *4827:X *4283:A 12.9 
*END

*D_NET *634 0.000222134
*CONN
*I *4267:A I *D sky130_fd_sc_hd__nand2_2
*I *4828:X O *D sky130_fd_sc_hd__dlygate4sd3_1
*CAP
1 *4267:A 8.68424e-05
2 *4828:X 8.68424e-05
3 *619:44 *4267:A 4.84487e-05
*RES
1 *4828:X *4267:A 8.835 
*END

*D_NET *635 0.000378876
*CONN
*I *4293:A I *D sky130_fd_sc_hd__nand2_2
*I *4829:X O *D sky130_fd_sc_hd__dlygate4sd3_1
*CAP
1 *4293:A 0.000189438
2 *4829:X 0.000189438
3 *4293:A *4504:D 0
4 *4294:A2 *4293:A 0
*RES
1 *4829:X *4293:A 10.065 
*END

*D_NET *636 0.00108665
*CONN
*I *4079:B1 I *D sky130_fd_sc_hd__o21ai_2
*I *4830:X O *D sky130_fd_sc_hd__dlygate4sd3_1
*CAP
1 *4079:B1 0.000389646
2 *4830:X 0.000389646
3 *4079:B1 *4079:A1 1.61831e-05
4 *4079:B1 *4837:A 4.82863e-05
5 *4079:B1 *998:65 0.000139265
6 *4076:B *4079:B1 7.35813e-05
7 *4080:A2 *4079:B1 3.00381e-05
*RES
1 *4830:X *4079:B1 9.86 
*END

*D_NET *637 0.00057699
*CONN
*I *4340:A I *D sky130_fd_sc_hd__xor2_2
*I *4831:X O *D sky130_fd_sc_hd__dlygate4sd3_1
*CAP
1 *4340:A 0.00024876
2 *4831:X 0.00024876
3 *4340:A *3955:A 0
4 *4340:A *3955:B 4.94326e-05
5 *4340:A *4593:RESET_B 0
6 *4340:A *970:6 3.00381e-05
*RES
1 *4831:X *4340:A 11.07 
*END

*D_NET *638 0.00144162
*CONN
*I *4392:A1 I *D sky130_fd_sc_hd__o21a_2
*I *4832:X O *D sky130_fd_sc_hd__dlygate4sd3_1
*CAP
1 *4392:A1 0.000448023
2 *4832:X 0.000448023
3 *4392:A1 *3885:A 0
4 *4392:A1 *3885:B 2.75145e-05
5 *4392:A1 *3885:C 1.61461e-05
6 *4392:A1 *4393:C 8.44359e-05
7 *4392:A1 *4441:RESET_B 0
8 *4392:A1 *1009:8 1.4389e-05
9 *4392:A1 *1009:12 0
10 *4392:A2 *4392:A1 0.000279787
11 *4392:B1 *4392:A1 3.35396e-05
12 *446:8 *4392:A1 8.97642e-05
*RES
1 *4832:X *4392:A1 16.5 
*END

*D_NET *639 0.000271493
*CONN
*I *4332:A I *D sky130_fd_sc_hd__nand2_2
*I *4833:X O *D sky130_fd_sc_hd__dlygate4sd3_1
*CAP
1 *4332:A 6.87495e-05
2 *4833:X 6.87495e-05
3 *4332:B *4332:A 4.82919e-05
4 *4333:A2 *4332:A 8.57024e-05
*RES
1 *4833:X *4332:A 4.7 
*END

*D_NET *640 0.000870698
*CONN
*I *4302:A I *D sky130_fd_sc_hd__nand2_2
*I *4834:X O *D sky130_fd_sc_hd__dlygate4sd3_1
*CAP
1 *4302:A 0.000273858
2 *4834:X 0.000273858
3 *4302:A *692:18 0.000162325
4 *213:12 *4302:A 0.000160658
*RES
1 *4834:X *4302:A 11.955 
*END

*D_NET *641 0.000371788
*CONN
*I *4852:A I *D sky130_fd_sc_hd__clkdlybuf4s25_1
*I *4597:X O *D sky130_fd_sc_hd__buf_2
*CAP
1 *4852:A 0.000172133
2 *4597:X 0.000172133
3 led[0] *4852:A 2.75229e-05
*RES
1 *4597:X *4852:A 9.975 
*END

*D_NET *642 0.0149468
*CONN
*I *4301:B1 I *D sky130_fd_sc_hd__a21oi_2
*I *4667:A I *D sky130_fd_sc_hd__clkdlybuf4s25_1
*I *4303:B1 I *D sky130_fd_sc_hd__a21oi_2
*I *4278:B1 I *D sky130_fd_sc_hd__a21oi_2
*I *4280:B1 I *D sky130_fd_sc_hd__a21oi_2
*I *4282:B1 I *D sky130_fd_sc_hd__a21oi_2
*I *4666:A I *D sky130_fd_sc_hd__clkdlybuf4s25_1
*I *4668:X O *D sky130_fd_sc_hd__clkdlybuf4s25_1
*CAP
1 *4301:B1 0
2 *4667:A 0.000486882
3 *4303:B1 1.48227e-05
4 *4278:B1 0
5 *4280:B1 0
6 *4282:B1 0.000339502
7 *4666:A 0.000164385
8 *4668:X 0.00065765
9 *642:90 0.000750359
10 *642:84 0.000294262
11 *642:57 0.000926691
12 *642:45 0.000920518
13 *642:28 0.0023898
14 *642:18 0.00259535
15 *4282:B1 *4495:D 0.000184721
16 *4282:B1 *4496:D 0.000200664
17 *4303:B1 *4300:A 2.76781e-05
18 *4303:B1 *4506:D 4.82863e-05
19 *4666:A *4696:A 3.45679e-05
20 *4666:A *4806:A 0
21 *642:18 *4300:A 4.66108e-05
22 *642:18 *4709:A 0.000202672
23 *642:18 *926:17 0.000137571
24 *642:18 *926:34 2.07184e-05
25 *642:28 *3996:B 0.000359924
26 *642:28 *4463:RESET_B 7.85218e-05
27 *642:28 *4472:RESET_B 0.000355173
28 *642:28 *683:84 0
29 *642:28 *684:8 0
30 *642:28 *684:46 0.000338639
31 *642:28 *684:48 0.000327351
32 *642:28 *926:17 4.44927e-05
33 *642:45 *4701:A 0.000147077
34 *642:45 *4806:A 8.65961e-05
35 *642:45 *677:8 0.000311282
36 *642:45 *714:20 2.75145e-05
37 *642:57 *4495:D 4.89295e-05
38 *642:57 *4820:A 0.000163204
39 *642:57 *714:20 0
40 *642:84 *4505:D 3.03684e-05
41 *642:90 *4505:D 1.47347e-05
42 *3996:D *642:18 0.000140697
43 *3996:D *642:28 0.00034058
44 *4048:A *642:28 0.000159763
45 *4048:B *642:28 1.0183e-05
46 *4054:B1 *642:28 0
47 *4067:A *642:28 0
48 *4277:A *642:45 3.54025e-05
49 *4277:A *642:57 0
50 *4277:B *642:57 0
51 *4278:A2 *642:45 5.30673e-05
52 *4278:A2 *642:57 7.89767e-05
53 *4280:A1 *642:57 0.000170241
54 *4301:A1 *642:90 0.000122331
55 *4301:A2 *4303:B1 8.65905e-05
56 *4301:A2 *4667:A 2.92496e-05
57 *4301:A2 *642:90 0.00015995
58 *4303:A1 *4667:A 4.11198e-05
59 *4303:A2 *642:90 0
60 *4419:D *4666:A 0
61 *4419:D *642:28 0
62 *4421:CLK *642:28 0.000132721
63 *4421:D *642:28 3.38982e-05
64 *4423:D *4666:A 0
65 *4467:D *642:28 0
66 *4468:D *642:28 0
67 *4495:CLK *4282:B1 5.72299e-05
68 *4506:CLK *642:18 5.83121e-06
69 *4508:CLK *4667:A 0.00011741
70 *4621:A *642:28 7.07879e-05
71 *200:21 *642:57 0
72 *211:42 *4667:A 0
73 *260:14 *642:28 0
74 *468:37 *642:18 0.000227457
75 *496:24 *4282:B1 1.25877e-05
76 *497:77 *642:28 8.3215e-05
*RES
1 *4668:X *642:18 14.805 
2 *642:18 *642:28 39.225 
3 *642:28 *4666:A 6.285 
4 *642:28 *642:45 9.365 
5 *642:45 *642:57 13.78 
6 *642:57 *4282:B1 12.365 
7 *642:57 *4280:B1 1.6 
8 *642:45 *4278:B1 1.6 
9 *642:18 *642:84 2.795 
10 *642:84 *642:90 6.665 
11 *642:90 *4303:B1 4.395 
12 *642:90 *4667:A 12.03 
13 *642:84 *4301:B1 1.6 
*END

*D_NET *643 0.000601354
*CONN
*I *4310:A I *D sky130_fd_sc_hd__nand2_2
*I *4835:X O *D sky130_fd_sc_hd__dlygate4sd3_1
*CAP
1 *4310:A 0.000208277
2 *4835:X 0.000208277
3 *4310:A *3957:A 8.73544e-05
4 *4310:B *4310:A 0
5 *4311:A2 *4310:A 6.74079e-05
6 *4313:A2 *4310:A 3.00381e-05
*RES
1 *4835:X *4310:A 10.665 
*END

*D_NET *644 0.00253439
*CONN
*I *3851:A1 I *D sky130_fd_sc_hd__a31oi_2
*I *4836:X O *D sky130_fd_sc_hd__dlygate4sd3_1
*CAP
1 *3851:A1 0.000950973
2 *4836:X 0.000950973
3 *3851:A1 *3849:A2 0
4 *3851:A1 *3849:B1 1.79483e-05
5 *3851:A1 *4771:A 0.000121241
6 *3851:A1 *669:27 0
7 *3851:A1 *752:19 0.000163585
8 *3851:B1 *3851:A1 7.97477e-05
9 *4359:B *3851:A1 4.66108e-05
10 *4406:CLK *3851:A1 0
11 *4799:A *3851:A1 1.96741e-05
12 *449:226 *3851:A1 0.000183635
13 *519:26 *3851:A1 0
14 *519:38 *3851:A1 0
*RES
1 *4836:X *3851:A1 22.215 
*END

*D_NET *645 0.00123963
*CONN
*I *4078:A1 I *D sky130_fd_sc_hd__a21o_2
*I *4837:X O *D sky130_fd_sc_hd__dlygate4sd3_1
*CAP
1 *4078:A1 0.00033098
2 *4837:X 0.00033098
3 *4078:A1 *3877:A 3.23391e-05
4 *4078:A1 *4079:A1 8.65905e-05
5 *4078:A1 *4079:A2 3.86529e-05
6 *4078:A1 *998:65 0.00023468
7 *4078:A1 *999:16 0.000185405
*RES
1 *4837:X *4078:A1 12.975 
*END

*D_NET *646 0.000190918
*CONN
*I *3917:A1 I *D sky130_fd_sc_hd__a21o_2
*I *4838:X O *D sky130_fd_sc_hd__dlygate4sd3_1
*CAP
1 *3917:A1 6.04698e-05
2 *4838:X 6.04698e-05
3 *3917:A2 *3917:A1 4.82863e-05
4 *3917:B1 *3917:A1 2.16917e-05
*RES
1 *4838:X *3917:A1 3.995 
*END

*D_NET *647 0.00735737
*CONN
*I *4319:B1 I *D sky130_fd_sc_hd__a21oi_2
*I *4317:A I *D sky130_fd_sc_hd__nor2_2
*I *4321:B1 I *D sky130_fd_sc_hd__a21oi_2
*I *4323:B1 I *D sky130_fd_sc_hd__a21oi_2
*I *4311:B1 I *D sky130_fd_sc_hd__a21oi_2
*I *4313:B1 I *D sky130_fd_sc_hd__a21oi_2
*I *4309:B1 I *D sky130_fd_sc_hd__a21oi_2
*I *4307:B I *D sky130_fd_sc_hd__nor2_2
*I *4669:X O *D sky130_fd_sc_hd__clkdlybuf4s25_1
*CAP
1 *4319:B1 0
2 *4317:A 0.000120792
3 *4321:B1 5.43937e-05
4 *4323:B1 0.000279941
5 *4311:B1 0
6 *4313:B1 0.000387573
7 *4309:B1 2.89141e-06
8 *4307:B 0.000106137
9 *4669:X 0.000383593
10 *647:84 0.000572983
11 *647:80 0.000528913
12 *647:43 0.000698827
13 *647:37 0.000432388
14 *647:18 0.000748912
15 *647:14 0.000946263
16 *647:10 0.000641633
17 *4307:B *4308:A 4.99619e-05
18 *4307:B *4308:B 4.82919e-05
19 *4307:B *690:73 0
20 *4313:B1 *3957:A 0.000119154
21 *4313:B1 *4576:D 0.000141606
22 *4313:B1 *4578:D 2.55587e-05
23 *4321:B1 *4707:A 7.35729e-05
24 *647:10 *4804:A 0
25 *647:14 *3956:A 0
26 *647:14 *3958:D 0
27 *647:14 *4804:A 0
28 *647:18 *3958:A 0.000276441
29 *647:37 *3958:A 0
30 *647:43 *4577:D 0
31 *3962:B *4323:B1 0.000207194
32 *4311:A1 *647:43 0
33 *4311:A2 *4313:B1 0
34 *4311:A2 *647:18 3.09179e-05
35 *4311:A2 *647:37 5.30673e-05
36 *4311:A2 *647:43 0
37 *4312:A *647:10 1.04258e-05
38 *4319:A2 *647:10 0
39 *4321:A2 *647:84 9.16315e-05
40 *4322:A2 *647:84 0
41 *4576:CLK *4313:B1 0
42 *4579:CLK *647:10 5.05521e-05
43 *4624:A *4323:B1 0
44 *174:27 *4313:B1 4.82919e-05
45 *175:6 *4313:B1 4.82863e-05
46 *176:10 *647:18 8.88108e-06
47 *178:25 *647:84 0
48 *179:8 *4323:B1 8.08153e-06
49 *179:8 *647:84 8.09021e-06
50 *463:8 *4323:B1 0
51 *471:12 *647:43 8.76986e-05
52 *471:23 *4309:B1 5.08304e-06
53 *471:23 *4313:B1 0
54 *471:23 *647:43 5.9339e-05
55 *472:56 *647:10 0
56 *472:56 *647:14 0
*RES
1 *4669:X *647:10 8.445 
2 *647:10 *647:14 6.185 
3 *647:14 *647:18 6.585 
4 *647:18 *4307:B 7.43 
5 *647:18 *647:37 2.205 
6 *647:37 *647:43 7.8875 
7 *647:43 *4309:B1 3.8325 
8 *647:43 *4313:B1 10.9575 
9 *647:37 *4311:B1 1.6 
10 *647:14 *647:80 2.52 
11 *647:80 *647:84 6.185 
12 *647:84 *4323:B1 9.57 
13 *647:84 *4321:B1 4.74 
14 *647:80 *4317:A 3.43 
15 *647:10 *4319:B1 3.6 
*END

*D_NET *648 0.0103281
*CONN
*I *4339:B1 I *D sky130_fd_sc_hd__a21oi_2
*I *4337:B1 I *D sky130_fd_sc_hd__a21oi_2
*I *4335:A I *D sky130_fd_sc_hd__nor2_2
*I *4333:B1 I *D sky130_fd_sc_hd__a21oi_2
*I *4341:A I *D sky130_fd_sc_hd__nor2_2
*I *4329:A I *D sky130_fd_sc_hd__nor2_2
*I *3975:A I *D sky130_fd_sc_hd__inv_2
*I *4331:B1 I *D sky130_fd_sc_hd__a21oi_2
*I *4670:X O *D sky130_fd_sc_hd__clkdlybuf4s25_1
*CAP
1 *4339:B1 0.00033619
2 *4337:B1 0
3 *4335:A 1.85694e-05
4 *4333:B1 0
5 *4341:A 0.000501943
6 *4329:A 2.08101e-05
7 *3975:A 2.8043e-05
8 *4331:B1 5.95356e-05
9 *4670:X 3.72196e-05
10 *648:56 0.000716777
11 *648:41 0.000876728
12 *648:30 0.00101082
13 *648:24 0.000469813
14 *648:18 0.000767963
15 *648:10 0.000768506
16 *648:8 0.000565711
17 *3975:A *939:6 2.49909e-05
18 *4339:B1 *3971:A 0
19 *4339:B1 *4591:D 0.000341419
20 *4339:B1 *4591:RESET_B 0
21 *4339:B1 *705:52 0
22 *4341:A *4592:D 0
23 *4341:A *4593:D 7.00889e-06
24 *648:10 *3969:A 0.000125554
25 *648:10 *3971:A 0
26 *648:10 *4591:RESET_B 0
27 *648:18 *3969:A 0.000342254
28 *648:18 *4591:RESET_B 0
29 *648:18 *705:10 0
30 *648:18 *705:20 0
31 *648:18 *967:10 0.000141599
32 *648:24 *4588:D 8.8266e-05
33 *648:24 *4833:A 8.65905e-05
34 *648:30 *4586:RESET_B 0
35 *648:30 *4587:D 9.30787e-05
36 *648:30 *4588:RESET_B 0.000231564
37 *648:30 *4833:A 4.99619e-05
38 *648:41 *4327:B1 0.000183253
39 *648:41 *4585:D 9.30787e-05
40 *648:41 *4586:D 0.000137578
41 *648:41 *4586:RESET_B 0
42 *648:41 *978:10 0
43 *648:56 *4315:B1 2.68721e-05
44 *648:56 *4586:D 0.000196728
45 *3968:B *648:30 1.52184e-05
46 *4328:B *648:41 0
47 *4329:B *648:56 0.000311971
48 *4332:B *648:30 8.49205e-05
49 *4333:A1 *4335:A 9.53428e-06
50 *4333:A1 *648:18 0.000154196
51 *4333:A1 *648:24 0.000264512
52 *4333:A2 *648:24 0.000127612
53 *4333:A2 *648:30 0.000274659
54 *4335:B *648:18 8.8266e-05
55 *4338:A *4339:B1 0.000255384
56 *4339:A2 *4339:B1 0
57 *4339:A2 *648:8 1.83847e-05
58 *4343:A2 *4339:B1 2.30292e-05
59 *4593:CLK *4341:A 5.05521e-05
60 *184:18 *648:30 0.000127443
61 *470:64 *648:30 0.000173973
62 *472:28 *648:41 0
63 *472:41 *648:41 0
*RES
1 *4670:X *648:8 4.05 
2 *648:8 *648:10 3.675 
3 *648:10 *648:18 13.1 
4 *648:18 *648:24 4.62 
5 *648:24 *648:30 10.745 
6 *648:30 *4331:B1 4.395 
7 *648:30 *648:41 12.345 
8 *648:41 *3975:A 4.05 
9 *648:41 *648:56 6.83 
10 *648:56 *4329:A 1.96 
11 *648:56 *4341:A 12.86 
12 *648:24 *4333:B1 1.6 
13 *648:18 *4335:A 1.96 
14 *648:10 *4337:B1 3.6 
15 *648:8 *4339:B1 11.685 
*END

*D_NET *649 0.00989765
*CONN
*I *4345:A I *D sky130_fd_sc_hd__nor2_2
*I *4670:A I *D sky130_fd_sc_hd__clkdlybuf4s25_1
*I *4669:A I *D sky130_fd_sc_hd__clkdlybuf4s25_1
*I *4325:B1 I *D sky130_fd_sc_hd__a21oi_2
*I *4671:X O *D sky130_fd_sc_hd__clkdlybuf4s25_1
*CAP
1 *4345:A 0
2 *4670:A 0.000271885
3 *4669:A 0.0003194
4 *4325:B1 0.0006574
5 *4671:X 0.000159616
6 *649:58 0.000484041
7 *649:18 0.00303807
8 *649:14 0.00243304
9 *4325:B1 *3963:C 0.000283278
10 *4325:B1 *4580:D 0
11 *4325:B1 *4580:RESET_B 0
12 *4325:B1 *4583:RESET_B 0.00025631
13 *4325:B1 *4584:D 0
14 *4325:B1 *688:36 0
15 *4325:B1 *981:10 0.000102985
16 *4325:B1 *981:21 6.44134e-05
17 *4325:B1 *983:10 7.89689e-05
18 *4669:A *4579:D 8.53113e-06
19 *4669:A *4579:RESET_B 0.000133522
20 *4669:A *688:79 6.47516e-05
21 *4670:A *4596:RESET_B 5.4003e-05
22 *4322:A2 *4325:B1 0
23 *4323:A1 *4325:B1 0
24 *4323:A2 *4325:B1 0
25 *4324:A *4325:B1 0.000498395
26 *4325:A1 *4325:B1 0
27 *4345:B *649:14 0.000148468
28 *4345:B *649:58 6.06593e-05
29 *4346:A3 *4670:A 5.83121e-06
30 *4346:A3 *649:58 1.16578e-05
31 *4579:CLK *4669:A 3.00381e-05
32 *4582:CLK *4325:B1 6.5525e-05
33 *4595:CLK *649:14 0.00012917
34 *178:25 *4325:B1 0
35 *178:25 *4669:A 0
36 *189:10 *4670:A 0.00034058
37 *189:12 *649:58 6.24871e-05
38 *485:42 *4670:A 5.50989e-05
39 *485:51 *4670:A 6.02273e-05
40 *485:51 *649:14 1.92979e-05
*RES
1 *4671:X *649:14 6.49617 
2 *649:14 *649:18 4.6458 
3 *649:18 *4325:B1 20.3475 
4 *649:18 *4669:A 9.9225 
5 *649:14 *649:58 4.85877 
6 *649:58 *4670:A 11.825 
7 *649:58 *4345:A 1.6 
*END

*D_NET *650 0.00835684
*CONN
*I *4381:B I *D sky130_fd_sc_hd__and2_2
*I *4385:B I *D sky130_fd_sc_hd__and2_2
*I *4383:B I *D sky130_fd_sc_hd__and2_2
*I *4375:B I *D sky130_fd_sc_hd__and2_2
*I *4373:B I *D sky130_fd_sc_hd__and2_2
*I *4371:B I *D sky130_fd_sc_hd__and2_2
*I *4389:B1 I *D sky130_fd_sc_hd__a2bb2o_2
*I *4387:B I *D sky130_fd_sc_hd__and2_2
*I *4672:X O *D sky130_fd_sc_hd__clkdlybuf4s25_1
*CAP
1 *4381:B 0
2 *4385:B 0
3 *4383:B 0.00034318
4 *4375:B 0.00010087
5 *4373:B 0
6 *4371:B 0.000121342
7 *4389:B1 1.07163e-05
8 *4387:B 0.000435604
9 *4672:X 0
10 *650:75 0.000595953
11 *650:73 0.000380497
12 *650:51 0.000234027
13 *650:34 0.00107113
14 *650:25 0.00100521
15 *650:10 0.000944294
16 *650:6 0.000458552
17 *4371:B *3871:A1 1.89685e-05
18 *4371:B *4430:RESET_B 0
19 *4371:B *710:62 9.29751e-06
20 *4375:B *4372:A1 0
21 *4375:B *4432:RESET_B 0.000131408
22 *4375:B *710:62 0.000235585
23 *4383:B *4758:A 8.49205e-05
24 *4383:B *709:69 0
25 *4383:B *709:76 0
26 *4383:B *715:75 0.000382031
27 *4383:B *1018:10 5.20968e-05
28 *650:10 *4382:A3 0
29 *650:10 *4388:A3 0
30 *650:10 *716:52 0.000203493
31 *650:51 *4372:A1 0
32 *650:51 *710:62 0.000116165
33 *650:73 *4381:A 8.53113e-06
34 *650:73 *4382:A3 0
35 *4369:B *650:25 3.82323e-06
36 *4369:B *650:34 2.59926e-05
37 *4372:B1 *4371:B 0.000105841
38 *4372:B1 *650:51 0
39 *4374:B1 *4375:B 0.000178496
40 *4382:A2 *4383:B 2.87867e-05
41 *4384:B1 *4383:B 0
42 *4388:B1 *4387:B 0.000695999
43 *4389:A1_N *4387:B 5.83121e-06
44 *4389:A1_N *650:25 6.64317e-06
45 *4389:A2_N *650:25 9.2741e-05
46 *4389:A2_N *650:34 1.91597e-05
47 *4435:D *4383:B 0
48 *4439:D *4387:B 0.000163056
49 *432:10 *650:34 8.65961e-05
50 *433:14 *650:10 0
51 *433:25 *650:10 0
52 *433:25 *650:73 0
*RES
1 *4672:X *650:6 3.6 
2 *650:6 *650:10 8.225 
3 *650:10 *4387:B 11.5 
4 *650:10 *650:25 2.175 
5 *650:25 *4389:B1 1.96 
6 *650:25 *650:34 9.075 
7 *650:34 *4371:B 8.51 
8 *650:34 *650:51 4.175 
9 *650:51 *4373:B 3.6 
10 *650:51 *4375:B 7.785 
11 *650:6 *650:73 4.085 
12 *650:73 *650:75 3.555 
13 *650:75 *4383:B 12.815 
14 *650:75 *4385:B 1.6 
15 *650:73 *4381:B 1.6 
*END

*D_NET *651 0.00820353
*CONN
*I *4374:A3 I *D sky130_fd_sc_hd__a31o_2
*I *4372:A3 I *D sky130_fd_sc_hd__a31o_2
*I *4378:A3 I *D sky130_fd_sc_hd__a31o_2
*I *4376:A3 I *D sky130_fd_sc_hd__a31o_2
*I *4382:A3 I *D sky130_fd_sc_hd__a31o_2
*I *4388:A3 I *D sky130_fd_sc_hd__a31o_2
*I *4384:A3 I *D sky130_fd_sc_hd__a31o_2
*I *4386:A3 I *D sky130_fd_sc_hd__a31o_2
*I *4673:X O *D sky130_fd_sc_hd__clkdlybuf4s25_1
*CAP
1 *4374:A3 0
2 *4372:A3 0.000153958
3 *4378:A3 0.000125948
4 *4376:A3 3.43128e-05
5 *4382:A3 0.000334208
6 *4388:A3 9.1983e-05
7 *4384:A3 0.000160555
8 *4386:A3 0
9 *4673:X 0
10 *651:86 0.000317691
11 *651:66 0.000310134
12 *651:60 0.000834222
13 *651:38 0.000426191
14 *651:36 0.000745624
15 *651:16 0.000630206
16 *651:4 0.000694659
17 *4372:A3 *4372:A1 0.000194588
18 *4376:A3 *4376:A1 5.83121e-06
19 *4378:A3 *4376:A1 1.88904e-05
20 *4378:A3 *4378:A1 0.000160722
21 *4378:A3 *4434:RESET_B 3.50033e-05
22 *4378:A3 *716:89 1.97849e-05
23 *4382:A3 *4381:A 0
24 *4382:A3 *4382:A1 8.65905e-05
25 *4382:A3 *4601:A 8.65905e-05
26 *4382:A3 *715:75 0.000172527
27 *4384:A3 *3974:A 0
28 *4384:A3 *4386:A1 0.000129218
29 *4384:A3 *4596:D 0
30 *4384:A3 *4781:A 0
31 *4384:A3 *715:89 1.34361e-05
32 *4388:A3 *715:75 3.81494e-05
33 *4388:A3 *716:52 0
34 *651:16 *3974:A 0
35 *651:16 *4386:A1 2.97408e-05
36 *651:66 *4376:A1 5.97883e-06
37 *651:66 *716:65 3.09233e-05
38 *651:66 *716:89 0.000200641
39 *651:86 *716:69 0.000312182
40 *4376:A2 *4378:A3 0.000247567
41 *4380:A3 *4378:A3 0
42 *4380:A3 *651:66 0
43 *4382:B1 *4382:A3 0
44 *4386:A2 *4384:A3 7.63883e-05
45 *4386:A2 *651:16 3.25831e-05
46 *4386:B1 *4382:A3 8.7974e-05
47 *4386:B1 *4388:A3 4.43871e-06
48 *4386:B1 *651:16 0.000502814
49 *4386:B1 *651:36 0.000238919
50 *4431:D *4372:A3 5.2089e-05
51 *4431:D *651:86 4.82919e-05
52 *4432:D *4376:A3 5.30673e-05
53 *4437:D *4384:A3 5.2089e-05
54 *4596:CLK *651:16 7.67415e-06
55 *4672:A *651:60 8.49205e-05
56 *4673:A *651:36 1.47256e-05
57 *4673:A *651:60 0.000287788
58 *432:10 *651:66 0
59 *489:27 *651:16 1.17114e-05
60 *490:30 *4372:A3 0
61 *490:39 *4372:A3 0
62 *650:10 *4382:A3 0
63 *650:10 *4388:A3 0
64 *650:73 *4382:A3 0
*RES
1 *4673:X *651:4 1.6 
2 *651:4 *651:16 9.155 
3 *651:16 *4386:A3 3.6 
4 *651:16 *4384:A3 7.53 
5 *651:4 *651:36 3.225 
6 *651:36 *651:38 2 
7 *651:38 *4388:A3 4.98 
8 *651:38 *4382:A3 11.13 
9 *651:36 *651:60 8.385 
10 *651:60 *651:66 5.105 
11 *651:66 *4376:A3 4.395 
12 *651:66 *4378:A3 7.785 
13 *651:60 *651:86 3.21 
14 *651:86 *4372:A3 9.53 
15 *651:86 *4374:A3 1.6 
*END

*D_NET *652 0.0112306
*CONN
*I *4184:B1 I *D sky130_fd_sc_hd__o21ai_2
*I *4181:B1 I *D sky130_fd_sc_hd__o21ai_2
*I *4187:B1 I *D sky130_fd_sc_hd__o21ai_2
*I *4179:B1 I *D sky130_fd_sc_hd__o21ai_2
*I *4168:B1 I *D sky130_fd_sc_hd__o21ai_2
*I *4171:B1 I *D sky130_fd_sc_hd__o21ai_2
*I *4173:B1 I *D sky130_fd_sc_hd__o21ai_2
*I *4176:B1 I *D sky130_fd_sc_hd__o21ai_2
*I *4674:X O *D sky130_fd_sc_hd__clkdlybuf4s25_1
*CAP
1 *4184:B1 0
2 *4181:B1 5.24388e-05
3 *4187:B1 0.0010306
4 *4179:B1 0.000117888
5 *4168:B1 0.000118083
6 *4171:B1 0
7 *4173:B1 7.52052e-05
8 *4176:B1 7.99368e-05
9 *4674:X 0
10 *652:67 0.00121036
11 *652:56 0.000780038
12 *652:52 0.00149345
13 *652:12 0.000195553
14 *652:10 0.000413515
15 *652:6 0.00079015
16 *652:4 0.00125759
17 *4168:B1 *4166:A1 4.99619e-05
18 *4168:B1 *4166:A2 9.53428e-06
19 *4176:B1 *4538:D 8.33066e-06
20 *4187:B1 *4545:D 0.000111907
21 *652:6 *4166:A2 0.000164874
22 *652:6 *4166:B1 0.000241483
23 *652:10 *4538:D 9.12494e-06
24 *652:12 *4538:D 0.000112595
25 *652:52 *4157:B1 0.000164352
26 *652:52 *4166:B1 0.000313852
27 *652:52 *693:16 0
28 *652:56 *4541:D 6.29313e-05
29 *652:56 *4543:D 0.00027064
30 *652:56 *693:16 0
31 *4166:A3 *652:6 1.60203e-05
32 *4166:A3 *652:52 1.17409e-05
33 *4167:B *652:52 1.5186e-05
34 *4170:B *652:10 0
35 *4171:A2 *652:10 0
36 *4173:A2 *4173:B1 3.72173e-05
37 *4176:A1 *4176:B1 0.000107746
38 *4176:A1 *652:10 1.28996e-05
39 *4179:A2 *4181:B1 7.30505e-05
40 *4179:A2 *4187:B1 1.18796e-05
41 *4179:A2 *652:67 1.19028e-05
42 *4181:A1 *4187:B1 0.000205772
43 *4182:A3 *652:56 0
44 *4187:A1 *4187:B1 0.000121356
45 *4540:CLK *4176:B1 0.000100932
46 *4545:CLK *4187:B1 3.21854e-05
47 *473:24 *652:52 0
48 *473:24 *652:56 0
49 *493:12 *652:10 7.63282e-05
50 *493:14 *652:10 0.00020272
51 *493:16 *4176:B1 2.93063e-05
52 *493:16 *652:10 0.000108664
53 *493:16 *652:12 5.6155e-05
54 *542:29 *4181:B1 8.64599e-05
55 *542:29 *652:67 0.0001615
56 *542:35 *652:56 0.000585018
57 *542:62 *652:10 3.21682e-05
*RES
1 *4674:X *652:4 1.6 
2 *652:4 *652:6 4.245 
3 *652:6 *652:10 10.01 
4 *652:10 *652:12 1.38 
5 *652:12 *4176:B1 6.255 
6 *652:12 *4173:B1 4.74 
7 *652:10 *4171:B1 3.6 
8 *652:6 *4168:B1 3.445 
9 *652:4 *652:52 14.18 
10 *652:52 *652:56 14.855 
11 *652:56 *4179:B1 3.355 
12 *652:56 *652:67 2.52 
13 *652:67 *4187:B1 19.1 
14 *652:67 *4181:B1 3.355 
15 *652:52 *4184:B1 3.6 
*END

*D_NET *653 0.0128819
*CONN
*I *4196:B1 I *D sky130_fd_sc_hd__o21ai_2
*I *4199:B1 I *D sky130_fd_sc_hd__o21ai_2
*I *4152:B1 I *D sky130_fd_sc_hd__o21ai_2
*I *4155:B1 I *D sky130_fd_sc_hd__o21ai_2
*I *4160:B1 I *D sky130_fd_sc_hd__o21ai_2
*I *4157:B1 I *D sky130_fd_sc_hd__o21ai_2
*I *4163:B1 I *D sky130_fd_sc_hd__o21ai_2
*I *4165:B1 I *D sky130_fd_sc_hd__o21ai_2
*I *4675:X O *D sky130_fd_sc_hd__clkdlybuf4s25_1
*CAP
1 *4196:B1 0.000249383
2 *4199:B1 0.000143444
3 *4152:B1 0.00027206
4 *4155:B1 2.77832e-05
5 *4160:B1 0.000134514
6 *4157:B1 0.000311815
7 *4163:B1 4.01298e-05
8 *4165:B1 8.75367e-05
9 *4675:X 0
10 *653:96 0.000937636
11 *653:70 0.000443574
12 *653:66 0.00102695
13 *653:38 0.000488111
14 *653:36 0.00123135
15 *653:10 0.000405488
16 *653:4 0.00112899
17 *4152:B1 *4153:B 0.000131799
18 *4152:B1 *4777:A 9.37731e-05
19 *4152:B1 *838:12 0
20 *4155:B1 *827:27 2.05056e-05
21 *4157:B1 *4534:D 0
22 *4163:B1 *4535:D 4.82863e-05
23 *4165:B1 *4166:A1 7.17811e-05
24 *4165:B1 *4535:D 0.000112123
25 *4165:B1 *4535:RESET_B 3.98475e-05
26 *4196:B1 *4198:A 0.000188523
27 *653:10 *4166:A1 0.000137249
28 *653:10 *843:42 0.000241483
29 *653:36 *843:42 0.000122331
30 *653:70 *4015:C 1.01661e-05
31 *653:70 *4158:A2 7.36562e-05
32 *653:70 *838:12 0
33 *653:70 *841:21 1.23244e-05
34 *653:96 *4156:A 4.66108e-05
35 *653:96 *655:46 8.23457e-05
36 *4152:A1 *4152:B1 0.000124895
37 *4154:A *653:36 2.65814e-06
38 *4156:B *4152:B1 8.08153e-06
39 *4156:B *653:70 9.3062e-06
40 *4157:A2 *653:66 0.000163199
41 *4159:B *653:70 9.09729e-05
42 *4160:A1 *4157:B1 1.52184e-05
43 *4160:A1 *4160:B1 4.82863e-05
44 *4160:A1 *653:36 5.53549e-06
45 *4160:A1 *653:38 7.28685e-05
46 *4160:A2 *4160:B1 1.83756e-05
47 *4161:B *653:36 0.000219793
48 *4163:A2 *4165:B1 4.43871e-06
49 *4163:A2 *653:10 7.70938e-05
50 *4165:A1 *4163:B1 2.0514e-05
51 *4165:A2 *4165:B1 0.000122331
52 *4195:A_N *4196:B1 6.34612e-05
53 *4195:A_N *653:96 0.00017318
54 *4196:A2 *4199:B1 0.000275315
55 *4198:B *4196:B1 2.20014e-05
56 *4199:A2 *4196:B1 1.13345e-05
57 *4199:A2 *4199:B1 0.00021874
58 *4199:A2 *653:96 8.52567e-05
59 *4532:CLK *653:36 0.000335268
60 *4532:CLK *653:38 0.000130437
61 *4535:CLK *4165:B1 2.75145e-05
62 *4548:CLK *4199:B1 0.000108511
63 *4548:CLK *653:96 0.000180489
64 *4627:A *4199:B1 0.00015486
65 *229:6 *4155:B1 4.99619e-05
66 *232:8 *4157:B1 0
67 *232:16 *4157:B1 0
68 *342:12 *4196:B1 0.000368716
69 *473:16 *653:96 0.000264037
70 *473:22 *4157:B1 0.00017354
71 *473:22 *653:38 8.53113e-06
72 *473:24 *4157:B1 0.000210846
73 *553:16 *4152:B1 0
74 *553:27 *4155:B1 4.82863e-05
75 *553:27 *653:70 0.000359252
76 *553:59 *653:36 8.28341e-05
77 *652:52 *4157:B1 0.000164352
*RES
1 *4675:X *653:4 1.6 
2 *653:4 *653:10 6.845 
3 *653:10 *4165:B1 6.375 
4 *653:10 *4163:B1 4.395 
5 *653:4 *653:36 14.315 
6 *653:36 *653:38 1.635 
7 *653:38 *4157:B1 10.56 
8 *653:38 *4160:B1 5.79 
9 *653:36 *653:66 6.95 
10 *653:66 *653:70 6.44 
11 *653:70 *4155:B1 4.395 
12 *653:70 *4152:B1 8.445 
13 *653:66 *653:96 10.92 
14 *653:96 *4199:B1 10.37 
15 *653:96 *4196:B1 7.975 
*END

*D_NET *654 0.00548403
*CONN
*I *4205:B1 I *D sky130_fd_sc_hd__o211ai_2
*I *4206:B1_N I *D sky130_fd_sc_hd__a21bo_2
*I *4203:B1 I *D sky130_fd_sc_hd__o21ai_2
*I *4201:B1 I *D sky130_fd_sc_hd__o21ai_2
*I *4676:X O *D sky130_fd_sc_hd__clkdlybuf4s25_1
*CAP
1 *4205:B1 0.000175102
2 *4206:B1_N 0.000128497
3 *4203:B1 8.89978e-05
4 *4201:B1 0.000551291
5 *4676:X 0.000145922
6 *654:32 0.000303599
7 *654:10 0.000756096
8 *654:8 0.00026173
9 *4201:B1 *4015:D 0
10 *4201:B1 *4676:A 0.000265164
11 *4201:B1 *655:46 0.000792548
12 *4201:B1 *696:16 0
13 *4201:B1 *842:8 0
14 *4203:B1 *3844:A 6.77023e-05
15 *654:8 *4676:A 0.000450583
16 *654:10 *4676:A 0.000250623
17 *654:10 *696:16 0
18 *4201:A1 *4201:B1 0.000234358
19 *4205:A1 *4203:B1 0.000199409
20 *4205:A2 *4205:B1 5.12969e-06
21 *4205:C1 *4205:B1 1.20052e-05
22 *4206:A1 *4206:B1_N 8.65961e-05
23 *4206:A1 *654:8 0
24 *4206:A1 *654:10 6.57653e-06
25 *4206:A2 *4205:B1 9.76602e-05
26 *4206:A2 *4206:B1_N 5.83121e-06
27 *4549:CLK *4201:B1 9.28568e-05
28 *4660:A *4203:B1 2.781e-05
29 *4661:A *4203:B1 4.89295e-05
30 *242:12 *4205:B1 2.93517e-05
31 *449:300 *654:8 0.000190065
32 *564:20 *4201:B1 0.000197321
33 *564:26 *4201:B1 1.22762e-05
*RES
1 *4676:X *654:8 8.805 
2 *654:8 *654:10 2.91 
3 *654:10 *4201:B1 18.9 
4 *654:10 *4203:B1 6.12 
5 *654:8 *654:32 2 
6 *654:32 *4206:B1_N 3.6775 
7 *654:32 *4205:B1 4.48 
*END

*D_NET *655 0.0127617
*CONN
*I *4676:A I *D sky130_fd_sc_hd__clkdlybuf4s25_1
*I *4192:B1 I *D sky130_fd_sc_hd__o21ai_2
*I *4189:B1 I *D sky130_fd_sc_hd__o21ai_2
*I *4675:A I *D sky130_fd_sc_hd__clkdlybuf4s25_1
*I *4674:A I *D sky130_fd_sc_hd__clkdlybuf4s25_1
*I *4677:X O *D sky130_fd_sc_hd__clkdlybuf4s25_1
*CAP
1 *4676:A 0.000409259
2 *4192:B1 0.000123691
3 *4189:B1 0.000240884
4 *4675:A 4.04068e-05
5 *4674:A 0.000254262
6 *4677:X 0
7 *655:46 0.00120209
8 *655:32 0.00245239
9 *655:8 0.000336773
10 *655:4 0.00124772
11 *4189:B1 *4021:C 0
12 *4674:A *4017:C 0.000191875
13 *4674:A *4166:B1 4.99619e-05
14 *4674:A *4536:RESET_B 0.000294421
15 *4674:A *4699:A 0.000226841
16 *4674:A *680:25 1.08766e-05
17 *4674:A *844:27 3.39944e-05
18 *4675:A *4699:A 0.00012904
19 *4676:A *4791:A 0.000171793
20 *4676:A *840:12 0.000185634
21 *655:8 *843:14 8.73389e-06
22 *655:32 *4158:B1 3.54025e-05
23 *655:32 *4547:RESET_B 6.27347e-05
24 *655:32 *696:16 5.0751e-05
25 *655:32 *843:14 7.67415e-06
26 *655:46 *693:10 0
27 *655:46 *693:16 0
28 *655:46 *693:18 0
29 *655:46 *842:8 0
30 *4162:A *4674:A 4.44927e-05
31 *4162:A *4675:A 0.000136877
32 *4164:B *4674:A 0.000378274
33 *4166:A3 *4674:A 2.75229e-05
34 *4168:A2 *4674:A 0.000121147
35 *4184:A2 *655:46 0
36 *4189:A1 *4189:B1 4.8854e-05
37 *4192:A1 *4192:B1 0.000114858
38 *4201:B1 *4676:A 0.000265164
39 *4201:B1 *655:46 0.000792548
40 *4205:A1 *4676:A 0.000251595
41 *4548:CLK *655:46 8.40269e-05
42 *230:27 *655:32 0.00114633
43 *230:31 *655:32 1.34594e-05
44 *231:8 *655:8 5.83121e-06
45 *231:8 *655:32 2.16917e-05
46 *236:10 *4189:B1 1.31297e-05
47 *449:300 *4676:A 9.3062e-06
48 *449:322 *4676:A 7.17323e-05
49 *474:25 *4189:B1 0
50 *564:20 *4676:A 0.000105841
51 *564:20 *655:46 0.000148925
52 *564:26 *4189:B1 5.23362e-05
53 *564:26 *4192:B1 1.91597e-05
54 *564:26 *655:46 2.49909e-05
55 *564:30 *4189:B1 0.000312834
56 *564:95 *4676:A 0
57 *653:96 *655:46 8.23457e-05
58 *654:8 *4676:A 0.000450583
59 *654:10 *4676:A 0.000250623
*RES
1 *4677:X *655:4 1.6 
2 *655:4 *655:8 2.45 
3 *655:8 *4674:A 13.08 
4 *655:8 *4675:A 5.235 
5 *655:4 *655:32 17.975 
6 *655:32 *655:46 23.37 
7 *655:46 *4189:B1 10.925 
8 *655:46 *4192:B1 3.775 
9 *655:32 *4676:A 17.4375 
*END

*D_NET *656 0.00101829
*CONN
*I *4853:A I *D sky130_fd_sc_hd__clkdlybuf4s25_1
*I *4598:X O *D sky130_fd_sc_hd__buf_2
*CAP
1 *4853:A 0.000390744
2 *4598:X 0.000390744
3 *4853:A *4598:A 5.68531e-05
4 led[1] *4853:A 2.68526e-05
5 *542:10 *4853:A 1.64132e-05
6 *564:38 *4853:A 0.000136685
*RES
1 *4598:X *4853:A 14.055 
*END

*D_NET *657 0.0101031
*CONN
*I *4114:B1 I *D sky130_fd_sc_hd__o21ai_2
*I *4095:B1 I *D sky130_fd_sc_hd__o21ai_2
*I *4108:B1 I *D sky130_fd_sc_hd__o21ai_2
*I *4111:B1 I *D sky130_fd_sc_hd__o21ai_2
*I *4106:B1 I *D sky130_fd_sc_hd__o21ai_2
*I *4103:B1 I *D sky130_fd_sc_hd__o21ai_2
*I *4100:B1 I *D sky130_fd_sc_hd__o21ai_2
*I *4098:B1 I *D sky130_fd_sc_hd__o21ai_2
*I *4678:X O *D sky130_fd_sc_hd__clkdlybuf4s25_1
*CAP
1 *4114:B1 0.000255663
2 *4095:B1 0.000672423
3 *4108:B1 0.000138278
4 *4111:B1 0.00031957
5 *4106:B1 0.000110869
6 *4103:B1 0.000142038
7 *4100:B1 3.82301e-05
8 *4098:B1 0.000269978
9 *4678:X 0
10 *657:92 0.00114911
11 *657:57 0.000430439
12 *657:55 0.000288165
13 *657:31 0.000854509
14 *657:12 0.00114863
15 *657:10 0.000502924
16 *657:6 0.000369655
17 *4095:B1 *4553:D 0.000113538
18 *4095:B1 *782:10 8.03844e-05
19 *4098:B1 *793:12 0.00038879
20 *4098:B1 *793:18 0.000123225
21 *4100:B1 *711:29 2.0187e-05
22 *4106:B1 *4108:A1 0.000333975
23 *4108:B1 *4558:D 4.66108e-05
24 *4111:B1 *4111:A1 0.000239813
25 *4114:B1 *3845:A 0.000195238
26 *4114:B1 *4043:A 0.000163019
27 *4114:B1 *4678:A 0
28 *657:10 *4678:A 0
29 *657:10 *793:12 0
30 *657:31 *711:29 6.04372e-05
31 *657:31 *711:55 0.000195052
32 *657:31 *782:14 0
33 *657:31 *793:12 2.92496e-05
34 *657:31 *796:16 0.00011465
35 *657:92 *4678:A 0
36 *4032:B *657:31 4.77807e-05
37 *4043:B *4114:B1 5.93674e-05
38 *4097:A *4098:B1 3.64998e-06
39 *4097:B *4098:B1 8.8266e-05
40 *4100:A2 *4100:B1 4.89395e-05
41 *4102:A *657:31 0.000135258
42 *4108:A2 *4106:B1 8.08153e-06
43 *4108:A2 *4111:B1 2.97004e-06
44 *4150:A1 *4114:B1 0
45 *4555:CLK *4103:B1 5.88127e-05
46 *4557:CLK *4106:B1 9.65637e-05
47 *4559:CLK *4108:B1 0.000197881
48 *4559:CLK *657:55 8.49205e-05
49 *4658:A *4114:B1 0
50 *4658:A *657:92 0
51 *256:8 *4114:B1 7.21296e-06
52 *478:16 *4103:B1 0.000197757
53 *479:23 *4114:B1 8.97642e-05
54 *479:33 *4111:B1 6.55406e-05
55 *479:33 *4114:B1 0
56 *479:33 *657:10 0
57 *479:33 *657:92 0
58 *479:35 *4106:B1 0.000104927
59 *479:35 *4111:B1 1.07797e-05
*RES
1 *4678:X *657:6 3.6 
2 *657:6 *657:10 4.4 
3 *657:10 *657:12 2.865 
4 *657:12 *4098:B1 6.88 
5 *657:12 *657:31 16 
6 *657:31 *4100:B1 2.395 
7 *657:31 *4103:B1 8.705 
8 *657:10 *657:55 2.535 
9 *657:55 *657:57 2 
10 *657:57 *4106:B1 7.785 
11 *657:57 *4111:B1 9.135 
12 *657:55 *4108:B1 4.945 
13 *657:6 *657:92 3.675 
14 *657:92 *4095:B1 14.415 
15 *657:92 *4114:B1 9.825 
*END

*D_NET *658 0.00437079
*CONN
*I *4116:B1 I *D sky130_fd_sc_hd__o21ai_2
*I *4119:B1 I *D sky130_fd_sc_hd__o21ai_2
*I *4148:B1 I *D sky130_fd_sc_hd__o21ai_2
*I *4150:B1_N I *D sky130_fd_sc_hd__a21bo_2
*I *4679:X O *D sky130_fd_sc_hd__clkdlybuf4s25_1
*CAP
1 *4116:B1 0.000123214
2 *4119:B1 0
3 *4148:B1 0
4 *4150:B1_N 0.00021359
5 *4679:X 0
6 *658:36 0.00105053
7 *658:8 0.000395961
8 *658:4 0.00110969
9 *4116:B1 *4561:D 9.68787e-05
10 *4150:B1_N *4574:D 9.71067e-05
11 *4150:B1_N *4678:A 4.17687e-05
12 *4150:B1_N *660:14 2.14129e-05
13 *658:36 *4560:D 0.000273878
14 *658:36 *4562:D 0.000143732
15 *4114:A1 *658:36 0.00018363
16 *4115:B *4116:B1 0
17 *4115:B *658:36 0
18 *4116:A2 *4116:B1 1.67306e-05
19 *4148:A1 *4150:B1_N 1.70935e-05
20 *4150:A1 *4150:B1_N 1.20741e-05
21 *4150:A2 *4150:B1_N 0
22 *4562:CLK *658:36 1.6418e-05
23 *4573:CLK *4150:B1_N 8.80095e-05
24 *4632:A *658:36 8.65905e-05
25 *256:25 *658:8 0.000180988
26 *256:25 *658:36 0.00017307
27 *478:10 *4150:B1_N 1.82563e-05
28 *478:54 *4150:B1_N 1.01661e-05
*RES
1 *4679:X *658:4 1.6 
2 *658:4 *658:8 3.225 
3 *658:8 *4150:B1_N 10.7037 
4 *658:8 *4148:B1 1.6 
5 *658:4 *658:36 14.615 
6 *658:36 *4119:B1 3.6 
7 *658:36 *4116:B1 6.255 
*END

*D_NET *659 0.0105223
*CONN
*I *4127:B1 I *D sky130_fd_sc_hd__o21ai_2
*I *4135:B1 I *D sky130_fd_sc_hd__o21ai_2
*I *4130:B1 I *D sky130_fd_sc_hd__o21ai_2
*I *4124:B1 I *D sky130_fd_sc_hd__o21ai_2
*I *4122:B1 I *D sky130_fd_sc_hd__o21ai_2
*I *4146:B1 I *D sky130_fd_sc_hd__o21ai_2
*I *4144:B1 I *D sky130_fd_sc_hd__o21ai_2
*I *4132:B1 I *D sky130_fd_sc_hd__o21ai_2
*I *4680:X O *D sky130_fd_sc_hd__clkdlybuf4s25_1
*CAP
1 *4127:B1 0.00018897
2 *4135:B1 0
3 *4130:B1 0
4 *4124:B1 0.000346984
5 *4122:B1 0
6 *4146:B1 0
7 *4144:B1 0.000540735
8 *4132:B1 5.81042e-06
9 *4680:X 0
10 *659:98 0.000681223
11 *659:81 0.00051373
12 *659:57 0.000554342
13 *659:46 0.000385583
14 *659:27 0.00093326
15 *659:21 0.000748204
16 *659:4 0.000518237
17 *4124:B1 *4122:A1 8.57024e-05
18 *4124:B1 *4563:D 0.000354806
19 *4124:B1 *4564:D 0.000316799
20 *4127:B1 *4127:A1 0.000176994
21 *4132:B1 *4680:A 4.99619e-05
22 *4144:B1 *4144:A1 8.57024e-05
23 *4144:B1 *4145:A 8.53113e-06
24 *4144:B1 *660:14 0.000316806
25 *659:21 *4132:A1 4.80285e-05
26 *659:21 *4567:RESET_B 0.000331355
27 *659:21 *4680:A 0.000237243
28 *659:21 *4719:A 0
29 *659:21 *660:12 0
30 *659:21 *660:51 0
31 *659:21 *699:16 4.66108e-05
32 *659:21 *699:22 2.92496e-05
33 *659:27 *4132:A1 1.15688e-05
34 *659:27 *4566:D 4.43871e-06
35 *659:27 *4717:A 3.09164e-05
36 *659:27 *699:22 0.000292896
37 *659:27 *702:27 0
38 *659:27 *720:43 1.34361e-05
39 *659:27 *720:61 0.000283294
40 *659:46 *4122:A1 4.16445e-05
41 *659:57 *4122:A1 0.00044216
42 *659:81 *4132:A1 2.16917e-05
43 *659:98 *4130:A1 1.83847e-05
44 *659:98 *4132:A1 1.34503e-05
45 *659:98 *4568:D 4.82863e-05
46 *659:98 *720:92 6.1357e-05
47 *4122:A2 *4124:B1 3.70488e-05
48 *4124:A2 *4124:B1 0
49 *4132:A2 *4132:B1 4.99619e-05
50 *4132:A2 *659:21 0.000225586
51 *4145:B *4144:B1 8.40213e-05
52 *4146:A2 *659:27 5.4003e-05
53 *4476:CLK *659:21 0.000140836
54 *4566:CLK *659:21 9.05377e-05
55 *251:10 *4124:B1 0
56 *251:40 *4127:B1 0.000265565
57 *251:40 *659:98 0.000403587
58 *254:8 *4144:B1 0.000121671
59 *449:346 *4144:B1 1.03423e-05
60 *449:353 *4144:B1 9.08667e-05
61 *449:362 *4144:B1 4.40716e-05
62 *452:14 *4124:B1 3.50033e-05
63 *480:8 *659:21 3.86607e-05
64 *480:10 *659:21 4.20983e-05
65 *481:24 *4124:B1 0
*RES
1 *4680:X *659:4 1.6 
2 *659:4 *4132:B1 2.05 
3 *659:4 *659:21 16.36 
4 *659:21 *659:27 11.245 
5 *659:27 *4144:B1 14.66 
6 *659:27 *659:46 2.19 
7 *659:46 *4146:B1 1.6 
8 *659:46 *659:57 4.71 
9 *659:57 *4122:B1 1.6 
10 *659:57 *4124:B1 13.865 
11 *659:21 *659:81 0.45 
12 *659:81 *4130:B1 1.6 
13 *659:81 *659:98 8.295 
14 *659:98 *4135:B1 1.6 
15 *659:98 *4127:B1 5.845 
*END

*D_NET *660 0.00936514
*CONN
*I *4680:A I *D sky130_fd_sc_hd__clkdlybuf4s25_1
*I *4139:B1 I *D sky130_fd_sc_hd__o21ai_2
*I *4141:B1 I *D sky130_fd_sc_hd__o21ai_2
*I *4679:A I *D sky130_fd_sc_hd__clkdlybuf4s25_1
*I *4678:A I *D sky130_fd_sc_hd__clkdlybuf4s25_1
*I *4681:X O *D sky130_fd_sc_hd__clkdlybuf4s25_1
*CAP
1 *4680:A 0.000358044
2 *4139:B1 0.000229941
3 *4141:B1 6.58093e-05
4 *4679:A 0
5 *4678:A 0.00111164
6 *4681:X 0
7 *660:51 0.000757848
8 *660:14 0.00165645
9 *660:12 0.00118062
10 *660:6 0.000739864
11 *4139:B1 *4719:A 0.000214831
12 *4678:A *782:10 0
13 *4678:A *782:12 0
14 *4680:A *4567:D 0.000174519
15 *4680:A *4719:A 2.86623e-05
16 *660:12 *699:22 0
17 *660:12 *789:10 0
18 *660:14 *4145:A 0.000216964
19 *660:14 *4571:D 0
20 *660:14 *792:12 5.39718e-05
21 *660:51 *4567:D 0.00011852
22 *660:51 *4719:A 0.00019194
23 *4043:B *4678:A 0
24 *4114:B1 *4678:A 0
25 *4132:A2 *4680:A 6.52349e-05
26 *4132:B1 *4680:A 4.99619e-05
27 *4139:A1 *4139:B1 4.82863e-05
28 *4139:A1 *660:12 0
29 *4139:A1 *660:51 0
30 *4144:B1 *660:14 0.000316806
31 *4148:A1 *660:14 3.18137e-05
32 *4149:A *660:14 5.71917e-05
33 *4149:B *660:14 0
34 *4150:A1 *4678:A 0.000141606
35 *4150:B1_N *4678:A 4.17687e-05
36 *4150:B1_N *660:14 2.14129e-05
37 *4476:CLK *4680:A 0
38 *4573:CLK *4678:A 3.99395e-05
39 *4573:CLK *660:14 0.000159269
40 *4658:A *4678:A 0.000180379
41 *254:8 *660:12 0
42 *254:8 *660:14 0
43 *254:14 *660:14 0
44 *255:10 *660:14 0.000189284
45 *449:340 *4141:B1 3.41253e-05
46 *449:346 *4141:B1 1.66166e-05
47 *451:8 *660:14 0
48 *531:22 *4678:A 0.000634576
49 *531:46 *660:12 0
50 *531:46 *660:14 0
51 *657:10 *4678:A 0
52 *657:92 *4678:A 0
53 *659:21 *4680:A 0.000237243
54 *659:21 *660:12 0
55 *659:21 *660:51 0
*RES
1 *4681:X *660:6 3.6 
2 *660:6 *660:12 8.565 
3 *660:12 *660:14 13.875 
4 *660:14 *4678:A 16.9766 
5 *660:14 *4679:A 3.6 
6 *660:12 *4141:B1 4.74 
7 *660:6 *660:51 4.44 
8 *660:51 *4139:B1 7.5 
9 *660:51 *4680:A 10.425 
*END

*D_NET *661 0.0108606
*CONN
*I *4235:B1 I *D sky130_fd_sc_hd__o21ai_2
*I *4237:B1 I *D sky130_fd_sc_hd__o21ai_2
*I *4224:B1 I *D sky130_fd_sc_hd__o21ai_2
*I *4232:B1 I *D sky130_fd_sc_hd__o21ai_2
*I *4229:B1 I *D sky130_fd_sc_hd__o21ai_2
*I *4219:B1 I *D sky130_fd_sc_hd__o21ai_2
*I *4227:B1 I *D sky130_fd_sc_hd__o21ai_2
*I *4221:B1 I *D sky130_fd_sc_hd__o21ai_2
*I *4682:X O *D sky130_fd_sc_hd__clkdlybuf4s25_1
*CAP
1 *4235:B1 0.000143886
2 *4237:B1 0
3 *4224:B1 0
4 *4232:B1 0.000499834
5 *4229:B1 1.74653e-05
6 *4219:B1 0
7 *4227:B1 0.000177995
8 *4221:B1 5.50472e-05
9 *4682:X 0.000297149
10 *661:59 0.000966802
11 *661:41 0.00071494
12 *661:22 0.000756698
13 *661:20 0.000614208
14 *661:18 0.000385974
15 *661:12 0.00069233
16 *661:8 0.000747391
17 *4221:B1 *4514:D 0.000114016
18 *4227:B1 *4516:D 8.64421e-05
19 *4229:B1 *4003:A 8.61265e-05
20 *4232:B1 *4517:RESET_B 8.59746e-05
21 *4232:B1 *4518:D 3.30434e-05
22 *4232:B1 *4600:A 0.000689428
23 *4235:B1 *4240:B1 9.62141e-05
24 *4235:B1 *677:33 0
25 *661:8 *875:10 3.00381e-05
26 *661:12 *4240:B1 3.76518e-05
27 *661:12 *4520:D 0.000125626
28 *661:12 *4520:RESET_B 0
29 *661:12 *4521:D 0.000113797
30 *661:12 *677:33 0
31 *661:12 *873:23 0
32 *661:18 *4002:C 5.83121e-06
33 *661:18 *4515:D 6.32751e-05
34 *661:22 *4513:D 4.76051e-05
35 *661:59 *4003:A 0.000181869
36 *4219:A2 *4221:B1 0.000139134
37 *4221:A1 *4221:B1 4.97938e-05
38 *4221:A1 *661:22 6.12027e-05
39 *4223:B *661:18 0.00013994
40 *4224:A2 *661:18 0
41 *4227:A1 *4227:B1 0.000496222
42 *4229:A1 *4229:B1 4.88478e-05
43 *4229:A1 *661:59 0.000535332
44 *4232:A2 *4232:B1 8.52845e-05
45 *4514:CLK *4221:B1 5.20193e-05
46 *4514:CLK *661:22 0.000147159
47 *4630:A *4235:B1 4.92062e-05
48 *4662:A *661:8 0.000260572
49 *218:25 *661:12 9.37731e-05
50 *218:25 *661:18 0.000120101
51 *477:10 *4235:B1 6.97118e-05
52 *477:12 *661:12 0
53 *477:20 *661:12 0
54 *477:24 *661:22 0.00021094
55 *477:24 *661:59 0.000109016
56 *477:26 *661:22 0.000155112
57 *575:14 *661:12 0
58 *575:14 *661:18 0
59 *575:16 *661:18 0
60 *575:18 *661:18 0
61 *575:18 *661:22 1.82476e-05
62 *575:18 *661:59 4.49585e-05
63 *575:24 *661:22 0.000107333
*RES
1 *4682:X *661:8 9.57 
2 *661:8 *661:12 6.42 
3 *661:12 *661:18 9.05 
4 *661:18 *661:20 2 
5 *661:20 *661:22 5.97 
6 *661:22 *4221:B1 6 
7 *661:22 *661:41 12.225 
8 *661:41 *4227:B1 6.19 
9 *661:41 *4219:B1 1.6 
10 *661:20 *661:59 11.765 
11 *661:59 *4229:B1 2.395 
12 *661:59 *4232:B1 16.505 
13 *661:18 *4224:B1 1.6 
14 *661:12 *4237:B1 3.6 
15 *661:8 *4235:B1 6.885 
*END

*D_NET *662 0.00497339
*CONN
*I *4254:B1 I *D sky130_fd_sc_hd__o21ai_2
*I *4252:B1 I *D sky130_fd_sc_hd__o21ai_2
*I *4211:B1 I *D sky130_fd_sc_hd__o21ai_2
*I *4208:B1 I *D sky130_fd_sc_hd__o21ai_2
*I *4213:B1 I *D sky130_fd_sc_hd__o21ai_2
*I *4216:B1 I *D sky130_fd_sc_hd__o21ai_2
*I *4683:X O *D sky130_fd_sc_hd__clkdlybuf4s25_1
*CAP
1 *4254:B1 0
2 *4252:B1 9.07745e-05
3 *4211:B1 7.33603e-05
4 *4208:B1 5.83171e-05
5 *4213:B1 2.53961e-05
6 *4216:B1 0.000106739
7 *4683:X 0.000221477
8 *662:40 0.000208671
9 *662:16 0.000234153
10 *662:14 0.000408461
11 *662:12 0.000437656
12 *662:8 0.000338909
13 *4211:B1 *4509:D 0.000140912
14 *4216:B1 *4512:D 0.000115726
15 *662:8 *4526:D 8.40213e-05
16 *662:40 *872:14 1.22325e-05
17 *4208:A2 *662:40 1.08758e-05
18 *4210:A *662:14 0
19 *4210:B *662:8 5.64159e-05
20 *4210:B *662:12 5.07419e-05
21 *4211:A2 *662:14 0.000275362
22 *4215:A *4216:B1 0.000110261
23 *4216:A1 *4216:B1 0.000120312
24 *4216:A1 *662:16 4.4439e-05
25 *4511:CLK *4213:B1 4.77807e-05
26 *4512:CLK *4216:B1 0.000114524
27 *4512:CLK *662:16 2.07338e-05
28 *492:8 *4252:B1 2.75145e-05
29 *492:10 *4252:B1 6.18754e-05
30 *492:10 *662:14 0.000119285
31 *492:16 *4211:B1 2.30797e-05
32 *492:16 *662:14 0.000191442
33 *492:18 *4211:B1 0.000205326
34 *492:18 *662:14 0.000217729
35 *492:18 *662:16 0.000305879
36 *597:31 *4252:B1 0
37 *597:31 *662:14 0
38 *597:73 *662:14 0.000109688
39 *597:75 *662:14 5.00903e-05
40 *597:75 *662:16 0.000253227
*RES
1 *4683:X *662:8 4.48 
2 *662:8 *662:12 3.83 
3 *662:12 *662:14 7.245 
4 *662:14 *662:16 3.93 
5 *662:16 *4216:B1 7.53 
6 *662:16 *4213:B1 4.05 
7 *662:14 *662:40 3.155 
8 *662:40 *4208:B1 2.395 
9 *662:40 *4211:B1 8.255 
10 *662:12 *4252:B1 5.43 
11 *662:8 *4254:B1 1.6 
*END

*D_NET *663 0.0137889
*CONN
*I *4243:B1 I *D sky130_fd_sc_hd__o21ai_2
*I *4259:B1 I *D sky130_fd_sc_hd__o21ai_2
*I *4683:A I *D sky130_fd_sc_hd__clkdlybuf4s25_1
*I *4257:B1 I *D sky130_fd_sc_hd__o21ai_2
*I *4682:A I *D sky130_fd_sc_hd__clkdlybuf4s25_1
*I *4248:B1 I *D sky130_fd_sc_hd__o21ai_2
*I *4245:B1 I *D sky130_fd_sc_hd__o21ai_2
*I *4240:B1 I *D sky130_fd_sc_hd__o21ai_2
*I *4684:X O *D sky130_fd_sc_hd__clkdlybuf4s25_1
*CAP
1 *4243:B1 0.000448607
2 *4259:B1 2.946e-05
3 *4683:A 0.000693341
4 *4257:B1 3.61957e-05
5 *4682:A 0.00032385
6 *4248:B1 0
7 *4245:B1 0.000146058
8 *4240:B1 0.000409487
9 *4684:X 0.000663175
10 *663:72 0.000892299
11 *663:57 0.000928203
12 *663:51 0.000737574
13 *663:20 0.000567282
14 *663:16 0.000617886
15 *663:10 0.00123872
16 *663:6 0.00147783
17 *4240:B1 *4238:A1 0
18 *4240:B1 *4521:D 0.000162083
19 *4240:B1 *677:33 0
20 *4245:B1 *4246:A2 2.97004e-06
21 *4245:B1 *4524:D 0
22 *4245:B1 *876:20 4.66108e-05
23 *4682:A *4006:B 0
24 *4683:A *4253:A 9.2741e-05
25 *4683:A *679:12 0
26 *4683:A *679:14 0
27 *4683:A *679:23 0
28 *4683:A *879:10 0.00010727
29 *663:10 *4008:A 0
30 *663:10 *4524:RESET_B 0.00011686
31 *663:10 *676:20 0.000152127
32 *663:10 *878:12 4.7043e-05
33 *663:16 *677:33 0.000304758
34 *663:20 *677:33 4.82919e-05
35 *663:57 *4249:A 2.7881e-05
36 *663:57 *4250:A 6.14974e-05
37 *4008:D *663:10 0
38 *4012:B *663:6 0.000119631
39 *4235:B1 *4240:B1 9.62141e-05
40 *4238:A3 *4240:B1 0
41 *4243:A1 *4243:B1 1.85674e-05
42 *4247:A *663:10 0.000108322
43 *4247:A *663:16 8.53113e-06
44 *4248:A1 *663:16 5.30673e-05
45 *4248:A1 *663:20 2.75229e-05
46 *4248:A2 *4245:B1 0
47 *4251:A_N *4682:A 0
48 *4251:A_N *663:57 9.44589e-05
49 *4251:B *4682:A 3.64998e-06
50 *4251:B *663:72 6.0011e-05
51 *4253:B *4257:B1 0
52 *4253:B *4683:A 0.000123106
53 *4253:B *663:72 3.0807e-05
54 *4254:A2 *4683:A 8.65905e-05
55 *4256:A *663:57 0
56 *4257:A2 *663:57 7.16181e-05
57 *4263:A2 *663:6 7.85634e-05
58 *4520:CLK *4240:B1 4.99619e-05
59 *4526:CLK *4682:A 0
60 *4527:CLK *663:57 0
61 *4630:A *4240:B1 0.000443492
62 *4630:A *4245:B1 2.14129e-05
63 *4645:A *4683:A 0
64 *4663:A *4243:B1 6.96579e-05
65 *4663:A *663:6 1.6418e-05
66 *220:38 *4240:B1 3.07027e-05
67 *222:33 *663:16 0
68 *224:29 *663:57 0.000119277
69 *225:20 *4683:A 3.59311e-05
70 *227:10 *663:10 0
71 *227:21 *663:10 0
72 *350:12 *663:6 0.000531741
73 *376:8 *663:57 8.35683e-05
74 *450:10 *4245:B1 0.000202095
75 *457:10 *4243:B1 5.0751e-05
76 *458:12 *4683:A 5.51245e-05
77 *477:10 *4240:B1 7.71016e-05
78 *477:12 *4240:B1 9.7872e-05
79 *586:6 *4243:B1 0.000505378
80 *661:12 *4240:B1 3.76518e-05
*RES
1 *4684:X *663:6 10.33 
2 *663:6 *663:10 9.5 
3 *663:10 *663:16 12.35 
4 *663:16 *663:20 2.45 
5 *663:20 *4240:B1 13.845 
6 *663:20 *4245:B1 6.705 
7 *663:16 *4248:B1 1.6 
8 *663:10 *663:51 5.9 
9 *663:51 *663:57 12.775 
10 *663:57 *4682:A 10.355 
11 *663:57 *663:72 2.52 
12 *663:72 *4257:B1 2.215 
13 *663:72 *4683:A 18.29 
14 *663:51 *4259:B1 2.05 
15 *663:6 *4243:B1 10.96 
*END

*D_NET *664 0.0104731
*CONN
*I *3937:B I *D sky130_fd_sc_hd__nor2_2
*I *3867:C I *D sky130_fd_sc_hd__and3_2
*I *3950:A3 I *D sky130_fd_sc_hd__a32o_2
*I *3920:B I *D sky130_fd_sc_hd__nand2_2
*I *3921:A3 I *D sky130_fd_sc_hd__a31oi_2
*I *3945:A3 I *D sky130_fd_sc_hd__a32o_2
*I *3923:A2 I *D sky130_fd_sc_hd__a22o_2
*I *3866:B I *D sky130_fd_sc_hd__nand2_2
*I *4685:X O *D sky130_fd_sc_hd__clkdlybuf4s25_1
*CAP
1 *3937:B 0
2 *3867:C 0.000206987
3 *3950:A3 0
4 *3920:B 3.9848e-05
5 *3921:A3 0
6 *3945:A3 0.000102804
7 *3923:A2 0.000475221
8 *3866:B 0.000365014
9 *4685:X 7.94342e-05
10 *664:45 0.000668134
11 *664:43 0.000329598
12 *664:33 0.000386384
13 *664:27 0.000246027
14 *664:25 0.000485418
15 *664:23 0.000257263
16 *664:6 0.00056226
17 *3866:B *3866:A 0.00016113
18 *3920:B *741:12 1.19928e-05
19 *3923:A2 *3923:A1 0.000177777
20 *3923:A2 *696:10 0.000355809
21 *3923:A2 *696:16 0.000115582
22 *3945:A3 *3945:A1 0.000235573
23 *3945:A3 *4714:A 0.000161529
24 *3945:A3 *696:10 0.00021496
25 *664:23 *4685:A 7.33968e-05
26 *664:25 *4361:S 2.31724e-05
27 *664:25 *4685:A 7.62709e-05
28 *664:25 *713:12 7.67465e-05
29 *664:27 *713:12 7.21296e-06
30 *664:43 *713:12 0
31 *664:43 *741:12 3.64998e-06
32 *664:45 *713:12 0
33 *3867:B *3867:C 2.50602e-05
34 *3921:A2 *664:33 7.23533e-05
35 *3921:A2 *664:43 0.000200056
36 *3921:B1 *664:27 0.000362965
37 *3921:B1 *664:33 0.000288309
38 *3938:A1 *3867:C 4.43682e-05
39 *3938:A2 *3867:C 1.2818e-05
40 *3938:B2 *3867:C 0.000464505
41 *3945:A2 *3945:A3 0.000287664
42 *3945:A2 *664:43 0.000154262
43 *3945:A2 *664:45 6.23375e-05
44 *3950:A1 *664:23 3.43917e-05
45 *3950:A1 *664:25 0.000202663
46 *3950:A1 *664:27 0.000186392
47 *4365:B2 *664:6 0.000122817
48 *4365:B2 *664:23 8.41384e-05
49 *4403:D *3867:C 4.80182e-05
50 *4414:CLK *3923:A2 0.000343008
51 *4414:D *3923:A2 0
52 *4453:D *3923:A2 6.52393e-05
53 *4782:A *664:27 0.000175894
54 *4782:A *664:33 0.000224487
55 *17:10 *3867:C 0.000799881
56 *17:10 *664:27 0.000131401
57 *154:16 *3923:A2 6.87301e-05
58 *157:10 *3923:A2 1.07797e-05
59 *157:10 *664:45 0.000101317
60 *449:222 *3923:A2 0
*RES
1 *4685:X *664:6 2.74 
2 *664:6 *3866:B 12.335 
3 *664:6 *664:23 4.43 
4 *664:23 *664:25 4.44 
5 *664:25 *664:27 5.97 
6 *664:27 *664:33 5.78 
7 *664:33 *664:43 8.045 
8 *664:43 *664:45 2.4 
9 *664:45 *3923:A2 15.09 
10 *664:45 *3945:A3 8.31 
11 *664:43 *3921:A3 3.6 
12 *664:33 *3920:B 2.41 
13 *664:27 *3950:A3 3.6 
14 *664:25 *3867:C 11.64 
15 *664:23 *3937:B 3.6 
*END

*D_NET *665 0.00831874
*CONN
*I *3872:S I *D sky130_fd_sc_hd__mux2_1
*I *3873:S I *D sky130_fd_sc_hd__mux2_1
*I *3947:A3 I *D sky130_fd_sc_hd__a32o_2
*I *4685:A I *D sky130_fd_sc_hd__clkdlybuf4s25_1
*I *4361:S I *D sky130_fd_sc_hd__mux2_1
*I *4686:X O *D sky130_fd_sc_hd__clkdlybuf4s25_1
*CAP
1 *3872:S 0
2 *3873:S 0.000254602
3 *3947:A3 0
4 *4685:A 0.000144525
5 *4361:S 0.000169794
6 *4686:X 0.000371263
7 *665:32 0.0019039
8 *665:22 0.00167335
9 *665:16 0.000357327
10 *665:14 0.000390221
11 *3873:S *3940:A1 4.82919e-05
12 *4361:S *713:12 4.01548e-05
13 *4685:A *713:12 0.000333625
14 *665:14 *707:37 0
15 *3872:A0 *3873:S 0.000153449
16 *3872:A0 *665:14 6.58423e-05
17 *3872:A0 *665:16 5.83121e-06
18 *3872:A1 *665:16 9.80032e-06
19 *3872:A1 *665:22 7.83841e-05
20 *3873:A0 *3873:S 9.44515e-05
21 *3875:A *3873:S 6.10014e-05
22 *3947:A2 *665:22 2.69217e-05
23 *3947:B1 *3873:S 0
24 *3947:B1 *665:22 5.49535e-05
25 *3947:B2 *665:16 4.82919e-05
26 *3947:B2 *665:22 8.65905e-05
27 *3952:B1 *4361:S 8.45551e-05
28 *4349:B2 *4361:S 0.000227047
29 *4361:A0 *4361:S 0.000423626
30 *4686:A *665:14 3.57349e-05
31 *4686:A *665:16 7.40446e-05
32 *4686:A *665:22 0.000219926
33 *89:23 *3873:S 0
34 *89:23 *665:32 1.00941e-05
35 *112:8 *665:14 0.000238919
36 *112:25 *665:14 0.000182403
37 *498:14 *4361:S 0.000154106
38 *521:32 *665:32 0
39 *523:47 *3873:S 0.000122877
40 *664:23 *4685:A 7.33968e-05
41 *664:25 *4361:S 2.31724e-05
42 *664:25 *4685:A 7.62709e-05
*RES
1 *4686:X *665:14 12.62 
2 *665:14 *665:16 0.795 
3 *665:16 *665:22 3.33 
4 *665:22 *665:32 5.60117 
5 *665:32 *4361:S 10.0575 
6 *665:32 *4685:A 7.6575 
7 *665:22 *3947:A3 1.6 
8 *665:16 *3873:S 12.02 
9 *665:14 *3872:S 1.6 
*END

*D_NET *666 0.00911787
*CONN
*I *3901:A I *D sky130_fd_sc_hd__or3_2
*I *3902:C_N I *D sky130_fd_sc_hd__or3b_2
*I *3896:A I *D sky130_fd_sc_hd__nand2_2
*I *3907:A I *D sky130_fd_sc_hd__nand2_2
*I *3895:A I *D sky130_fd_sc_hd__or4_2
*I *3899:C_N I *D sky130_fd_sc_hd__or3b_2
*I *4065:A I *D sky130_fd_sc_hd__or3_2
*I *3898:A I *D sky130_fd_sc_hd__or3_2
*I *4687:X O *D sky130_fd_sc_hd__clkdlybuf4s25_1
*CAP
1 *3901:A 0
2 *3902:C_N 0.000401477
3 *3896:A 0
4 *3907:A 0.000183713
5 *3895:A 1.90984e-05
6 *3899:C_N 9.01194e-05
7 *4065:A 0
8 *3898:A 0.000189015
9 *4687:X 0.000378419
10 *666:81 0.000680037
11 *666:64 0.000749405
12 *666:58 0.000422756
13 *666:20 0.000213704
14 *666:18 0.000550552
15 *666:14 0.000534758
16 *666:8 0.000593958
17 *3902:C_N *4050:B1 0.000393024
18 *3902:C_N *691:32 4.82919e-05
19 *3907:A *4063:A2 0.0002336
20 *3907:A *672:89 4.77807e-05
21 *666:8 *4692:A 1.1392e-05
22 *666:14 *3895:C 2.16917e-05
23 *666:18 *3895:C 7.10578e-05
24 *666:18 *672:26 7.53903e-05
25 *666:64 *672:59 6.62684e-05
26 *3895:D *3895:A 4.00541e-06
27 *3896:B *3902:C_N 1.37583e-05
28 *3896:B *666:81 2.49909e-05
29 *3898:B *3898:A 0.000123389
30 *3898:C *3898:A 0.000310389
31 *3900:C *3899:C_N 0
32 *3900:D *3899:C_N 3.24046e-05
33 *3901:C *666:58 4.28112e-06
34 *3904:A_N *666:64 0.000111958
35 *3904:C *666:64 0.000158213
36 *3905:A2 *666:58 2.85623e-05
37 *3905:A2 *666:64 4.72301e-05
38 *3913:A1 *666:58 0
39 *3913:A2 *666:64 1.91597e-05
40 *4047:B *666:81 0.000113719
41 *4065:C *3899:C_N 0.000139245
42 *4066:A *3898:A 0.000198934
43 *4457:CLK *666:81 0
44 *4457:D *666:64 5.80063e-05
45 *4457:D *666:81 4.69244e-05
46 *4466:D *666:81 0.000114492
47 *87:14 *666:14 0.000206824
48 *87:30 *666:14 8.53113e-06
49 *87:30 *666:58 0.000249536
50 *87:34 *666:64 8.52972e-05
51 *131:26 *3902:C_N 3.42871e-05
52 *138:25 *666:14 0.000206824
53 *138:25 *666:58 0.000114492
54 *259:50 *3902:C_N 0.000129539
55 *259:50 *666:81 1.7902e-05
56 *261:22 *666:8 8.11323e-05
57 *261:41 *3899:C_N 2.30797e-05
58 *266:10 *3898:A 0.000203924
59 *266:10 *666:18 4.00541e-06
60 *449:67 *666:64 0.000133458
61 *449:67 *666:81 9.38648e-05
*RES
1 *4687:X *666:8 7.845 
2 *666:8 *666:14 4.85 
3 *666:14 *666:18 6.675 
4 *666:18 *666:20 0.45 
5 *666:20 *3898:A 7.69 
6 *666:20 *4065:A 1.6 
7 *666:18 *3899:C_N 7.49 
8 *666:14 *3895:A 1.96 
9 *666:8 *666:58 5.42 
10 *666:58 *666:64 9.875 
11 *666:64 *3907:A 6.825 
12 *666:64 *666:81 8.165 
13 *666:81 *3896:A 1.6 
14 *666:81 *3902:C_N 9.55 
15 *666:58 *3901:A 1.6 
*END

*D_NET *667 0.000594303
*CONN
*I *4854:A I *D sky130_fd_sc_hd__clkdlybuf4s25_1
*I *4599:X O *D sky130_fd_sc_hd__buf_2
*CAP
1 *4854:A 0.000297151
2 *4599:X 0.000297151
*RES
1 *4599:X *4854:A 11.67 
*END

*D_NET *668 0.00855467
*CONN
*I *3897:B1 I *D sky130_fd_sc_hd__o21a_2
*I *3893:A1 I *D sky130_fd_sc_hd__o311a_2
*I *4687:A I *D sky130_fd_sc_hd__clkdlybuf4s25_1
*I *4060:A I *D sky130_fd_sc_hd__or3_2
*I *4063:A1 I *D sky130_fd_sc_hd__o31a_2
*I *4064:A1 I *D sky130_fd_sc_hd__o31a_2
*I *4068:A I *D sky130_fd_sc_hd__or3_2
*I *4688:X O *D sky130_fd_sc_hd__clkdlybuf4s25_1
*CAP
1 *3897:B1 0
2 *3893:A1 7.31102e-05
3 *4687:A 0.000190389
4 *4060:A 9.73001e-05
5 *4063:A1 0.000419498
6 *4064:A1 4.11677e-05
7 *4068:A 0
8 *4688:X 0.000460011
9 *668:44 0.000634598
10 *668:31 0.00031722
11 *668:29 0.000500516
12 *668:25 0.000608626
13 *668:23 0.000747637
14 *668:10 0.000824007
15 *4060:A *4459:RESET_B 3.04804e-05
16 *4063:A1 *4051:B1 3.09233e-05
17 *4063:A1 *4063:A2 5.69721e-05
18 *4063:A1 *4457:RESET_B 4.04164e-06
19 *4064:A1 *4064:B1 8.23457e-05
20 *4687:A *3893:C1 5.87002e-05
21 *4687:A *4690:A 0.000208141
22 *4687:A *671:12 1.89685e-05
23 *668:10 *687:26 0
24 *668:23 *687:26 0
25 *668:44 *4064:B1 0.000361539
26 *3897:A1 *668:23 0.000122817
27 *3897:A2 *668:23 4.77807e-05
28 *3901:B *668:31 1.54665e-05
29 *3901:C *4063:A1 6.29998e-05
30 *3905:A3 *668:25 0.000451435
31 *3905:A3 *668:29 0.000264222
32 *3905:A3 *668:31 4.51928e-05
33 *4047:B *4063:A1 0
34 *4060:C *4060:A 0.000158556
35 *4063:B1 *4063:A1 6.07227e-05
36 *4064:A3 *4064:A1 0.000118081
37 *4064:A3 *668:31 8.23457e-05
38 *4353:B2 *668:10 0.00011485
39 *4458:D *668:31 4.31979e-05
40 *4474:D *668:10 0
41 *4622:A *3893:A1 9.91348e-05
42 *4848:A *4063:A1 0.000127436
43 *86:8 *668:44 0.000213753
44 *86:65 *668:44 0.000147786
45 *86:71 *4060:A 0.000266384
46 *259:44 *4063:A1 3.05373e-05
47 *267:8 *668:10 9.91801e-05
48 *469:8 *668:29 0.000132273
49 *469:8 *668:31 5.83121e-06
50 *469:10 *4687:A 0
51 *469:36 *3893:A1 6.5291e-05
52 *541:10 *668:23 1.32102e-05
*RES
1 *4688:X *668:10 10.485 
2 *668:10 *4068:A 3.6 
3 *668:10 *668:23 8.36 
4 *668:23 *668:25 8.04 
5 *668:25 *668:29 4.605 
6 *668:29 *668:31 3.21 
7 *668:31 *4064:A1 2.74 
8 *668:31 *668:44 8.44 
9 *668:44 *4063:A1 14 
10 *668:44 *4060:A 4.465 
11 *668:29 *4687:A 9.785 
12 *668:25 *3893:A1 7.745 
13 *668:23 *3897:B1 1.6 
*END

*D_NET *669 0.00940393
*CONN
*I *3915:S I *D sky130_fd_sc_hd__mux2_1
*I *4688:A I *D sky130_fd_sc_hd__clkdlybuf4s25_1
*I *3869:A I *D sky130_fd_sc_hd__nand2_2
*I *3862:B I *D sky130_fd_sc_hd__or3_2
*I *3849:B1 I *D sky130_fd_sc_hd__a21oi_2
*I *3870:C1 I *D sky130_fd_sc_hd__o211a_2
*I *4689:X O *D sky130_fd_sc_hd__clkdlybuf4s25_1
*CAP
1 *3915:S 4.55232e-05
2 *4688:A 0.00120074
3 *3869:A 2.08101e-05
4 *3862:B 0.000164287
5 *3849:B1 0.000199795
6 *3870:C1 0.000283457
7 *4689:X 0
8 *669:76 0.00128602
9 *669:50 0.000520507
10 *669:46 0.00049345
11 *669:27 0.000643566
12 *669:4 0.000608939
13 *3862:B *747:40 0.000116853
14 *3870:C1 *4471:D 8.09021e-06
15 *4688:A *3850:A_N 6.03525e-05
16 *4688:A *4069:B 0
17 *4688:A *4070:B 0
18 *669:46 *4771:A 7.20861e-05
19 *669:46 *752:19 4.82117e-05
20 *3847:A2 *4688:A 0
21 *3851:A1 *3849:B1 1.79483e-05
22 *3851:A1 *669:27 0
23 *3851:B1 *3849:B1 0.000263168
24 *3870:B1 *3870:C1 4.66108e-05
25 *3915:A0 *3915:S 1.91597e-05
26 *3915:A1 *3915:S 4.66108e-05
27 *3915:A1 *4688:A 5.8887e-05
28 *3915:A1 *669:46 0.000342349
29 *3915:A1 *669:76 0.00012904
30 *3933:A2 *4688:A 0
31 *3933:A2 *669:46 0.000162318
32 *3933:A2 *669:76 0.000137571
33 *4071:A1 *4688:A 0.000144122
34 *4071:A3 *4688:A 0
35 *4072:A2 *4688:A 0
36 *4360:B2 *3870:C1 0.000387896
37 *4360:B2 *669:27 0.000386388
38 *4360:B2 *669:46 1.15399e-05
39 *4409:CLK *3870:C1 2.49909e-05
40 *4425:D *3870:C1 7.36562e-05
41 *4471:CLK *3870:C1 0.000116151
42 *4474:D *4688:A 0
43 *4475:D *4688:A 7.89767e-05
44 *4529:CLK *3870:C1 5.83121e-06
45 *4648:A *3862:B 4.65607e-05
46 *4648:A *669:50 5.41776e-05
47 *4652:A *669:50 8.65905e-05
48 *3:16 *3862:B 9.01075e-06
49 *107:92 *3862:B 4.66108e-05
50 *111:10 *669:50 5.30673e-05
51 *160:27 *4688:A 0
52 *161:10 *4688:A 0
53 *162:16 *4688:A 0
54 *267:8 *4688:A 0
55 *449:226 *3849:B1 2.75229e-05
56 *495:6 *669:50 0.000570045
57 *495:33 *3870:C1 5.23362e-05
58 *519:38 *3915:S 7.14699e-05
59 *519:38 *4688:A 0.00016063
60 *519:49 *4688:A 0
*RES
1 *4689:X *669:4 1.6 
2 *669:4 *3870:C1 11.855 
3 *669:4 *669:27 7.4675 
4 *669:27 *3849:B1 5.6701 
5 *669:27 *669:46 4.5675 
6 *669:46 *669:50 9.35 
7 *669:50 *3862:B 8.57 
8 *669:50 *3869:A 1.96 
9 *669:46 *669:76 3.635 
10 *669:76 *4688:A 25.805 
11 *669:76 *3915:S 2.755 
*END

*D_NET *670 0.00776062
*CONN
*I *3893:C1 I *D sky130_fd_sc_hd__o311a_2
*I *3838:A I *D sky130_fd_sc_hd__inv_2
*I *3895:C I *D sky130_fd_sc_hd__or4_2
*I *4350:A2 I *D sky130_fd_sc_hd__o31a_2
*I *3911:B I *D sky130_fd_sc_hd__or4_2
*I *3892:B I *D sky130_fd_sc_hd__nand2_2
*I *4354:A2 I *D sky130_fd_sc_hd__o31a_2
*I *3903:B I *D sky130_fd_sc_hd__nand2b_2
*I *4690:X O *D sky130_fd_sc_hd__clkdlybuf4s25_1
*CAP
1 *3893:C1 0.000889064
2 *3838:A 0
3 *3895:C 4.9426e-05
4 *4350:A2 0.000339175
5 *3911:B 7.24228e-05
6 *3892:B 8.51549e-05
7 *4354:A2 0.000427435
8 *3903:B 6.47905e-05
9 *4690:X 0.00115906
10 *670:31 0.000604907
11 *670:29 0.000246534
12 *670:27 0.000516602
13 *670:25 0.000240135
14 *670:23 0.000170151
15 *670:10 0.000409866
16 *3892:B *4845:A 5.83121e-06
17 *3893:C1 *4690:A 2.69153e-05
18 *3895:C *672:26 7.10578e-05
19 *4350:A2 *4350:B1 8.65961e-05
20 *4354:A2 *4354:B1 8.65961e-05
21 *670:23 *672:37 0
22 *670:25 *672:37 0
23 *670:27 *3892:A 0
24 *670:27 *672:37 0
25 *670:29 *3892:A 0
26 *670:29 *3911:D 0
27 *670:29 *4844:A 6.64979e-05
28 *670:31 *3911:D 0
29 *3893:A2 *3893:C1 8.73525e-05
30 *3904:B *3893:C1 2.93136e-05
31 *3905:B1 *3893:C1 0.00027174
32 *3906:A *3903:B 1.61831e-05
33 *3906:A *670:10 8.57321e-05
34 *3906:D_N *670:10 2.63406e-05
35 *3906:D_N *670:23 0.000164679
36 *3906:D_N *670:25 0.000117832
37 *3912:C1 *3911:B 4.66108e-05
38 *3912:C1 *4354:A2 0.00013994
39 *3912:C1 *670:31 0.000131401
40 *3913:B1 *3893:C1 0.000113872
41 *3913:B1 *670:10 0.00019637
42 *4350:A3 *4350:A2 4.82863e-05
43 *4687:A *3893:C1 5.87002e-05
44 *86:21 *3911:B 2.36616e-05
45 *86:25 *3911:B 4.05674e-06
46 *87:14 *4354:A2 2.97004e-06
47 *87:14 *670:25 2.54779e-05
48 *87:14 *670:27 6.23375e-05
49 *87:14 *670:29 8.47455e-05
50 *87:14 *670:31 7.1635e-05
51 *138:25 *3903:B 4.82863e-05
52 *138:25 *4354:A2 0
53 *138:25 *670:10 0.000192125
54 *666:14 *3895:C 2.16917e-05
55 *666:18 *3895:C 7.10578e-05
*RES
1 *4690:X *670:10 7 
2 *670:10 *3903:B 2.755 
3 *670:10 *670:23 3.89 
4 *670:23 *670:25 2.145 
5 *670:25 *670:27 1.89 
6 *670:27 *670:29 2.4 
7 *670:29 *670:31 2.145 
8 *670:31 *4354:A2 10.185 
9 *670:31 *3892:B 4.74 
10 *670:29 *3911:B 5.115 
11 *670:27 *4350:A2 8.895 
12 *670:25 *3895:C 5.085 
13 *670:23 *3838:A 3.6 
14 *4690:X *3893:C1 20.67 
*END

*D_NET *671 0.00477816
*CONN
*I *3910:B I *D sky130_fd_sc_hd__or4_2
*I *4349:A2 I *D sky130_fd_sc_hd__o32a_2
*I *4353:A2 I *D sky130_fd_sc_hd__o32a_2
*I *4052:A I *D sky130_fd_sc_hd__or3_2
*I *4691:X O *D sky130_fd_sc_hd__clkdlybuf4s25_1
*CAP
1 *3910:B 8.09529e-05
2 *4349:A2 0
3 *4353:A2 0.000127461
4 *4052:A 0.000301785
5 *4691:X 0.000242715
6 *671:40 0.000268636
7 *671:16 0.000755619
8 *671:12 0.000756771
9 *3910:B *4068:B 8.49205e-05
10 *4353:A2 *4693:A 0.000501133
11 *671:12 *4690:A 5.12017e-06
12 *671:12 *4692:A 0.00011379
13 *671:16 *4416:RESET_B 0
14 *671:16 *673:23 0
15 *671:40 *4068:B 1.91597e-05
16 *4046:C *4052:A 2.75145e-05
17 *4068:C *3910:B 1.9415e-05
18 *4068:C *671:40 3.64998e-06
19 *4349:B2 *3910:B 9.89099e-05
20 *4353:A3 *4052:A 7.44375e-05
21 *4353:A3 *4353:A2 0.000198355
22 *4353:A3 *671:16 3.05373e-05
23 *4416:D *671:16 9.30787e-05
24 *4420:CLK *671:16 6.73751e-05
25 *4420:D *671:16 9.47454e-05
26 *4687:A *671:12 1.89685e-05
27 *4737:A *671:40 8.8266e-05
28 *4741:A *4353:A2 8.8266e-05
29 *261:12 *4052:A 4.99619e-05
30 *261:12 *671:12 0.000115464
31 *261:12 *671:16 0
32 *261:22 *671:12 1.19928e-05
33 *261:65 *671:12 0.000205372
34 *261:65 *671:40 0.00013855
35 *261:69 *3910:B 4.94404e-05
36 *469:10 *671:12 0
37 *469:10 *671:16 4.58014e-05
*RES
1 *4691:X *671:12 11.045 
2 *671:12 *671:16 8.735 
3 *671:16 *4052:A 8.79 
4 *671:16 *4353:A2 8.55 
5 *671:12 *671:40 3.9 
6 *671:40 *4349:A2 1.6 
7 *671:40 *3910:B 7.88 
*END

*D_NET *672 0.00819792
*CONN
*I *4063:A2 I *D sky130_fd_sc_hd__o31a_2
*I *3907:B I *D sky130_fd_sc_hd__nand2_2
*I *4064:A2 I *D sky130_fd_sc_hd__o31a_2
*I *3837:A I *D sky130_fd_sc_hd__inv_2
*I *3903:A_N I *D sky130_fd_sc_hd__nand2b_2
*I *3900:A I *D sky130_fd_sc_hd__and4_2
*I *3892:A I *D sky130_fd_sc_hd__nand2_2
*I *3895:B I *D sky130_fd_sc_hd__or4_2
*I *4692:X O *D sky130_fd_sc_hd__clkdlybuf4s25_1
*CAP
1 *4063:A2 0.000377228
2 *3907:B 0
3 *4064:A2 4.86288e-05
4 *3837:A 0.000176955
5 *3903:A_N 1.69964e-05
6 *3900:A 7.46468e-05
7 *3892:A 0.000281952
8 *3895:B 0.000370889
9 *4692:X 0.000120765
10 *672:89 0.000668844
11 *672:59 0.000462495
12 *672:55 0.000654822
13 *672:39 9.16432e-05
14 *672:37 0.000433345
15 *672:26 0.000839125
16 *3892:A *3911:D 0.000210151
17 *3892:A *4844:A 6.23119e-05
18 *4063:A2 *4051:B1 8.65961e-05
19 *4063:A2 *714:61 2.8185e-05
20 *4064:A2 *4064:B1 1.54665e-05
21 *3895:C *672:26 7.10578e-05
22 *3900:B *672:55 8.9257e-05
23 *3901:B *4064:A2 0.00015871
24 *3901:C *3837:A 0.000135258
25 *3904:A_N *3837:A 4.66108e-05
26 *3904:A_N *672:37 0
27 *3904:B *3837:A 0.00016212
28 *3904:C *3837:A 0.000142013
29 *3905:A2 *3837:A 0.000157237
30 *3906:A *3900:A 0.000197858
31 *3906:A *3903:A_N 4.77807e-05
32 *3906:D_N *672:37 0
33 *3907:A *4063:A2 0.0002336
34 *3907:A *672:89 4.77807e-05
35 *3913:A1 *3895:B 4.94326e-05
36 *3913:A2 *4064:A2 3.20857e-05
37 *3913:A2 *672:59 1.08105e-05
38 *3913:B1 *3895:B 5.98004e-06
39 *3913:B2 *3895:B 7.87426e-05
40 *4047:B *4063:A2 1.34361e-05
41 *4063:A1 *4063:A2 5.69721e-05
42 *4064:A3 *4064:A2 4.73082e-05
43 *4065:B *3892:A 0
44 *4065:C *672:37 0
45 *4350:A3 *3892:A 0
46 *4457:CLK *672:89 0.000181006
47 *4457:D *4063:A2 0.000336604
48 *4653:A *672:55 2.93063e-05
49 *4848:A *4063:A2 0.000158845
50 *87:34 *672:59 0.000102546
51 *138:25 *3895:B 0.000189426
52 *142:14 *672:89 8.80289e-05
53 *261:22 *3895:B 8.49205e-05
54 *261:41 *672:37 0
55 *497:10 *672:55 4.28112e-06
56 *497:10 *672:89 4.4022e-05
57 *506:8 *4063:A2 3.21772e-05
58 *666:18 *672:26 7.53903e-05
59 *666:64 *672:59 6.62684e-05
60 *670:23 *672:37 0
61 *670:25 *672:37 0
62 *670:27 *3892:A 0
63 *670:27 *672:37 0
64 *670:29 *3892:A 0
*RES
1 *4692:X *3895:B 10.14 
2 *3895:B *672:26 6.81 
3 *672:26 *3892:A 9.315 
4 *672:26 *672:37 4.95 
5 *672:37 *672:39 2 
6 *672:39 *3900:A 3.43 
7 *672:39 *3903:A_N 2.05 
8 *672:37 *672:55 2.4 
9 *672:55 *672:59 5.9 
10 *672:59 *3837:A 10.91 
11 *672:59 *4064:A2 3.415 
12 *672:55 *672:89 8.42 
13 *672:89 *3907:B 1.6 
14 *672:89 *4063:A2 14.93 
*END

*D_NET *673 0.00571316
*CONN
*I *3910:A I *D sky130_fd_sc_hd__or4_2
*I *3893:B1 I *D sky130_fd_sc_hd__o311a_2
*I *4068:B I *D sky130_fd_sc_hd__or3_2
*I *4349:A1 I *D sky130_fd_sc_hd__o32a_2
*I *4353:A1 I *D sky130_fd_sc_hd__o32a_2
*I *4693:X O *D sky130_fd_sc_hd__clkdlybuf4s25_1
*CAP
1 *3910:A 7.64295e-05
2 *3893:B1 0.000280274
3 *4068:B 0.000488113
4 *4349:A1 0
5 *4353:A1 0
6 *4693:X 0.000581354
7 *673:45 0.000428
8 *673:32 0.000592331
9 *673:23 0.000363351
10 *673:10 0.000911783
11 *3893:B1 *4416:RESET_B 0.000189613
12 *4068:B *4736:A 0.000423626
13 *673:23 *4416:RESET_B 0
14 *673:23 *4420:RESET_B 0.000134588
15 *673:32 *4416:RESET_B 0
16 *673:45 *4416:RESET_B 0
17 *3910:B *4068:B 8.49205e-05
18 *3913:B1 *3893:B1 0.000161829
19 *3913:B1 *3910:A 1.91597e-05
20 *4068:C *4068:B 1.29825e-05
21 *4349:A3 *673:10 0.000293719
22 *4349:A3 *673:23 0.000177352
23 *4349:B2 *4068:B 1.19928e-05
24 *4353:A3 *673:10 0
25 *4353:A3 *673:23 0
26 *4420:D *673:23 0
27 *4622:A *3893:B1 0.000196622
28 *261:69 *673:23 5.4003e-05
29 *261:69 *673:32 7.47215e-05
30 *261:69 *673:45 0.000137235
31 *671:16 *673:23 0
32 *671:40 *4068:B 1.91597e-05
*RES
1 *4693:X *673:10 11.61 
2 *673:10 *4353:A1 3.6 
3 *673:10 *673:23 7.125 
4 *673:23 *4349:A1 3.6 
5 *673:23 *673:32 0.87 
6 *673:32 *4068:B 9.915 
7 *673:32 *673:45 3.635 
8 *673:45 *3893:B1 12.305 
9 *673:45 *3910:A 2.74 
*END

*D_NET *674 0.00866695
*CONN
*I *4519:RESET_B I *D sky130_fd_sc_hd__dfrtp_2
*I *4515:RESET_B I *D sky130_fd_sc_hd__dfrtp_2
*I *4514:RESET_B I *D sky130_fd_sc_hd__dfrtp_2
*I *4513:RESET_B I *D sky130_fd_sc_hd__dfrtp_2
*I *4516:RESET_B I *D sky130_fd_sc_hd__dfrtp_2
*I *4517:RESET_B I *D sky130_fd_sc_hd__dfrtp_2
*I *4487:RESET_B I *D sky130_fd_sc_hd__dfrtp_2
*I *4518:RESET_B I *D sky130_fd_sc_hd__dfrtp_2
*I *4694:X O *D sky130_fd_sc_hd__clkdlybuf4s25_1
*CAP
1 *4519:RESET_B 0.000491801
2 *4515:RESET_B 0
3 *4514:RESET_B 0.000154306
4 *4513:RESET_B 0.000865338
5 *4516:RESET_B 0.000132409
6 *4517:RESET_B 0.000486311
7 *4487:RESET_B 6.08799e-05
8 *4518:RESET_B 0.000475571
9 *4694:X 0.000311986
10 *674:81 0.000216164
11 *674:79 0.000570881
12 *674:53 0.00134084
13 *674:10 0.000722446
14 *4513:RESET_B *891:10 4.40693e-06
15 *4514:RESET_B *4002:B 5.20249e-05
16 *4514:RESET_B *4222:A2 9.63404e-05
17 *4514:RESET_B *889:8 1.0063e-05
18 *4514:RESET_B *889:21 0.000111293
19 *4516:RESET_B *4516:D 4.54998e-05
20 *4516:RESET_B *891:10 3.52106e-05
21 *4518:RESET_B *4600:A 0.000316813
22 *4519:RESET_B *4002:A 3.84331e-05
23 *4519:RESET_B *4002:B 0.000151456
24 *4519:RESET_B *4520:D 0
25 *674:10 *4265:A 0.000196694
26 *674:53 *4230:A1 0.000129728
27 *674:53 *4230:A2 7.10578e-05
28 *674:53 *4600:A 0.000100682
29 *674:53 *891:10 0.000139933
30 *674:53 *891:21 0.000108322
31 *674:53 *891:42 0.000241404
32 *674:53 *892:12 4.66108e-05
33 *674:79 *4002:A 1.0063e-05
34 *674:81 *4002:B 0.000104891
35 *4002:D *4519:RESET_B 0
36 *4223:B *4519:RESET_B 0
37 *4225:B *674:53 0.000202102
38 *4231:B *4518:RESET_B 0
39 *4232:A2 *4518:RESET_B 0
40 *4232:B1 *4517:RESET_B 8.59746e-05
41 *4237:A2 *4519:RESET_B 0
42 *217:10 *4513:RESET_B 7.95914e-05
43 *217:10 *674:79 4.11729e-05
44 *218:8 *4519:RESET_B 0
45 *218:25 *4519:RESET_B 0
46 *218:33 *674:53 0.000140384
47 *218:35 *674:53 0.000163012
48 *466:8 *674:10 0.000114852
*RES
1 *4694:X *674:10 9.615 
2 *674:10 *4518:RESET_B 8.615 
3 *674:10 *4487:RESET_B 2.7425 
4 *4518:RESET_B *4517:RESET_B 6.655 
5 *4517:RESET_B *674:53 14.3875 
6 *674:53 *4516:RESET_B 2.1225 
7 *674:53 *4513:RESET_B 10.1925 
8 *4513:RESET_B *674:79 2.3975 
9 *674:79 *674:81 1.38 
10 *674:81 *4514:RESET_B 5.3075 
11 *674:81 *4515:RESET_B 2 
12 *674:79 *4519:RESET_B 10.6625 
*END

*D_NET *675 0.00867906
*CONN
*I *4418:RESET_B I *D sky130_fd_sc_hd__dfrtp_2
*I *4491:RESET_B I *D sky130_fd_sc_hd__dfrtp_2
*I *4490:RESET_B I *D sky130_fd_sc_hd__dfrtp_2
*I *4489:RESET_B I *D sky130_fd_sc_hd__dfrtp_2
*I *4488:RESET_B I *D sky130_fd_sc_hd__dfrtp_2
*I *4492:RESET_B I *D sky130_fd_sc_hd__dfrtp_2
*I *4494:RESET_B I *D sky130_fd_sc_hd__dfrtp_2
*I *4493:RESET_B I *D sky130_fd_sc_hd__dfrtp_2
*I *4695:X O *D sky130_fd_sc_hd__clkdlybuf4s25_1
*CAP
1 *4418:RESET_B 0.000424068
2 *4491:RESET_B 0.000347312
3 *4490:RESET_B 0.000157167
4 *4489:RESET_B 0.000189099
5 *4488:RESET_B 0.000155139
6 *4492:RESET_B 6.89268e-05
7 *4494:RESET_B 0
8 *4493:RESET_B 0.000850979
9 *4695:X 0.000174823
10 *675:48 0.000475031
11 *675:46 0.000611758
12 *675:44 0.000671109
13 *675:36 0.000458355
14 *675:10 0.000212306
15 *4418:RESET_B *3982:A 0
16 *4418:RESET_B *935:10 6.09188e-05
17 *4488:RESET_B *3978:B 0
18 *4488:RESET_B *4265:B 1.13009e-05
19 *4488:RESET_B *917:42 2.30292e-05
20 *4488:RESET_B *928:28 0.000122331
21 *4489:RESET_B *3978:D 0.000272978
22 *4490:RESET_B *932:12 3.80606e-05
23 *4491:RESET_B *4825:A 0.000119762
24 *4491:RESET_B *933:8 2.68464e-05
25 *4492:RESET_B *934:8 5.67285e-05
26 *4493:RESET_B *677:14 0.000120186
27 *675:10 *4695:A 0.000168116
28 *675:10 *677:10 6.28498e-05
29 *675:10 *677:14 9.9468e-05
30 *675:10 *714:20 0.000114492
31 *675:48 *3978:B 0
32 *675:48 *932:12 6.28765e-05
33 *4266:A1 *4488:RESET_B 4.24575e-05
34 *4269:A *4488:RESET_B 4.75576e-05
35 *4269:A *4489:RESET_B 8.49205e-05
36 *4273:B1 *675:36 4.7043e-05
37 *4274:A1 *4491:RESET_B 0.000164196
38 *4275:B *675:46 6.5525e-05
39 *4276:A1 *675:36 4.58406e-05
40 *4276:A2 *675:36 0
41 *4276:B1 *675:36 0.000118504
42 *4277:B *4493:RESET_B 4.7043e-05
43 *4277:B *675:10 8.27265e-05
44 *4277:B *675:36 8.68724e-05
45 *4423:CLK *4418:RESET_B 0
46 *4644:A *4418:RESET_B 0.000422941
47 *193:10 *4488:RESET_B 0.000158072
48 *194:10 *675:48 0
49 *195:10 *675:46 6.23206e-05
50 *195:10 *675:48 7.25036e-05
51 *195:23 *675:46 0.000134807
52 *195:47 *4491:RESET_B 5.12017e-06
53 *195:47 *675:46 7.38016e-05
54 *197:25 *4491:RESET_B 7.44453e-05
55 *197:25 *675:36 0
56 *197:25 *675:46 0.000134531
57 *488:6 *4492:RESET_B 4.82863e-05
58 *488:6 *675:36 4.82919e-05
59 *488:10 *4491:RESET_B 0.000158297
60 *488:32 *4492:RESET_B 7.8947e-05
61 *488:67 *675:36 5.05437e-05
62 *491:14 *4418:RESET_B 0.000167454
63 *491:51 *4418:RESET_B 0
*RES
1 *4695:X *675:10 7.98 
2 *675:10 *4493:RESET_B 3.38 
3 *675:10 *4494:RESET_B 2 
4 *4493:RESET_B *675:36 12.0475 
5 *675:36 *4492:RESET_B 1.7775 
6 *675:36 *675:44 2 
7 *675:44 *675:46 8.01 
8 *675:46 *675:48 2.91 
9 *675:48 *4488:RESET_B 5.5025 
10 *675:48 *4489:RESET_B 5.5025 
11 *675:46 *4490:RESET_B 4.1225 
12 *675:44 *4491:RESET_B 9.0425 
13 *4493:RESET_B *4418:RESET_B 12.715 
*END

*D_NET *676 0.0050374
*CONN
*I *4523:RESET_B I *D sky130_fd_sc_hd__dfrtp_2
*I *4419:RESET_B I *D sky130_fd_sc_hd__dfrtp_2
*I *4422:RESET_B I *D sky130_fd_sc_hd__dfrtp_2
*I *4522:RESET_B I *D sky130_fd_sc_hd__dfrtp_2
*I *4524:RESET_B I *D sky130_fd_sc_hd__dfrtp_2
*I *4423:RESET_B I *D sky130_fd_sc_hd__dfrtp_2
*I *4696:X O *D sky130_fd_sc_hd__clkdlybuf4s25_1
*CAP
1 *4523:RESET_B 0.000153336
2 *4419:RESET_B 2.6962e-05
3 *4422:RESET_B 0
4 *4522:RESET_B 0.000182742
5 *4524:RESET_B 0.000407284
6 *4423:RESET_B 9.05403e-06
7 *4696:X 0.000125346
8 *676:20 0.000797752
9 *676:18 0.000615039
10 *676:16 0.000375492
11 *676:6 0.000228953
12 *4419:RESET_B *4847:A 2.20753e-05
13 *4423:RESET_B *4696:A 4.24575e-05
14 *4522:RESET_B *4008:A 0.000201503
15 *4522:RESET_B *876:16 0.000120741
16 *4523:RESET_B *4008:A 0
17 *4523:RESET_B *4246:B1 4.43871e-06
18 *4523:RESET_B *876:16 8.17755e-05
19 *4523:RESET_B *877:6 2.75145e-05
20 *676:6 *4696:A 0.000198945
21 *676:16 *735:12 0
22 *676:18 *4847:A 0.000116853
23 *4012:B *676:20 0.000187071
24 *4422:D *676:20 0
25 *4524:CLK *4523:RESET_B 4.43871e-06
26 *4530:CLK *4522:RESET_B 0.00034255
27 *107:47 *4423:RESET_B 4.24575e-05
28 *107:47 *676:6 0.000453634
29 *107:47 *676:16 0
30 *227:21 *4524:RESET_B 0
31 *227:21 *676:20 0
32 *663:10 *4524:RESET_B 0.00011686
33 *663:10 *676:20 0.000152127
*RES
1 *4696:X *676:6 5.845 
2 *676:6 *4423:RESET_B 0.3975 
3 *676:6 *676:16 3.38 
4 *676:16 *676:18 4.185 
5 *676:18 *676:20 6.99 
6 *676:20 *4524:RESET_B 5.8475 
7 *676:20 *4522:RESET_B 7.2275 
8 *676:18 *4422:RESET_B 2 
9 *676:16 *4419:RESET_B 2.3975 
10 *4524:RESET_B *4523:RESET_B 7.1575 
*END

*D_NET *677 0.0121984
*CONN
*I *4695:A I *D sky130_fd_sc_hd__clkdlybuf4s25_1
*I *4696:A I *D sky130_fd_sc_hd__clkdlybuf4s25_1
*I *4521:RESET_B I *D sky130_fd_sc_hd__dfrtp_2
*I *4520:RESET_B I *D sky130_fd_sc_hd__dfrtp_2
*I *4694:A I *D sky130_fd_sc_hd__clkdlybuf4s25_1
*I *4697:X O *D sky130_fd_sc_hd__clkdlybuf4s25_1
*CAP
1 *4695:A 0.000247648
2 *4696:A 0.00111317
3 *4521:RESET_B 0
4 *4520:RESET_B 7.15726e-05
5 *4694:A 0.000569361
6 *4697:X 0.000208569
7 *677:33 0.000918842
8 *677:14 0.00226905
9 *677:10 0.00200846
10 *677:8 0.000499087
11 *4520:RESET_B *873:23 6.20952e-05
12 *4694:A *4265:A 0.000124895
13 *4695:A *4806:A 0
14 *4695:A *714:20 2.60986e-05
15 *677:14 *3978:A 0
16 *677:14 *3978:B 0
17 *677:14 *3982:A 0
18 *677:14 *3982:B 4.11198e-05
19 *677:14 *4806:A 0
20 *677:14 *935:10 5.21458e-05
21 *677:33 *4238:A1 0.000248261
22 *677:33 *4238:B1 0
23 *677:33 *873:23 0.000198004
24 *677:33 *874:32 7.47215e-05
25 *4235:B1 *677:33 0
26 *4240:A1 *677:14 4.39734e-05
27 *4240:A2 *677:33 2.88436e-05
28 *4240:B1 *677:33 0
29 *4242:B *677:14 0.0008335
30 *4244:B *677:14 2.54436e-05
31 *4248:A1 *677:33 6.61613e-05
32 *4275:A *677:14 0.000471301
33 *4276:A1 *677:14 0
34 *4276:A2 *677:14 2.42236e-05
35 *4277:B *677:14 0
36 *4423:RESET_B *4696:A 4.24575e-05
37 *4493:RESET_B *677:14 0.000120186
38 *4619:A *677:33 4.66742e-05
39 *4666:A *4696:A 3.45679e-05
40 *107:47 *4696:A 2.75757e-05
41 *222:33 *677:33 0
42 *466:8 *4694:A 0.000143814
43 *488:67 *677:14 0.000137968
44 *586:39 *677:14 8.6099e-05
45 *619:10 *4696:A 0.000138808
46 *642:45 *677:8 0.000311282
47 *661:12 *4520:RESET_B 0
48 *661:12 *677:33 0
49 *663:16 *677:33 0.000304758
50 *663:20 *677:33 4.82919e-05
51 *675:10 *4695:A 0.000168116
52 *675:10 *677:10 6.28498e-05
53 *675:10 *677:14 9.9468e-05
54 *676:6 *4696:A 0.000198945
*RES
1 *4697:X *677:8 6.465 
2 *677:8 *677:10 0.87 
3 *677:10 *677:14 23.78 
4 *677:14 *4694:A 9.43 
5 *677:14 *677:33 16.325 
6 *677:33 *4520:RESET_B 3.38 
7 *677:33 *4521:RESET_B 2 
8 *677:10 *4696:A 17.79 
9 *677:8 *4695:A 8.085 
*END

*D_NET *678 0.00102756
*CONN
*I *4855:A I *D sky130_fd_sc_hd__clkdlybuf4s25_1
*I *4600:X O *D sky130_fd_sc_hd__buf_2
*CAP
1 *4855:A 0.000513778
2 *4600:X 0.000513778
*RES
1 *4600:X *4855:A 14.085 
*END

*D_NET *679 0.00656778
*CONN
*I *4535:RESET_B I *D sky130_fd_sc_hd__dfrtp_2
*I *4527:RESET_B I *D sky130_fd_sc_hd__dfrtp_2
*I *4526:RESET_B I *D sky130_fd_sc_hd__dfrtp_2
*I *4509:RESET_B I *D sky130_fd_sc_hd__dfrtp_2
*I *4511:RESET_B I *D sky130_fd_sc_hd__dfrtp_2
*I *4512:RESET_B I *D sky130_fd_sc_hd__dfrtp_2
*I *4510:RESET_B I *D sky130_fd_sc_hd__dfrtp_2
*I *4525:RESET_B I *D sky130_fd_sc_hd__dfrtp_2
*I *4698:X O *D sky130_fd_sc_hd__clkdlybuf4s25_1
*CAP
1 *4535:RESET_B 0.000840787
2 *4527:RESET_B 0
3 *4526:RESET_B 0.000947742
4 *4509:RESET_B 3.24164e-05
5 *4511:RESET_B 0
6 *4512:RESET_B 6.18688e-05
7 *4510:RESET_B 2.87869e-05
8 *4525:RESET_B 0
9 *4698:X 0.000124889
10 *679:34 0.000361425
11 *679:25 0.000392766
12 *679:23 0.000462095
13 *679:14 0.000422438
14 *679:12 0.000391754
15 *679:10 0.000352506
16 *4535:RESET_B *4255:A2 1.71013e-05
17 *4535:RESET_B *4536:D 0.000165871
18 *4535:RESET_B *843:10 2.11084e-05
19 *4535:RESET_B *879:10 0
20 *4535:RESET_B *880:10 3.67779e-05
21 *679:25 *872:10 5.39718e-05
22 *679:34 *4214:A3 9.12857e-06
23 *679:34 *872:10 0.00014941
24 *679:34 *886:12 7.32598e-05
25 *4013:A *679:34 0
26 *4165:A2 *4535:RESET_B 0.000116572
27 *4165:B1 *4535:RESET_B 3.98475e-05
28 *4215:B *4512:RESET_B 6.47357e-05
29 *4215:B *679:34 0.000181928
30 *4254:A2 *679:12 0.000198286
31 *4254:A2 *679:14 0.00011852
32 *4254:A2 *679:23 0.000215147
33 *4256:B *679:10 4.66826e-05
34 *4535:CLK *4535:RESET_B 8.49205e-05
35 *4645:A *4535:RESET_B 2.92496e-05
36 *4646:A *4535:RESET_B 3.57349e-05
37 *4662:A *679:10 0
38 *4662:A *679:12 0
39 *4683:A *679:12 0
40 *4683:A *679:14 0
41 *4683:A *679:23 0
42 *224:43 *679:10 7.23602e-05
43 *225:20 *4535:RESET_B 5.83121e-06
44 *225:20 *679:10 0.000162311
45 *225:20 *679:12 9.47454e-05
46 *458:12 *4535:RESET_B 0.000154806
47 *458:12 *679:12 0
48 *597:33 *679:23 0
49 *597:33 *679:25 0
50 *597:33 *679:34 0
*RES
1 *4698:X *679:10 6.285 
2 *679:10 *679:12 4.185 
3 *679:12 *679:14 1.38 
4 *679:14 *4525:RESET_B 2 
5 *679:14 *679:23 7.44 
6 *679:23 *679:25 1.38 
7 *679:25 *4510:RESET_B 2.45 
8 *679:25 *679:34 6.99 
9 *679:34 *4512:RESET_B 3.38 
10 *679:34 *4511:RESET_B 2 
11 *679:23 *4509:RESET_B 2.3975 
12 *679:12 *4526:RESET_B 3.4325 
13 *679:10 *4527:RESET_B 2 
14 *4526:RESET_B *4535:RESET_B 18.895 
*END

*D_NET *680 0.00389049
*CONN
*I *4537:RESET_B I *D sky130_fd_sc_hd__dfrtp_2
*I *4539:RESET_B I *D sky130_fd_sc_hd__dfrtp_2
*I *4538:RESET_B I *D sky130_fd_sc_hd__dfrtp_2
*I *4540:RESET_B I *D sky130_fd_sc_hd__dfrtp_2
*I *4536:RESET_B I *D sky130_fd_sc_hd__dfrtp_2
*I *4699:X O *D sky130_fd_sc_hd__clkdlybuf4s25_1
*CAP
1 *4537:RESET_B 0
2 *4539:RESET_B 2.69083e-05
3 *4538:RESET_B 1.23682e-05
4 *4540:RESET_B 0.000207238
5 *4536:RESET_B 0.000655071
6 *4699:X 0.000406068
7 *680:29 0.000462129
8 *680:27 0.000521487
9 *680:25 0.000501058
10 *4536:RESET_B *4017:B 7.70758e-05
11 *4536:RESET_B *4166:A2 1.32907e-06
12 *4536:RESET_B *4699:A 8.63479e-05
13 *4536:RESET_B *844:6 7.40482e-06
14 *4536:RESET_B *844:27 0.000141606
15 *4538:RESET_B *846:12 4.20673e-05
16 *4538:RESET_B *847:16 1.55562e-05
17 *4539:RESET_B *847:10 1.23607e-05
18 *4540:RESET_B *4172:A 0.000156786
19 *4540:RESET_B *847:16 2.93006e-05
20 *680:25 *4166:A2 0
21 *680:25 *844:27 7.70828e-05
22 *680:25 *845:8 0
23 *680:29 *847:10 4.88301e-05
24 *680:29 *847:16 4.69705e-05
25 *4165:A2 *4536:RESET_B 0
26 *4168:A2 *4536:RESET_B 3.64998e-06
27 *4168:A2 *680:25 4.65017e-05
28 *4170:A *680:27 0
29 *4170:A *680:29 0
30 *4674:A *4536:RESET_B 0.000294421
31 *4674:A *680:25 1.08766e-05
*RES
1 *4699:X *4536:RESET_B 13.3175 
2 *4536:RESET_B *680:25 5.93 
3 *680:25 *680:27 4.185 
4 *680:27 *680:29 4.185 
5 *680:29 *4540:RESET_B 6.185 
6 *680:29 *4538:RESET_B 2.3975 
7 *680:27 *4539:RESET_B 2.3975 
8 *680:25 *4537:RESET_B 2 
*END

*D_NET *681 0.00927897
*CONN
*I *4409:RESET_B I *D sky130_fd_sc_hd__dfrtp_2
*I *4425:RESET_B I *D sky130_fd_sc_hd__dfrtp_2
*I *4528:RESET_B I *D sky130_fd_sc_hd__dfrtp_2
*I *4529:RESET_B I *D sky130_fd_sc_hd__dfrtp_2
*I *4530:RESET_B I *D sky130_fd_sc_hd__dfrtp_2
*I *4449:RESET_B I *D sky130_fd_sc_hd__dfrtp_2
*I *4450:RESET_B I *D sky130_fd_sc_hd__dfrtp_2
*I *4448:SET_B I *D sky130_fd_sc_hd__dfstp_2
*I *4700:X O *D sky130_fd_sc_hd__clkdlybuf4s25_1
*CAP
1 *4409:RESET_B 0.000195599
2 *4425:RESET_B 0.000915041
3 *4528:RESET_B 0.000200547
4 *4529:RESET_B 0.000211765
5 *4530:RESET_B 0.000115164
6 *4449:RESET_B 0.000213001
7 *4450:RESET_B 4.29684e-05
8 *4448:SET_B 0.000421933
9 *4700:X 0.000146266
10 *681:75 0.000446914
11 *681:63 0.000463224
12 *681:53 0.00127928
13 *681:12 0.000321616
14 *681:10 0.000462363
15 *4448:SET_B *682:14 0.000406764
16 *4448:SET_B *749:8 9.07342e-05
17 *4448:SET_B *749:14 7.37109e-05
18 *4449:RESET_B *3914:A 6.52265e-05
19 *4449:RESET_B *4701:A 4.35648e-05
20 *4449:RESET_B *748:6 3.51231e-05
21 *4449:RESET_B *748:52 8.8266e-05
22 *4528:RESET_B *682:14 0.000254644
23 *681:10 *4700:A 8.71463e-05
24 *681:10 *748:52 0
25 *681:12 *3914:A 4.28483e-05
26 *681:12 *4700:A 0.00011686
27 *681:12 *682:14 0.00010596
28 *681:12 *748:52 0
29 *681:12 *749:8 1.94892e-05
30 *681:53 *682:14 0
31 *681:53 *749:14 0
32 *681:75 *4529:D 9.14049e-05
33 *681:75 *682:14 9.14049e-05
34 *3915:A1 *4409:RESET_B 0.000135941
35 *3917:B1 *4450:RESET_B 4.66108e-05
36 *3919:A2 *681:53 9.71067e-05
37 *4045:B *681:12 0
38 *4207:B *4425:RESET_B 8.23457e-05
39 *4207:B *681:53 0.000270647
40 *4207:B *681:63 0
41 *4360:B2 *4409:RESET_B 1.15688e-05
42 *4529:CLK *4528:RESET_B 2.65814e-06
43 *4665:A *681:63 8.65905e-05
44 *106:10 *681:63 0
45 *106:16 *4425:RESET_B 0.00016129
46 *107:92 *4409:RESET_B 0.000131852
47 *107:111 *4409:RESET_B 4.76281e-05
48 *111:18 *4448:SET_B 1.53577e-05
49 *150:37 *681:53 6.76053e-05
50 *350:6 *681:63 5.0751e-05
51 *449:226 *681:63 4.43682e-05
52 *449:228 *4528:RESET_B 3.05295e-05
53 *449:228 *681:63 2.75707e-05
54 *449:246 *4528:RESET_B 0
55 *449:266 *681:53 0
56 *449:266 *681:63 8.47629e-05
57 *459:12 *681:63 0
58 *495:23 *4425:RESET_B 8.65905e-05
59 *495:33 *4425:RESET_B 2.0514e-05
60 *500:10 *4409:RESET_B 0.000159007
61 *608:8 *4530:RESET_B 0.000306738
62 *608:8 *681:63 0.000262108
*RES
1 *4700:X *681:10 5.61 
2 *681:10 *681:12 2.655 
3 *681:12 *4448:SET_B 7.5425 
4 *681:12 *4450:RESET_B 2.7575 
5 *681:10 *4449:RESET_B 5.8625 
6 *4448:SET_B *681:53 9.205 
7 *681:53 *681:63 10.825 
8 *681:63 *4530:RESET_B 2.8125 
9 *681:63 *681:75 5.125 
10 *681:75 *4529:RESET_B 2.5875 
11 *681:75 *4528:RESET_B 7.705 
12 *681:53 *4425:RESET_B 8.7975 
13 *4425:RESET_B *4409:RESET_B 9.07 
*END

*D_NET *682 0.00936315
*CONN
*I *4700:A I *D sky130_fd_sc_hd__clkdlybuf4s25_1
*I *4471:RESET_B I *D sky130_fd_sc_hd__dfrtp_2
*I *4699:A I *D sky130_fd_sc_hd__clkdlybuf4s25_1
*I *4698:A I *D sky130_fd_sc_hd__clkdlybuf4s25_1
*I *4701:X O *D sky130_fd_sc_hd__clkdlybuf4s25_1
*CAP
1 *4700:A 0.000255375
2 *4471:RESET_B 0.000210785
3 *4699:A 0.000253528
4 *4698:A 0
5 *4701:X 0.000170487
6 *682:27 0.00126761
7 *682:14 0.00170573
8 *682:8 0.0013283
9 *4699:A *843:10 7.59725e-05
10 *4699:A *843:42 7.24949e-05
11 *4700:A *748:52 0
12 *682:8 *3914:A 0.00013493
13 *682:14 *4260:A1 8.77073e-05
14 *682:14 *4529:D 0.000319383
15 *682:14 *749:14 0
16 *682:14 *882:19 7.75325e-05
17 *682:27 *4166:A1 0.000115779
18 *682:27 *843:42 2.7441e-05
19 *3918:B *4700:A 6.45236e-05
20 *3918:B *682:14 0.000292053
21 *4161:B *682:27 0.000367282
22 *4162:A *4471:RESET_B 7.71016e-05
23 *4162:A *4699:A 1.1561e-05
24 *4165:A2 *4699:A 0
25 *4256:B *682:14 4.99619e-05
26 *4256:B *682:27 0.000304758
27 *4262:A *682:14 0
28 *4448:D *682:14 0.000116151
29 *4448:SET_B *682:14 0.000406764
30 *4528:RESET_B *682:14 0.000254644
31 *4536:RESET_B *4699:A 8.63479e-05
32 *4665:A *682:14 0.00031916
33 *4674:A *4699:A 0.000226841
34 *4675:A *4699:A 0.00012904
35 *4677:A *4471:RESET_B 0
36 *4677:A *4699:A 0
37 *149:18 *4700:A 0
38 *225:20 *682:14 0
39 *449:228 *682:14 3.3972e-05
40 *449:246 *682:14 0
41 *449:266 *682:14 3.77199e-05
42 *458:12 *682:14 8.08439e-05
43 *681:10 *4700:A 8.71463e-05
44 *681:12 *4700:A 0.00011686
45 *681:12 *682:14 0.00010596
46 *681:53 *682:14 0
47 *681:75 *682:14 9.14049e-05
*RES
1 *4701:X *682:8 5.775 
2 *682:8 *682:14 26.27 
3 *682:14 *4698:A 1.6 
4 *682:14 *682:27 16.025 
5 *682:27 *4699:A 9.525 
6 *682:27 *4471:RESET_B 5.93 
7 *682:8 *4700:A 8.085 
*END

*D_NET *683 0.00842141
*CONN
*I *4496:RESET_B I *D sky130_fd_sc_hd__dfrtp_2
*I *4417:RESET_B I *D sky130_fd_sc_hd__dfrtp_2
*I *4421:RESET_B I *D sky130_fd_sc_hd__dfrtp_2
*I *4495:RESET_B I *D sky130_fd_sc_hd__dfrtp_2
*I *4500:RESET_B I *D sky130_fd_sc_hd__dfrtp_2
*I *4498:RESET_B I *D sky130_fd_sc_hd__dfrtp_2
*I *4497:RESET_B I *D sky130_fd_sc_hd__dfrtp_2
*I *4499:RESET_B I *D sky130_fd_sc_hd__dfrtp_2
*I *4702:X O *D sky130_fd_sc_hd__clkdlybuf4s25_1
*CAP
1 *4496:RESET_B 0.000175072
2 *4417:RESET_B 0.000171026
3 *4421:RESET_B 0
4 *4495:RESET_B 0.000223433
5 *4500:RESET_B 0
6 *4498:RESET_B 0.000598424
7 *4497:RESET_B 2.61726e-05
8 *4499:RESET_B 0.00015804
9 *4702:X 0.000172386
10 *683:84 0.00104601
11 *683:72 0.00140278
12 *683:38 0.000656297
13 *683:12 0.000816955
14 *683:10 0.000320163
15 *4495:RESET_B *937:8 4.66108e-05
16 *4496:RESET_B *3985:B 2.68464e-05
17 *4497:RESET_B *4827:A 1.15423e-05
18 *4498:RESET_B *4498:D 1.08056e-05
19 *4498:RESET_B *4827:A 2.31329e-05
20 *4498:RESET_B *918:10 9.71067e-05
21 *4499:RESET_B *4499:D 4.1652e-06
22 *4499:RESET_B *920:32 0.000154635
23 *683:10 *921:12 7.01303e-05
24 *683:38 *4498:D 0.000261049
25 *683:72 *3988:A 0.000209179
26 *683:72 *4820:A 2.92496e-05
27 *683:72 *937:25 0.000116853
28 *683:84 *937:8 4.82919e-05
29 *3988:C *683:72 7.26629e-05
30 *4284:A1 *683:38 2.49909e-05
31 *4354:A1 *4417:RESET_B 0
32 *4354:A1 *683:84 0
33 *4421:CLK *4417:RESET_B 0
34 *4421:D *683:84 0.000278111
35 *4499:CLK *683:38 0.000453287
36 *200:21 *683:72 3.40022e-05
37 *201:8 *4496:RESET_B 6.13283e-05
38 *202:10 *683:72 0.000159957
39 *204:16 *4498:RESET_B 6.55328e-05
40 *204:16 *683:38 3.59784e-05
41 *205:10 *683:38 4.83032e-05
42 *205:10 *683:72 4.24292e-06
43 *205:23 *683:38 0.000118848
44 *205:34 *683:38 6.90545e-05
45 *205:49 *683:10 9.02962e-05
46 *205:49 *683:38 2.84549e-05
47 *497:77 *4417:RESET_B 0
48 *642:28 *683:84 0
*RES
1 *4702:X *683:10 6.21 
2 *683:10 *683:12 2.3475 
3 *683:12 *4499:RESET_B 4.895 
4 *683:12 *683:38 17.5575 
5 *683:38 *4497:RESET_B 0.3975 
6 *683:38 *4498:RESET_B 6.52 
7 *683:10 *4500:RESET_B 2 
8 *4498:RESET_B *683:72 13.6975 
9 *683:72 *4495:RESET_B 0.7425 
10 *683:72 *683:84 15.56 
11 *683:84 *4421:RESET_B 2 
12 *683:84 *4417:RESET_B 4.91 
13 *4495:RESET_B *4496:RESET_B 6.8125 
*END

*D_NET *684 0.0039567
*CONN
*I *4464:RESET_B I *D sky130_fd_sc_hd__dfrtp_2
*I *4473:RESET_B I *D sky130_fd_sc_hd__dfrtp_2
*I *4472:RESET_B I *D sky130_fd_sc_hd__dfrtp_2
*I *4463:RESET_B I *D sky130_fd_sc_hd__dfrtp_2
*I *4468:RESET_B I *D sky130_fd_sc_hd__dfrtp_2
*I *4467:RESET_B I *D sky130_fd_sc_hd__dfrtp_2
*I *4703:X O *D sky130_fd_sc_hd__clkdlybuf4s25_1
*CAP
1 *4464:RESET_B 0
2 *4473:RESET_B 0
3 *4472:RESET_B 0.000100147
4 *4463:RESET_B 0.000376002
5 *4468:RESET_B 0
6 *4467:RESET_B 0.000276446
7 *4703:X 0.000145748
8 *684:48 0.000179874
9 *684:46 0.000244291
10 *684:8 0.000210757
11 *4048:B *684:8 0
12 *4049:A *684:8 0.000113797
13 *4735:A *4467:RESET_B 0.000138106
14 *4735:A *684:8 0.000161679
15 *260:14 *684:8 0.00013994
16 *449:94 *4463:RESET_B 1.17614e-05
17 *461:20 *684:8 1.44177e-05
18 *497:77 *4472:RESET_B 0.000355173
19 *497:77 *684:46 5.20193e-05
20 *497:77 *684:48 0.000336855
21 *642:28 *4463:RESET_B 7.85218e-05
22 *642:28 *4472:RESET_B 0.000355173
23 *642:28 *684:8 0
24 *642:28 *684:46 0.000338639
25 *642:28 *684:48 0.000327351
*RES
1 *4703:X *684:8 7.275 
2 *684:8 *4467:RESET_B 3.635 
3 *684:8 *4468:RESET_B 2 
4 *4467:RESET_B *4463:RESET_B 8.2075 
5 *4463:RESET_B *684:46 6.185 
6 *684:46 *684:48 3.93 
7 *684:48 *4472:RESET_B 6.185 
8 *684:48 *4473:RESET_B 2 
9 *684:46 *4464:RESET_B 2 
*END

*D_NET *685 0.00890646
*CONN
*I *4506:RESET_B I *D sky130_fd_sc_hd__dfrtp_2
*I *4505:RESET_B I *D sky130_fd_sc_hd__dfrtp_2
*I *4703:A I *D sky130_fd_sc_hd__clkdlybuf4s25_1
*I *4702:A I *D sky130_fd_sc_hd__clkdlybuf4s25_1
*I *4503:RESET_B I *D sky130_fd_sc_hd__dfrtp_2
*I *4504:RESET_B I *D sky130_fd_sc_hd__dfrtp_2
*I *4502:RESET_B I *D sky130_fd_sc_hd__dfrtp_2
*I *4501:RESET_B I *D sky130_fd_sc_hd__dfrtp_2
*I *4704:X O *D sky130_fd_sc_hd__clkdlybuf4s25_1
*CAP
1 *4506:RESET_B 4.17595e-05
2 *4505:RESET_B 0.000154258
3 *4703:A 9.38022e-05
4 *4702:A 0.000494259
5 *4503:RESET_B 7.48166e-05
6 *4504:RESET_B 5.61279e-05
7 *4502:RESET_B 0.000105233
8 *4501:RESET_B 0.00021411
9 *4704:X 0
10 *685:73 0.000563269
11 *685:50 0.00130249
12 *685:31 0.000200538
13 *685:21 0.000452488
14 *685:8 0.000704916
15 *685:4 0.000664403
16 *4501:RESET_B *4501:D 0
17 *4501:RESET_B *4839:A 7.23602e-05
18 *4502:RESET_B *4829:A 2.49909e-05
19 *4503:RESET_B *3994:A 0.000308976
20 *4505:RESET_B *3996:B 8.6099e-05
21 *4505:RESET_B *4505:D 4.11729e-05
22 *4505:RESET_B *926:17 5.92767e-05
23 *4505:RESET_B *927:27 0.000363667
24 *4506:RESET_B *927:27 0.000136182
25 *4702:A *714:10 0.000160529
26 *4702:A *714:20 9.24049e-05
27 *4703:A *927:27 3.09164e-05
28 *685:8 *4501:D 1.93069e-05
29 *685:8 *4731:A 5.30673e-05
30 *685:21 *3992:A 0.000114492
31 *685:21 *4501:D 0
32 *685:21 *4731:A 0
33 *685:21 *4839:A 0.00022372
34 *685:31 *3992:A 8.9277e-05
35 *685:31 *3994:A 0.000187071
36 *685:50 *4731:A 7.00889e-06
37 *685:73 *3996:C 3.64998e-06
38 *3992:B *685:21 2.43962e-05
39 *3996:D *685:73 8.23457e-05
40 *4048:B *4703:A 5.74906e-05
41 *4048:B *685:73 6.24367e-05
42 *4294:A2 *685:21 1.65105e-05
43 *4298:A1 *685:21 0.000137578
44 *4298:A1 *685:31 3.09233e-05
45 *4305:A1 *4506:RESET_B 0.000138544
46 *4467:D *4702:A 0.000181824
47 *4468:CLK *4702:A 1.08758e-05
48 *4621:A *4505:RESET_B 0.000109995
49 *4621:A *4703:A 0.000225175
50 *208:24 *685:21 6.87996e-05
51 *211:10 *4503:RESET_B 0.00031848
52 *211:10 *685:31 0.000244453
53 *213:12 *4703:A 0
*RES
1 *4704:X *685:4 1.6 
2 *685:4 *685:8 4.52 
3 *685:8 *4501:RESET_B 5.72 
4 *685:8 *685:21 6.48 
5 *685:21 *4502:RESET_B 3.4325 
6 *685:21 *685:31 3.165 
7 *685:31 *4504:RESET_B 2.7575 
8 *685:31 *4503:RESET_B 5.675 
9 *685:4 *685:50 4.935 
10 *685:50 *4702:A 15.77 
11 *685:50 *685:73 7.37 
12 *685:73 *4703:A 6.255 
13 *685:73 *4505:RESET_B 6.5825 
14 *4505:RESET_B *4506:RESET_B 5.635 
*END

*D_NET *686 0.00662079
*CONN
*I *4469:RESET_B I *D sky130_fd_sc_hd__dfrtp_2
*I *4470:RESET_B I *D sky130_fd_sc_hd__dfrtp_2
*I *4420:RESET_B I *D sky130_fd_sc_hd__dfrtp_2
*I *4460:RESET_B I *D sky130_fd_sc_hd__dfrtp_2
*I *4416:RESET_B I *D sky130_fd_sc_hd__dfrtp_2
*I *4459:RESET_B I *D sky130_fd_sc_hd__dfrtp_2
*I *4458:RESET_B I *D sky130_fd_sc_hd__dfrtp_2
*I *4457:RESET_B I *D sky130_fd_sc_hd__dfrtp_2
*I *4705:X O *D sky130_fd_sc_hd__clkdlybuf4s25_1
*CAP
1 *4469:RESET_B 6.40178e-05
2 *4470:RESET_B 0.000586567
3 *4420:RESET_B 0.000574449
4 *4460:RESET_B 0.000108616
5 *4416:RESET_B 0.000599077
6 *4459:RESET_B 0.00130743
7 *4458:RESET_B 0
8 *4457:RESET_B 0.000795677
9 *4705:X 0.000189404
10 *686:10 0.000333442
11 *4457:RESET_B *4064:B1 0.000226167
12 *4469:RESET_B *4692:A 0
13 *686:10 *4064:B1 9.37846e-05
14 *3893:B1 *4416:RESET_B 0.000189613
15 *3896:B *686:10 0.000341363
16 *4060:A *4459:RESET_B 3.04804e-05
17 *4060:C *4459:RESET_B 0.000144309
18 *4063:A1 *4457:RESET_B 4.04164e-06
19 *4063:B1 *686:10 0.000205795
20 *4349:A3 *4420:RESET_B 0.000235585
21 *4420:CLK *4470:RESET_B 2.11084e-05
22 *4459:D *4459:RESET_B 7.47284e-06
23 *4622:A *4416:RESET_B 4.2534e-05
24 *131:26 *686:10 4.66108e-05
25 *259:8 *4469:RESET_B 4.91189e-05
26 *259:44 *686:10 5.29053e-05
27 *261:12 *4469:RESET_B 0
28 *261:69 *4460:RESET_B 0.000129234
29 *469:10 *4416:RESET_B 0
30 *469:36 *4459:RESET_B 8.52972e-05
31 *469:42 *4459:RESET_B 2.21074e-05
32 *671:16 *4416:RESET_B 0
33 *673:23 *4416:RESET_B 0
34 *673:23 *4420:RESET_B 0.000134588
35 *673:32 *4416:RESET_B 0
36 *673:45 *4416:RESET_B 0
*RES
1 *4705:X *686:10 9.255 
2 *686:10 *4457:RESET_B 5.465 
3 *686:10 *4458:RESET_B 2 
4 *4457:RESET_B *4459:RESET_B 8.52 
5 *4459:RESET_B *4416:RESET_B 13.54 
6 *4459:RESET_B *4460:RESET_B 6.655 
7 *4416:RESET_B *4420:RESET_B 6.655 
8 *4420:RESET_B *4470:RESET_B 6.45 
9 *4470:RESET_B *4469:RESET_B 5.38 
*END

*D_NET *687 0.00335488
*CONN
*I *4461:RESET_B I *D sky130_fd_sc_hd__dfrtp_2
*I *4474:RESET_B I *D sky130_fd_sc_hd__dfrtp_2
*I *4475:RESET_B I *D sky130_fd_sc_hd__dfrtp_2
*I *4462:RESET_B I *D sky130_fd_sc_hd__dfrtp_2
*I *4706:X O *D sky130_fd_sc_hd__clkdlybuf4s25_1
*CAP
1 *4461:RESET_B 0
2 *4474:RESET_B 1.85291e-05
3 *4475:RESET_B 0.000155993
4 *4462:RESET_B 3.80909e-05
5 *4706:X 0.000111257
6 *687:26 0.000771672
7 *687:24 0.00100046
8 *687:10 0.000552653
9 *687:26 *742:18 0
10 *3894:B *4475:RESET_B 0
11 *3895:D *4474:RESET_B 4.24575e-05
12 *4058:A1 *687:24 8.33066e-06
13 *4058:B1 *687:10 9.23375e-05
14 *4362:A *687:26 0
15 *4462:CLK *687:24 1.24065e-05
16 *4462:D *687:10 6.90254e-05
17 *4462:D *687:24 0.000121043
18 *4761:A *4475:RESET_B 9.428e-05
19 *267:8 *4475:RESET_B 0.000152104
20 *267:8 *687:26 3.18137e-05
21 *470:18 *4462:RESET_B 1.37141e-05
22 *470:18 *687:24 3.06569e-06
23 *470:64 *687:10 6.56563e-05
24 *668:10 *687:26 0
25 *668:23 *687:26 0
*RES
1 *4706:X *687:10 8.51 
2 *687:10 *4462:RESET_B 0.7575 
3 *687:10 *687:24 7.43 
4 *687:24 *687:26 9.795 
5 *687:26 *4475:RESET_B 6.185 
6 *687:26 *4474:RESET_B 2.3975 
7 *687:24 *4461:RESET_B 2 
*END

*D_NET *688 0.00685855
*CONN
*I *4579:RESET_B I *D sky130_fd_sc_hd__dfrtp_2
*I *4581:RESET_B I *D sky130_fd_sc_hd__dfrtp_2
*I *4583:RESET_B I *D sky130_fd_sc_hd__dfrtp_2
*I *4580:RESET_B I *D sky130_fd_sc_hd__dfrtp_2
*I *4585:RESET_B I *D sky130_fd_sc_hd__dfrtp_2
*I *4588:RESET_B I *D sky130_fd_sc_hd__dfrtp_2
*I *4587:RESET_B I *D sky130_fd_sc_hd__dfrtp_2
*I *4584:RESET_B I *D sky130_fd_sc_hd__dfrtp_2
*I *4707:X O *D sky130_fd_sc_hd__clkdlybuf4s25_1
*CAP
1 *4579:RESET_B 0.000247745
2 *4581:RESET_B 0
3 *4583:RESET_B 0.000112995
4 *4580:RESET_B 0.00029235
5 *4585:RESET_B 0.000710801
6 *4588:RESET_B 5.17664e-05
7 *4587:RESET_B 0.000604322
8 *4584:RESET_B 0.000876638
9 *4707:X 0
10 *688:79 0.000314013
11 *688:36 0.0011523
12 *688:6 0.000426503
13 *4579:RESET_B *4579:D 9.50342e-06
14 *4579:RESET_B *4816:A 0
15 *4583:RESET_B *4584:D 0
16 *4585:RESET_B *4316:A 5.63701e-05
17 *4587:RESET_B *4584:D 0.000118651
18 *4587:RESET_B *4587:D 0.000124895
19 *688:36 *3959:A 0
20 *688:36 *3963:C 0
21 *3959:B *688:36 0
22 *4315:A1 *4580:RESET_B 0
23 *4315:A2 *4579:RESET_B 0
24 *4315:A2 *688:79 0
25 *4316:B *4585:RESET_B 5.05437e-05
26 *4325:A1 *4583:RESET_B 0
27 *4325:A1 *4584:RESET_B 0.000454597
28 *4325:A1 *688:36 0.000113732
29 *4325:B1 *4580:RESET_B 0
30 *4325:B1 *4583:RESET_B 0.00025631
31 *4325:B1 *688:36 0
32 *4584:CLK *4587:RESET_B 6.96579e-05
33 *4585:CLK *4585:RESET_B 5.0751e-05
34 *4669:A *4579:RESET_B 0.000133522
35 *4669:A *688:79 6.47516e-05
36 *177:10 *4580:RESET_B 0
37 *177:10 *688:36 0
38 *181:10 *688:36 7.06865e-05
39 *184:18 *4588:RESET_B 0.000231564
40 *470:64 *4587:RESET_B 1.36454e-05
41 *472:50 *4580:RESET_B 1.83756e-05
42 *648:30 *4588:RESET_B 0.000231564
*RES
1 *4707:X *688:6 3.6 
2 *688:6 *4584:RESET_B 7.205 
3 *4584:RESET_B *4587:RESET_B 7.83 
4 *4587:RESET_B *4588:RESET_B 6.655 
5 *688:6 *688:36 4.185 
6 *688:36 *4585:RESET_B 10.4525 
7 *688:36 *4580:RESET_B 5.4125 
8 *4584:RESET_B *4583:RESET_B 6.91 
9 *4580:RESET_B *688:79 3.38 
10 *688:79 *4581:RESET_B 2 
11 *688:79 *4579:RESET_B 6.3425 
*END

*D_NET *689 0.00130604
*CONN
*I *4856:A I *D sky130_fd_sc_hd__clkdlybuf4s25_1
*I *4601:X O *D sky130_fd_sc_hd__buf_2
*CAP
1 *4856:A 0.000315428
2 *4601:X 0.000315428
3 *4856:A *4378:A1 4.13171e-05
4 *4856:A *4434:RESET_B 0
5 *4376:A2 *4856:A 0.000111909
6 *4377:B *4856:A 0.000229755
7 *4378:A2 *4856:A 2.25075e-05
8 *4433:D *4856:A 4.66108e-05
9 *4434:CLK *4856:A 0.000179015
10 *4434:D *4856:A 4.40725e-05
*RES
1 *4601:X *4856:A 14.865 
*END

*D_NET *690 0.00534411
*CONN
*I *4576:RESET_B I *D sky130_fd_sc_hd__dfrtp_2
*I *4578:RESET_B I *D sky130_fd_sc_hd__dfrtp_2
*I *4577:RESET_B I *D sky130_fd_sc_hd__dfrtp_2
*I *4465:RESET_B I *D sky130_fd_sc_hd__dfrtp_2
*I *4707:A I *D sky130_fd_sc_hd__clkdlybuf4s25_1
*I *4575:RESET_B I *D sky130_fd_sc_hd__dfrtp_2
*I *4466:RESET_B I *D sky130_fd_sc_hd__dfrtp_2
*I *4582:RESET_B I *D sky130_fd_sc_hd__dfrtp_2
*I *4708:X O *D sky130_fd_sc_hd__clkdlybuf4s25_1
*CAP
1 *4576:RESET_B 6.95794e-05
2 *4578:RESET_B 0
3 *4577:RESET_B 0
4 *4465:RESET_B 5.61903e-05
5 *4707:A 0.000694093
6 *4575:RESET_B 0.000379883
7 *4466:RESET_B 0.000358362
8 *4582:RESET_B 0.000145727
9 *4708:X 0.000145727
10 *690:82 0.000137589
11 *690:73 0.000415477
12 *690:29 0.000840075
13 *690:17 0.000415737
14 *4465:RESET_B *4051:B1 0.000120186
15 *4466:RESET_B *4051:B1 0
16 *4466:RESET_B *691:19 0.000158101
17 *4576:RESET_B *973:10 6.5265e-05
18 *4576:RESET_B *976:23 0
19 *4582:RESET_B *691:19 0.000123225
20 *4582:RESET_B *981:10 3.97185e-05
21 *4707:A *4582:D 0.000103008
22 *4707:A *962:8 9.24049e-05
23 *690:29 *4575:D 0
24 *690:73 *4308:B 0.000114753
25 *690:73 *4575:D 0.00012455
26 *690:73 *962:8 0
27 *690:73 *973:10 2.68721e-05
28 *690:73 *973:12 6.10941e-05
29 *690:82 *973:10 6.47516e-05
30 *4307:B *690:73 0
31 *4311:A1 *690:73 0
32 *4321:A1 *4707:A 4.15966e-05
33 *4321:A2 *4707:A 4.66108e-05
34 *4321:B1 *4707:A 7.35729e-05
35 *4322:A2 *4707:A 4.82863e-05
36 *4624:A *4707:A 0
37 *4624:A *690:29 0
38 *176:10 *4576:RESET_B 0.000235585
39 *176:10 *690:73 9.24049e-05
40 *176:10 *690:82 5.36866e-05
41 *463:8 *4466:RESET_B 0
42 *463:8 *690:29 0
*RES
1 *4708:X *4582:RESET_B 4.0675 
2 *4708:X *690:17 3.6 
3 *690:17 *4466:RESET_B 7.9475 
4 *690:17 *690:29 1.89 
5 *690:29 *4575:RESET_B 2.3975 
6 *690:29 *4707:A 15.81 
7 *4466:RESET_B *4465:RESET_B 5.38 
8 *4575:RESET_B *690:73 10.265 
9 *690:73 *4577:RESET_B 2 
10 *690:73 *690:82 1.83 
11 *690:82 *4578:RESET_B 2 
12 *690:82 *4576:RESET_B 4.655 
*END

*D_NET *691 0.00800554
*CONN
*I *4586:RESET_B I *D sky130_fd_sc_hd__dfrtp_2
*I *4706:A I *D sky130_fd_sc_hd__clkdlybuf4s25_1
*I *4705:A I *D sky130_fd_sc_hd__clkdlybuf4s25_1
*I *4708:A I *D sky130_fd_sc_hd__clkdlybuf4s25_1
*I *4709:X O *D sky130_fd_sc_hd__clkdlybuf4s25_1
*CAP
1 *4586:RESET_B 0.000838106
2 *4706:A 0.000164339
3 *4705:A 0
4 *4708:A 0
5 *4709:X 2.9853e-05
6 *691:32 0.00188582
7 *691:19 0.00150989
8 *691:6 0.000656371
9 *4586:RESET_B *3967:B 0
10 *4586:RESET_B *3968:A 0
11 *4586:RESET_B *4327:B1 0.00038625
12 *4586:RESET_B *966:10 0
13 *4706:A *4730:A 8.40213e-05
14 *691:19 *4050:B1 6.28843e-05
15 *3902:A *691:19 6.52906e-05
16 *3902:A *691:32 8.57024e-05
17 *3902:C_N *691:32 4.82919e-05
18 *3968:B *4586:RESET_B 9.42224e-05
19 *3968:B *4706:A 1.52184e-05
20 *3968:B *691:32 8.49205e-05
21 *4056:A *691:32 0.000138799
22 *4058:A1 *4706:A 4.9968e-05
23 *4059:B1 *691:32 0.000109101
24 *4326:B *4586:RESET_B 0
25 *4328:B *4586:RESET_B 0.000210431
26 *4466:RESET_B *691:19 0.000158101
27 *4582:RESET_B *691:19 0.000123225
28 *131:26 *691:32 0.000834297
29 *181:40 *4586:RESET_B 0
30 *182:8 *4586:RESET_B 0.00010506
31 *184:18 *4586:RESET_B 0.000265376
32 *463:8 *691:19 0
33 *470:64 *4706:A 0
34 *648:30 *4586:RESET_B 0
35 *648:41 *4586:RESET_B 0
*RES
1 *4709:X *691:6 2.05 
2 *691:6 *4708:A 1.6 
3 *691:6 *691:19 15.82 
4 *691:19 *4705:A 1.6 
5 *691:19 *691:32 20.51 
6 *691:32 *4706:A 6.54 
7 *691:32 *4586:RESET_B 20.72 
*END

*D_NET *692 0.00594388
*CONN
*I *4709:A I *D sky130_fd_sc_hd__clkdlybuf4s25_1
*I *4704:A I *D sky130_fd_sc_hd__clkdlybuf4s25_1
*I *4507:RESET_B I *D sky130_fd_sc_hd__dfrtp_2
*I *4508:RESET_B I *D sky130_fd_sc_hd__dfrtp_2
*I *4710:X O *D sky130_fd_sc_hd__clkdlybuf4s25_1
*CAP
1 *4709:A 0.000353051
2 *4704:A 0.000104093
3 *4507:RESET_B 0.000353051
4 *4508:RESET_B 0.000315431
5 *4710:X 0.000268192
6 *692:18 0.00153881
7 *692:10 0.00159566
8 *4508:RESET_B *3997:A 0
9 *4508:RESET_B *930:8 0
10 *4704:A *4501:D 0
11 *4704:A *4731:A 0
12 *4704:A *714:10 0
13 *692:10 *4501:D 0
14 *692:10 *714:10 0
15 *4048:B *692:18 2.10025e-05
16 *4302:A *692:18 0.000162325
17 *4304:B *692:18 0
18 *4305:A0 *4508:RESET_B 6.23206e-05
19 *4306:B *4508:RESET_B 0
20 *4620:A *692:18 7.47457e-05
21 *4668:A *4508:RESET_B 0
22 *4668:A *4709:A 0.000100528
23 *4668:A *692:18 0
24 *213:12 *4508:RESET_B 0.000162318
25 *213:12 *692:18 0.000348838
26 *461:20 *692:18 8.87196e-05
27 *467:12 *692:10 0
28 *468:37 *4709:A 0.000192125
29 *642:18 *4709:A 0.000202672
*RES
1 *4710:X *692:10 7.23 
2 *692:10 *692:18 22.78 
3 *692:18 *4508:RESET_B 8.165 
4 *692:18 *4507:RESET_B 2 
5 *692:10 *4704:A 5.235 
6 *4507:RESET_B *4709:A 13.73 
*END

*D_NET *693 0.00657728
*CONN
*I *4546:RESET_B I *D sky130_fd_sc_hd__dfrtp_2
*I *4545:RESET_B I *D sky130_fd_sc_hd__dfrtp_2
*I *4544:RESET_B I *D sky130_fd_sc_hd__dfrtp_2
*I *4533:RESET_B I *D sky130_fd_sc_hd__dfrtp_2
*I *4534:RESET_B I *D sky130_fd_sc_hd__dfrtp_2
*I *4543:RESET_B I *D sky130_fd_sc_hd__dfrtp_2
*I *4542:RESET_B I *D sky130_fd_sc_hd__dfrtp_2
*I *4541:RESET_B I *D sky130_fd_sc_hd__dfrtp_2
*I *4711:X O *D sky130_fd_sc_hd__clkdlybuf4s25_1
*CAP
1 *4546:RESET_B 0.000182616
2 *4545:RESET_B 0.000218314
3 *4544:RESET_B 0.00068244
4 *4533:RESET_B 3.07775e-05
5 *4534:RESET_B 3.53178e-05
6 *4543:RESET_B 0
7 *4542:RESET_B 0
8 *4541:RESET_B 0.000790244
9 *4711:X 0.000106994
10 *693:71 0.000400929
11 *693:18 0.000310764
12 *693:16 0.000619177
13 *693:10 0.000491322
14 *693:8 0.000177558
15 *4533:RESET_B *841:10 1.0063e-05
16 *4541:RESET_B *828:6 1.78201e-05
17 *4544:RESET_B *4021:A 7.14166e-05
18 *4544:RESET_B *4544:D 0.000113355
19 *4544:RESET_B *828:6 3.25525e-05
20 *4545:RESET_B *832:10 4.89362e-05
21 *693:8 *842:8 0.000182195
22 *693:10 *842:8 5.20968e-05
23 *693:16 *4182:A2 5.98004e-06
24 *693:16 *4182:B1 9.54399e-05
25 *693:18 *4021:C 0
26 *693:18 *4182:A2 8.61724e-05
27 *693:18 *829:22 2.03643e-05
28 *4159:A *693:8 0.000326339
29 *4159:A *693:10 0.000110683
30 *4159:A *693:16 0.000235585
31 *4179:A2 *4541:RESET_B 9.84293e-05
32 *4179:A2 *693:18 6.04973e-05
33 *4181:A2 *4541:RESET_B 9.84293e-05
34 *4181:A2 *693:18 5.51857e-05
35 *4184:A2 *693:16 0.000141599
36 *4186:B *4545:RESET_B 0.000136685
37 *4186:B *4546:RESET_B 0.000136177
38 *4187:A1 *4544:RESET_B 0.00011138
39 *236:14 *4546:RESET_B 8.62352e-05
40 *542:35 *693:16 0
41 *564:38 *4544:RESET_B 0.000197215
42 *652:52 *693:16 0
43 *652:56 *693:16 0
44 *655:46 *693:10 0
45 *655:46 *693:16 0
46 *655:46 *693:18 0
*RES
1 *4711:X *693:8 7.53 
2 *693:8 *693:10 1.38 
3 *693:10 *693:16 8.82 
4 *693:16 *693:18 4.44 
5 *693:18 *4541:RESET_B 4.9025 
6 *693:18 *4542:RESET_B 2 
7 *693:16 *4543:RESET_B 2 
8 *693:10 *4534:RESET_B 2.3975 
9 *693:8 *4533:RESET_B 2.3975 
10 *4541:RESET_B *4544:RESET_B 11.04 
11 *4544:RESET_B *693:71 2 
12 *693:71 *4545:RESET_B 5.7575 
13 *693:71 *4546:RESET_B 5.93 
*END

*D_NET *694 0.00873918
*CONN
*I *4424:RESET_B I *D sky130_fd_sc_hd__dfrtp_2
*I *4451:SET_B I *D sky130_fd_sc_hd__dfstp_2
*I *4552:RESET_B I *D sky130_fd_sc_hd__dfrtp_2
*I *4532:RESET_B I *D sky130_fd_sc_hd__dfrtp_2
*I *4414:RESET_B I *D sky130_fd_sc_hd__dfrtp_2
*I *4406:RESET_B I *D sky130_fd_sc_hd__dfrtp_2
*I *4401:RESET_B I *D sky130_fd_sc_hd__dfrtp_2
*I *4531:RESET_B I *D sky130_fd_sc_hd__dfrtp_2
*I *4712:X O *D sky130_fd_sc_hd__clkdlybuf4s25_1
*CAP
1 *4424:RESET_B 0.000324219
2 *4451:SET_B 0.000981188
3 *4552:RESET_B 0.000174018
4 *4532:RESET_B 0.000128642
5 *4414:RESET_B 0.000656969
6 *4406:RESET_B 5.40799e-05
7 *4401:RESET_B 0
8 *4531:RESET_B 0.000604556
9 *4712:X 0.000470769
10 *694:53 0.000548065
11 *694:14 0.000526444
12 *694:12 0.000311736
13 *694:10 0.000561131
14 *4424:RESET_B *4452:RESET_B 0.000305651
15 *4424:RESET_B *4713:A 0.000306474
16 *4424:RESET_B *695:14 3.0297e-05
17 *4451:SET_B *745:6 8.23457e-05
18 *4451:SET_B *745:27 7.44125e-05
19 *4532:RESET_B *4531:D 5.02217e-05
20 *4532:RESET_B *4552:D 5.02217e-05
21 *4552:RESET_B *4531:D 1.26626e-05
22 *4552:RESET_B *4552:D 7.96759e-05
23 *694:10 *4712:A 0.000425121
24 *3863:A2 *4531:RESET_B 0
25 *3928:A_N *4451:SET_B 4.82919e-05
26 *3934:B1 *4531:RESET_B 0
27 *3934:B1 *694:10 0
28 *3934:B1 *694:14 0
29 *3934:B2 *694:10 0
30 *4094:A *694:10 2.14129e-05
31 *4094:A *694:12 0.000203002
32 *4094:A *694:14 0.00018305
33 *4401:D *4531:RESET_B 0
34 *4453:D *4424:RESET_B 7.40582e-05
35 *4655:A *4531:RESET_B 0
36 *4655:A *4552:RESET_B 0
37 *4660:A *4531:RESET_B 9.99492e-05
38 *4660:A *4552:RESET_B 0
39 *107:111 *4531:RESET_B 0
40 *159:14 *4424:RESET_B 2.3937e-05
41 *159:14 *4451:SET_B 0.000267416
42 *449:13 *694:10 3.68596e-05
43 *449:222 *694:10 0
44 *449:222 *694:12 0
45 *449:222 *694:14 0
46 *475:8 *4552:RESET_B 8.76102e-05
47 *475:12 *4552:RESET_B 0.000118513
48 *476:70 *4424:RESET_B 4.23378e-05
49 *519:14 *4531:RESET_B 0.000342254
50 *519:14 *694:14 0.000339191
51 *553:10 *4531:RESET_B 9.23971e-05
*RES
1 *4712:X *694:10 11.985 
2 *694:10 *694:12 2.4 
3 *694:12 *694:14 4.695 
4 *694:14 *4531:RESET_B 10.265 
5 *694:14 *4401:RESET_B 2 
6 *694:12 *4406:RESET_B 2.7575 
7 *694:10 *4414:RESET_B 2 
8 *4531:RESET_B *694:53 4.9325 
9 *694:53 *4532:RESET_B 4.2125 
10 *694:53 *4552:RESET_B 5.9075 
11 *4414:RESET_B *4451:SET_B 9.825 
12 *4451:SET_B *4424:RESET_B 11.005 
*END

*D_NET *695 0.0056645
*CONN
*I *4453:RESET_B I *D sky130_fd_sc_hd__dfrtp_2
*I *4551:RESET_B I *D sky130_fd_sc_hd__dfrtp_2
*I *4550:RESET_B I *D sky130_fd_sc_hd__dfrtp_2
*I *4452:RESET_B I *D sky130_fd_sc_hd__dfrtp_2
*I *4713:X O *D sky130_fd_sc_hd__clkdlybuf4s25_1
*CAP
1 *4453:RESET_B 0.00020262
2 *4551:RESET_B 0.000104266
3 *4550:RESET_B 8.70786e-05
4 *4452:RESET_B 0.000113351
5 *4713:X 0.000249774
6 *695:26 0.000560901
7 *695:14 0.000787758
8 *695:8 0.000757244
9 *4452:RESET_B *4713:A 4.20835e-05
10 *4452:RESET_B *4760:A 0.000269292
11 *4452:RESET_B *743:10 8.33297e-05
12 *4453:RESET_B *4719:A 0.000161997
13 *4453:RESET_B *744:34 8.59365e-05
14 *4453:RESET_B *746:8 0.000116497
15 *4551:RESET_B *839:8 2.75145e-05
16 *695:8 *4713:A 4.82919e-05
17 *695:14 *4713:A 1.38178e-05
18 *695:14 *4760:A 4.66108e-05
19 *695:14 *744:34 0.000319693
20 *695:26 *3927:B 0.000330147
21 *695:26 *4760:A 0.000178432
22 *695:26 *4793:A 7.98007e-06
23 *4204:A2 *4550:RESET_B 9.07342e-05
24 *4204:A2 *695:26 5.3023e-05
25 *4204:B1 *695:26 0.000203762
26 *4205:C1 *4550:RESET_B 8.41785e-05
27 *4205:C1 *695:26 4.22809e-05
28 *4358:A1 *695:14 2.42236e-05
29 *4358:B2 *695:26 7.39277e-05
30 *4424:RESET_B *4452:RESET_B 0.000305651
31 *4424:RESET_B *695:14 3.0297e-05
32 *4629:A *695:26 0
33 *4743:A *695:26 0.000139238
34 *241:40 *4550:RESET_B 4.18603e-06
35 *480:31 *695:8 1.83847e-05
36 *480:31 *695:14 0
*RES
1 *4713:X *695:8 6.465 
2 *695:8 *695:14 7.865 
3 *695:14 *4452:RESET_B 4.2075 
4 *695:14 *695:26 12.05 
5 *695:26 *4550:RESET_B 4.655 
6 *695:26 *4551:RESET_B 3.4325 
7 *695:8 *4453:RESET_B 5.9375 
*END

*D_NET *696 0.012393
*CONN
*I *4548:RESET_B I *D sky130_fd_sc_hd__dfrtp_2
*I *4549:RESET_B I *D sky130_fd_sc_hd__dfrtp_2
*I *4712:A I *D sky130_fd_sc_hd__clkdlybuf4s25_1
*I *4713:A I *D sky130_fd_sc_hd__clkdlybuf4s25_1
*I *4547:RESET_B I *D sky130_fd_sc_hd__dfrtp_2
*I *4711:A I *D sky130_fd_sc_hd__clkdlybuf4s25_1
*I *4714:X O *D sky130_fd_sc_hd__clkdlybuf4s25_1
*CAP
1 *4548:RESET_B 0
2 *4549:RESET_B 0.000154898
3 *4712:A 0.000230925
4 *4713:A 0.00126236
5 *4547:RESET_B 0.000667229
6 *4711:A 0
7 *4714:X 0.000687449
8 *696:81 0.000327741
9 *696:16 0.00136501
10 *696:10 0.00258951
11 *4547:RESET_B *834:6 8.90438e-05
12 *4549:RESET_B *4025:A 0
13 *4549:RESET_B *836:6 7.00889e-06
14 *4713:A *3927:B 5.04907e-05
15 *4713:A *4760:A 9.37731e-05
16 *4713:A *4790:A 0.000225285
17 *4713:A *743:10 4.25184e-05
18 *4713:A *746:10 1.22762e-05
19 *696:10 *3945:A1 0.000200615
20 *696:10 *4357:A 0
21 *696:10 *4714:A 1.91597e-05
22 *696:10 *743:10 0
23 *696:16 *4015:D 0.000127408
24 *696:16 *4531:D 0
25 *696:16 *4552:D 0.000319167
26 *696:16 *838:8 4.40899e-05
27 *696:16 *838:12 6.0236e-05
28 *696:81 *4025:A 0.000106383
29 *696:81 *4547:D 0
30 *696:81 *834:23 2.25075e-05
31 *3923:A2 *696:10 0.000355809
32 *3923:A2 *696:16 0.000115582
33 *3925:B1 *4712:A 0.000362958
34 *3928:A_N *696:10 9.30717e-05
35 *3929:C1 *4713:A 6.21553e-05
36 *3945:A3 *696:10 0.00021496
37 *4195:B *696:81 0.000260213
38 *4201:B1 *696:16 0
39 *4202:B *4549:RESET_B 5.88634e-05
40 *4202:B *696:81 3.06102e-05
41 *4206:A1 *696:16 0.000267491
42 *4358:A2 *4713:A 0.000202095
43 *4414:CLK *696:16 9.96207e-05
44 *4424:RESET_B *4713:A 0.000306474
45 *4452:CLK *4713:A 4.43682e-05
46 *4452:D *4713:A 4.99619e-05
47 *4452:RESET_B *4713:A 4.20835e-05
48 *154:16 *696:10 0
49 *154:16 *696:16 0
50 *449:13 *4712:A 0
51 *449:222 *4712:A 5.21545e-05
52 *449:300 *696:16 0
53 *475:8 *696:16 0.00022252
54 *475:65 *696:16 9.24049e-05
55 *476:70 *4713:A 0.000153816
56 *654:10 *696:16 0
57 *655:32 *4547:RESET_B 6.27347e-05
58 *655:32 *696:16 5.0751e-05
59 *694:10 *4712:A 0.000425121
60 *695:8 *4713:A 4.82919e-05
61 *695:14 *4713:A 1.38178e-05
*RES
1 *4714:X *696:10 12.03 
2 *696:10 *696:16 23.135 
3 *696:16 *4711:A 1.6 
4 *696:16 *4547:RESET_B 7.9875 
5 *696:10 *4713:A 26.755 
6 *4714:X *4712:A 14.055 
7 *4547:RESET_B *696:81 6.635 
8 *696:81 *4549:RESET_B 4.4675 
9 *696:81 *4548:RESET_B 2 
*END

*D_NET *697 0.00519028
*CONN
*I *4558:RESET_B I *D sky130_fd_sc_hd__dfrtp_2
*I *4557:RESET_B I *D sky130_fd_sc_hd__dfrtp_2
*I *4573:RESET_B I *D sky130_fd_sc_hd__dfrtp_2
*I *4574:RESET_B I *D sky130_fd_sc_hd__dfrtp_2
*I *4553:RESET_B I *D sky130_fd_sc_hd__dfrtp_2
*I *4554:RESET_B I *D sky130_fd_sc_hd__dfrtp_2
*I *4556:RESET_B I *D sky130_fd_sc_hd__dfrtp_2
*I *4555:RESET_B I *D sky130_fd_sc_hd__dfrtp_2
*I *4715:X O *D sky130_fd_sc_hd__clkdlybuf4s25_1
*CAP
1 *4558:RESET_B 0.000251458
2 *4557:RESET_B 0.000613917
3 *4573:RESET_B 0
4 *4574:RESET_B 0
5 *4553:RESET_B 0
6 *4554:RESET_B 0
7 *4556:RESET_B 0.000362459
8 *4555:RESET_B 0.000103595
9 *4715:X 0.000114386
10 *697:22 0.000491789
11 *697:20 0.000640936
12 *697:18 0.000553196
13 *697:12 0.000502107
14 *697:10 0.000316038
15 *4555:RESET_B *796:12 3.50571e-05
16 *4557:RESET_B *4597:A 0.000272899
17 *4557:RESET_B *797:10 3.5456e-05
18 *697:20 *711:23 0
19 *697:20 *782:10 0
20 *697:20 *782:12 0
21 *697:22 *4031:B 2.29568e-05
22 *697:22 *4101:A3 8.79638e-05
23 *697:22 *4101:B1 6.97526e-05
24 *697:22 *4554:D 0
25 *697:22 *711:23 0
26 *697:22 *782:12 0
27 *697:22 *782:14 0
28 *697:22 *793:18 7.55782e-05
29 *697:22 *796:12 3.65143e-05
30 *697:22 *797:10 7.01276e-05
31 *4042:D *697:10 4.82919e-05
32 *4147:B1 *697:10 7.23602e-05
33 *4557:CLK *4557:RESET_B 9.51579e-05
34 *4631:A *697:12 0.000133528
35 *4631:A *697:18 7.63204e-05
36 *451:8 *697:10 4.82117e-05
37 *451:8 *697:12 6.02202e-05
38 *478:10 *697:18 0
39 *478:12 *697:18 0
40 *478:12 *697:20 0
41 *531:22 *697:12 0
42 *531:22 *697:18 0
43 *531:22 *697:20 0
44 *531:32 *697:10 0
45 *531:32 *697:12 0
*RES
1 *4715:X *697:10 5.94 
2 *697:10 *697:12 4.185 
3 *697:12 *697:18 5.085 
4 *697:18 *697:20 4.185 
5 *697:20 *697:22 8.265 
6 *697:22 *4555:RESET_B 3.7775 
7 *697:22 *4556:RESET_B 2 
8 *697:20 *4554:RESET_B 2 
9 *697:18 *4553:RESET_B 2 
10 *697:12 *4574:RESET_B 2 
11 *697:10 *4573:RESET_B 2 
12 *4556:RESET_B *4557:RESET_B 6.9 
13 *4557:RESET_B *4558:RESET_B 7.93 
*END

*D_NET *698 0.00360086
*CONN
*I *4561:RESET_B I *D sky130_fd_sc_hd__dfrtp_2
*I *4560:RESET_B I *D sky130_fd_sc_hd__dfrtp_2
*I *4559:RESET_B I *D sky130_fd_sc_hd__dfrtp_2
*I *4562:RESET_B I *D sky130_fd_sc_hd__dfrtp_2
*I *4716:X O *D sky130_fd_sc_hd__clkdlybuf4s25_1
*CAP
1 *4561:RESET_B 9.07837e-05
2 *4560:RESET_B 6.09159e-05
3 *4559:RESET_B 0.000355353
4 *4562:RESET_B 0.000401133
5 *4716:X 0.000296093
6 *698:25 0.000484764
7 *698:23 0.00026432
8 *4559:RESET_B *801:19 1.1561e-05
9 *4560:RESET_B *4034:A 1.91597e-05
10 *4561:RESET_B *4035:B 2.05056e-05
11 *4561:RESET_B *802:10 6.83659e-05
12 *698:23 *4035:C 0
13 *698:23 *4117:A1 0.00011219
14 *698:25 *4117:A1 2.59981e-05
15 *698:25 *801:19 5.65627e-05
16 *4110:B *4559:RESET_B 0.00013053
17 *4117:A3 *4561:RESET_B 0.000120655
18 *247:12 *4559:RESET_B 0
19 *247:16 *4559:RESET_B 0.000186099
20 *247:31 *4559:RESET_B 0.000206817
21 *247:31 *4560:RESET_B 4.66108e-05
22 *247:37 *4559:RESET_B 2.92496e-05
23 *247:37 *698:25 0.00013521
24 *248:8 *4560:RESET_B 0.00019311
25 *249:8 *4562:RESET_B 0.000141606
26 *249:17 *4562:RESET_B 0.000143266
*RES
1 *4716:X *4562:RESET_B 10.8875 
2 *4562:RESET_B *698:23 4.4 
3 *698:23 *698:25 1.89 
4 *698:25 *4559:RESET_B 10.265 
5 *698:25 *4560:RESET_B 3.7775 
6 *698:23 *4561:RESET_B 4.1375 
*END

*D_NET *699 0.0102756
*CONN
*I *4479:RESET_B I *D sky130_fd_sc_hd__dfrtp_2
*I *4477:RESET_B I *D sky130_fd_sc_hd__dfrtp_2
*I *4567:RESET_B I *D sky130_fd_sc_hd__dfrtp_2
*I *4570:RESET_B I *D sky130_fd_sc_hd__dfrtp_2
*I *4563:RESET_B I *D sky130_fd_sc_hd__dfrtp_2
*I *4571:RESET_B I *D sky130_fd_sc_hd__dfrtp_2
*I *4572:RESET_B I *D sky130_fd_sc_hd__dfrtp_2
*I *4569:RESET_B I *D sky130_fd_sc_hd__dfrtp_2
*I *4717:X O *D sky130_fd_sc_hd__clkdlybuf4s25_1
*CAP
1 *4479:RESET_B 0.00020125
2 *4477:RESET_B 0.00111988
3 *4567:RESET_B 0.0010226
4 *4570:RESET_B 0.000216641
5 *4563:RESET_B 0.000662768
6 *4571:RESET_B 0.000119867
7 *4572:RESET_B 0.000186695
8 *4569:RESET_B 0.000142111
9 *4717:X 0
10 *699:26 0.000355606
11 *699:24 0.000782503
12 *699:22 0.000732907
13 *699:16 0.000646764
14 *699:4 0.000239336
15 *4477:RESET_B *4132:A1 0
16 *4477:RESET_B *4477:D 7.35729e-05
17 *4477:RESET_B *4718:A 0.000434594
18 *4477:RESET_B *787:8 5.34747e-05
19 *4479:RESET_B *998:8 0.000166346
20 *4563:RESET_B *4144:A1 0.000161529
21 *4567:RESET_B *4132:A1 0.0001369
22 *4569:RESET_B *789:10 1.4389e-05
23 *4571:RESET_B *791:14 4.82919e-05
24 *4572:RESET_B *4572:D 0
25 *4572:RESET_B *720:26 0
26 *4572:RESET_B *791:14 8.53113e-06
27 *699:22 *4040:B 0
28 *699:22 *4040:C 0
29 *699:22 *4132:A1 2.96466e-05
30 *699:22 *789:10 0
31 *699:22 *791:14 0.000375847
32 *699:24 *720:43 0
33 *699:24 *791:14 0.000198981
34 *699:26 *720:26 0
35 *699:26 *791:14 8.69088e-05
36 *4076:A *4479:RESET_B 0
37 *4130:A2 *4477:RESET_B 2.4997e-05
38 *4146:A2 *699:22 5.21458e-05
39 *4146:A2 *699:24 6.73665e-05
40 *4477:CLK *4477:RESET_B 0.000123225
41 *4568:CLK *4477:RESET_B 0.000231414
42 *4572:CLK *4563:RESET_B 0.000428764
43 *451:8 *4572:RESET_B 0.000147177
44 *531:32 *4572:RESET_B 0
45 *531:46 *4570:RESET_B 0.000161829
46 *531:46 *4571:RESET_B 0.000120655
47 *659:21 *4567:RESET_B 0.000331355
48 *659:21 *699:16 4.66108e-05
49 *659:21 *699:22 2.92496e-05
50 *659:27 *699:22 0.000292896
51 *660:12 *699:22 0
*RES
1 *4717:X *699:4 1.6 
2 *699:4 *4569:RESET_B 2.1375 
3 *699:4 *699:16 3.14 
4 *699:16 *699:22 10.275 
5 *699:22 *699:24 2.4 
6 *699:24 *699:26 1.125 
7 *699:26 *4572:RESET_B 5.165 
8 *699:26 *4571:RESET_B 4.1375 
9 *699:24 *4563:RESET_B 12.6425 
10 *699:22 *4570:RESET_B 5.8625 
11 *699:16 *4567:RESET_B 5.93 
12 *4567:RESET_B *4477:RESET_B 20.53 
13 *4477:RESET_B *4479:RESET_B 7.7425 
*END

*D_NET *700 0.000834184
*CONN
*I *4857:A I *D sky130_fd_sc_hd__clkdlybuf4s25_1
*I *3871:X O *D sky130_fd_sc_hd__a21o_2
*CAP
1 *4857:A 0.00027711
2 *3871:X 0.00027711
3 *4857:A *3884:A 4.99619e-05
4 *3884:B *4857:A 0.00018171
5 *123:10 *4857:A 4.82919e-05
*RES
1 *3871:X *4857:A 8.495 
*END

*D_NET *701 0.00467724
*CONN
*I *4565:RESET_B I *D sky130_fd_sc_hd__dfrtp_2
*I *4564:RESET_B I *D sky130_fd_sc_hd__dfrtp_2
*I *4568:RESET_B I *D sky130_fd_sc_hd__dfrtp_2
*I *4566:RESET_B I *D sky130_fd_sc_hd__dfrtp_2
*I *4718:X O *D sky130_fd_sc_hd__clkdlybuf4s25_1
*CAP
1 *4565:RESET_B 0.000111656
2 *4564:RESET_B 0.000188862
3 *4568:RESET_B 0.00061825
4 *4566:RESET_B 0.000506314
5 *4718:X 0.000219714
6 *701:37 0.000632167
7 *4564:RESET_B *784:26 4.61744e-05
8 *4568:RESET_B *4039:A 0.000193801
9 *4568:RESET_B *4039:C 0.000118513
10 *4568:RESET_B *4477:D 3.98044e-05
11 *4568:RESET_B *786:8 6.03678e-05
12 *701:37 *4565:D 0
13 *4039:D *701:37 7.63204e-05
14 *4076:A *701:37 0.000210144
15 *4076:B *4568:RESET_B 0
16 *4076:B *701:37 0.000118496
17 *4121:B *4564:RESET_B 0
18 *4126:B *4565:RESET_B 0.000417808
19 *4127:A2 *4564:RESET_B 0
20 *4127:A2 *4565:RESET_B 5.03202e-05
21 *4127:A2 *701:37 0
22 *4129:B *4566:RESET_B 0.000335156
23 *4134:A *4568:RESET_B 7.37109e-05
24 *4134:B *4566:RESET_B 9.14049e-05
25 *4135:A2 *4566:RESET_B 0
26 *4633:A *4566:RESET_B 4.66108e-05
27 *251:10 *4564:RESET_B 0.000191166
28 *251:19 *4564:RESET_B 1.89685e-05
29 *251:19 *701:37 6.00003e-05
30 *251:32 *701:37 0.000114753
31 *253:12 *4568:RESET_B 2.96553e-05
32 *253:12 *701:37 0
33 *481:12 *4564:RESET_B 2.24336e-05
34 *481:12 *701:37 3.39151e-05
35 *481:18 *4565:RESET_B 5.0751e-05
*RES
1 *4718:X *4566:RESET_B 9.98 
2 *4566:RESET_B *4568:RESET_B 10.0675 
3 *4568:RESET_B *701:37 10.01 
4 *701:37 *4564:RESET_B 6.185 
5 *701:37 *4565:RESET_B 5.8475 
*END

*D_NET *702 0.00830248
*CONN
*I *4718:A I *D sky130_fd_sc_hd__clkdlybuf4s25_1
*I *4716:A I *D sky130_fd_sc_hd__clkdlybuf4s25_1
*I *4715:A I *D sky130_fd_sc_hd__clkdlybuf4s25_1
*I *4717:A I *D sky130_fd_sc_hd__clkdlybuf4s25_1
*I *4719:X O *D sky130_fd_sc_hd__clkdlybuf4s25_1
*CAP
1 *4718:A 0.000284713
2 *4716:A 0.000931741
3 *4715:A 6.79554e-06
4 *4717:A 7.74653e-05
5 *4719:X 0.000149878
6 *702:27 0.00157716
7 *702:21 0.00109599
8 *702:6 0.000399989
9 *4716:A *4117:A1 6.15576e-06
10 *4717:A *4132:A1 0.00022921
11 *4717:A *4566:D 4.4073e-05
12 *4718:A *4132:A1 0
13 *702:27 *4038:A 0
14 *702:27 *4566:D 6.47516e-05
15 *702:27 *4572:D 0.000295167
16 *702:27 *720:43 0
17 *702:27 *720:61 0.000257314
18 *4130:A2 *4718:A 0.000292059
19 *4130:A2 *702:27 0.000231557
20 *4477:CLK *4718:A 4.82919e-05
21 *4477:RESET_B *4718:A 0.000434594
22 *4566:CLK *702:6 0.000109377
23 *4572:CLK *702:27 0.000339198
24 *4633:A *4718:A 0.00042018
25 *253:46 *702:27 0.000102985
26 *253:52 *702:27 0.000456273
27 *253:56 *4715:A 9.5799e-06
28 *253:56 *702:27 9.02553e-05
29 *531:32 *4715:A 2.05571e-05
30 *531:32 *702:27 0.000296249
31 *659:27 *4717:A 3.09164e-05
32 *659:27 *702:27 0
*RES
1 *4719:X *702:6 3.43 
2 *702:6 *4717:A 8.255 
3 *702:6 *702:21 3.83 
4 *702:21 *702:27 19.7475 
5 *702:27 *4715:A 3.8325 
6 *702:27 *4716:A 6.9681 
7 *702:21 *4718:A 12.3 
*END

*D_NET *703 0.00832514
*CONN
*I *4400:RESET_B I *D sky130_fd_sc_hd__dfrtp_2
*I *4402:RESET_B I *D sky130_fd_sc_hd__dfrtp_2
*I *4410:RESET_B I *D sky130_fd_sc_hd__dfrtp_2
*I *4407:RESET_B I *D sky130_fd_sc_hd__dfrtp_2
*I *4427:RESET_B I *D sky130_fd_sc_hd__dfrtp_2
*I *4426:RESET_B I *D sky130_fd_sc_hd__dfrtp_2
*I *4411:RESET_B I *D sky130_fd_sc_hd__dfrtp_2
*I *4403:RESET_B I *D sky130_fd_sc_hd__dfrtp_2
*I *4720:X O *D sky130_fd_sc_hd__clkdlybuf4s25_1
*CAP
1 *4400:RESET_B 0.000447746
2 *4402:RESET_B 1.77753e-05
3 *4410:RESET_B 0.000523829
4 *4407:RESET_B 0.000272615
5 *4427:RESET_B 0.000327273
6 *4426:RESET_B 0
7 *4411:RESET_B 2.64004e-05
8 *4403:RESET_B 0.000841438
9 *4720:X 0
10 *703:90 0.000675866
11 *703:25 0.000413257
12 *703:8 0.000348636
13 *703:6 0.000152882
14 *4400:RESET_B *3855:A 4.57032e-05
15 *4410:RESET_B *3859:A 1.01661e-05
16 *703:90 *713:12 0.000202095
17 *3858:B *4410:RESET_B 0.000116165
18 *3859:B *4403:RESET_B 0
19 *3859:B *4410:RESET_B 0
20 *3921:B1 *703:90 0.000203769
21 *3925:A2 *4410:RESET_B 1.94636e-05
22 *3925:B1 *4410:RESET_B 0.000133947
23 *3938:A2 *4403:RESET_B 4.62396e-05
24 *3938:A2 *4410:RESET_B 0
25 *3938:B1 *4403:RESET_B 0.000324815
26 *3938:B1 *703:8 6.4428e-05
27 *3941:A *703:90 4.97962e-05
28 *3945:A2 *4410:RESET_B 0
29 *3949:B1 *4427:RESET_B 0.000114399
30 *3950:A1 *4410:RESET_B 0
31 *3950:A2 *4400:RESET_B 0.000251106
32 *3950:A2 *4402:RESET_B 0
33 *3950:A2 *703:90 0.000158072
34 *4361:A0 *4403:RESET_B 0
35 *4365:A2 *703:8 2.61744e-05
36 *4365:A2 *703:25 4.59022e-06
37 *4402:CLK *4400:RESET_B 0.000271081
38 *4403:D *4407:RESET_B 9.50342e-06
39 *4410:CLK *4407:RESET_B 0
40 *4410:D *4410:RESET_B 6.28843e-05
41 *4415:CLK *4410:RESET_B 0.000107754
42 *4427:D *4427:RESET_B 8.53011e-05
43 *4744:A *4403:RESET_B 0
44 *4757:A *4427:RESET_B 5.31158e-06
45 *4757:A *703:8 3.3625e-05
46 *4757:A *703:25 0.000116652
47 *90:10 *4400:RESET_B 0.000663054
48 *102:10 *4400:RESET_B 5.15909e-05
49 *102:34 *4400:RESET_B 0.000347004
50 *165:6 *4411:RESET_B 1.19928e-05
51 *165:8 *4411:RESET_B 1.55562e-05
52 *171:20 *4427:RESET_B 0.000127679
53 *171:20 *703:25 0.00019545
54 *449:13 *4407:RESET_B 0.000143501
55 *482:10 *4407:RESET_B 0
56 *482:12 *4407:RESET_B 0
57 *524:8 *703:90 8.23457e-05
58 *526:14 *4403:RESET_B 4.58691e-05
59 *526:14 *703:8 5.25417e-05
60 *527:21 *4403:RESET_B 0
61 *541:10 *4411:RESET_B 7.78022e-05
*RES
1 *4720:X *703:6 3.6 
2 *703:6 *703:8 1.89 
3 *703:8 *4403:RESET_B 7.46 
4 *703:8 *4411:RESET_B 2.7425 
5 *703:6 *703:25 2.655 
6 *703:25 *4426:RESET_B 2 
7 *703:25 *4427:RESET_B 7.8425 
8 *4403:RESET_B *4407:RESET_B 8.7925 
9 *4403:RESET_B *4410:RESET_B 11.1325 
10 *4410:RESET_B *703:90 9.3175 
11 *703:90 *4402:RESET_B 0.3075 
12 *703:90 *4400:RESET_B 13.2225 
*END

*D_NET *704 0.003953
*CONN
*I *4408:RESET_B I *D sky130_fd_sc_hd__dfrtp_2
*I *4415:RESET_B I *D sky130_fd_sc_hd__dfrtp_2
*I *4405:RESET_B I *D sky130_fd_sc_hd__dfrtp_2
*I *4413:RESET_B I *D sky130_fd_sc_hd__dfrtp_2
*I *4721:X O *D sky130_fd_sc_hd__clkdlybuf4s25_1
*CAP
1 *4408:RESET_B 0.000446387
2 *4415:RESET_B 0.000430414
3 *4405:RESET_B 0
4 *4413:RESET_B 0.00106545
5 *4721:X 0.000168507
6 *704:12 0.000357159
7 *4415:RESET_B *713:12 0
8 *704:12 *4721:A 2.68548e-05
9 *4413:CLK *4408:RESET_B 4.66108e-05
10 *4413:D *4408:RESET_B 9.47017e-05
11 *4413:D *4413:RESET_B 4.89867e-05
12 *453:8 *4415:RESET_B 0.000129257
13 *483:34 *4408:RESET_B 0.000134752
14 *498:14 *4415:RESET_B 9.70956e-05
15 *520:12 *4415:RESET_B 7.1624e-05
16 *521:10 *4415:RESET_B 9.24881e-05
17 *521:18 *4415:RESET_B 0.000257819
18 *521:22 *4415:RESET_B 0.000345651
19 *521:32 *4415:RESET_B 0.000139238
*RES
1 *4721:X *704:12 6.135 
2 *704:12 *4413:RESET_B 5.465 
3 *704:12 *4405:RESET_B 2 
4 *4413:RESET_B *4415:RESET_B 14.9725 
5 *4413:RESET_B *4408:RESET_B 6.795 
*END

*D_NET *705 0.00583653
*CONN
*I *4441:RESET_B I *D sky130_fd_sc_hd__dfrtp_2
*I *4442:RESET_B I *D sky130_fd_sc_hd__dfrtp_2
*I *4593:RESET_B I *D sky130_fd_sc_hd__dfrtp_2
*I *4592:RESET_B I *D sky130_fd_sc_hd__dfrtp_2
*I *4440:RESET_B I *D sky130_fd_sc_hd__dfrtp_2
*I *4591:RESET_B I *D sky130_fd_sc_hd__dfrtp_2
*I *4590:RESET_B I *D sky130_fd_sc_hd__dfrtp_2
*I *4589:RESET_B I *D sky130_fd_sc_hd__dfrtp_2
*I *4722:X O *D sky130_fd_sc_hd__clkdlybuf4s25_1
*CAP
1 *4441:RESET_B 0.000109483
2 *4442:RESET_B 6.76896e-05
3 *4593:RESET_B 0.00017069
4 *4592:RESET_B 3.24164e-05
5 *4440:RESET_B 0.000440864
6 *4591:RESET_B 0.000815137
7 *4590:RESET_B 0.000345042
8 *4589:RESET_B 4.26218e-05
9 *4722:X 0.000159316
10 *705:75 0.000272994
11 *705:52 0.000540632
12 *705:20 0.000640819
13 *705:10 0.000365146
14 *4442:RESET_B *3885:A 0.000206116
15 *4589:RESET_B *967:8 4.70393e-05
16 *4591:RESET_B *3969:B 0
17 *4593:RESET_B *3955:A 0
18 *4593:RESET_B *4342:A1 0
19 *4593:RESET_B *4593:D 0
20 *705:10 *713:46 0
21 *705:10 *967:10 0
22 *705:20 *3969:B 0
23 *705:20 *4812:A 0
24 *705:20 *713:46 0
25 *705:52 *4342:A1 0
26 *705:52 *4591:D 0
27 *705:52 *4593:D 0
28 *705:52 *4805:A 0.000141599
29 *705:75 *1008:6 8.40213e-05
30 *4336:B1 *705:10 0
31 *4338:A *705:52 5.21046e-05
32 *4339:A2 *4591:RESET_B 0.000210846
33 *4339:B1 *4591:RESET_B 0
34 *4339:B1 *705:52 0
35 *4340:A *4593:RESET_B 0
36 *4343:A1 *705:52 0.000115464
37 *4392:A1 *4441:RESET_B 0
38 *4392:B1 *4442:RESET_B 0.000162311
39 *4394:A2 *4441:RESET_B 0.000129047
40 *4394:A2 *4442:RESET_B 7.30547e-05
41 *4394:B1 *705:75 0.000157551
42 *4440:CLK *4440:RESET_B 0.000341562
43 *4440:D *4440:RESET_B 0.000112964
44 *189:10 *4591:RESET_B 0
45 *648:10 *4591:RESET_B 0
46 *648:18 *4591:RESET_B 0
47 *648:18 *705:10 0
48 *648:18 *705:20 0
*RES
1 *4722:X *705:10 6.03 
2 *705:10 *4589:RESET_B 2.7425 
3 *705:10 *705:20 2.655 
4 *705:20 *4590:RESET_B 2 
5 *705:20 *4591:RESET_B 10.52 
6 *4590:RESET_B *4440:RESET_B 5.865 
7 *4591:RESET_B *705:52 8.2025 
8 *705:52 *4592:RESET_B 2.3975 
9 *705:52 *4593:RESET_B 4.91 
10 *4440:RESET_B *705:75 4.1225 
11 *705:75 *4442:RESET_B 4.655 
12 *705:75 *4441:RESET_B 4.0325 
*END

*D_NET *706 0.009936
*CONN
*I *4595:RESET_B I *D sky130_fd_sc_hd__dfrtp_2
*I *4594:RESET_B I *D sky130_fd_sc_hd__dfrtp_2
*I *4596:RESET_B I *D sky130_fd_sc_hd__dfrtp_2
*I *4722:A I *D sky130_fd_sc_hd__clkdlybuf4s25_1
*I *4721:A I *D sky130_fd_sc_hd__clkdlybuf4s25_1
*I *4720:A I *D sky130_fd_sc_hd__clkdlybuf4s25_1
*I *4723:X O *D sky130_fd_sc_hd__clkdlybuf4s25_1
*CAP
1 *4595:RESET_B 0.000213675
2 *4594:RESET_B 0.000125884
3 *4596:RESET_B 0.00121124
4 *4722:A 7.26106e-05
5 *4721:A 0.000685647
6 *4720:A 0.000248036
7 *4723:X 0.00029986
8 *706:16 0.00132889
9 *706:10 0.000745334
10 *706:8 0.00144906
11 *4595:RESET_B *3974:A 0
12 *4595:RESET_B *4781:A 0
13 *4595:RESET_B *974:8 4.11729e-05
14 *4596:RESET_B *3969:B 6.95166e-05
15 *4596:RESET_B *4346:B1 2.97802e-05
16 *4596:RESET_B *4723:A 1.07797e-05
17 *4720:A *713:12 0.000437163
18 *4720:A *984:8 0.000263861
19 *4722:A *713:6 4.41506e-05
20 *4722:A *713:12 5.83121e-06
21 *706:8 *4723:A 0.000122325
22 *706:10 *4723:A 0.0001471
23 *706:10 *4730:A 2.23922e-05
24 *706:10 *713:46 0.000124532
25 *706:16 *4730:A 0.0003175
26 *706:16 *713:12 0.000163922
27 *3974:B *4595:RESET_B 0.000130057
28 *3974:B *4596:RESET_B 0.000118527
29 *4348:A *4595:RESET_B 0.000113797
30 *4441:D *4596:RESET_B 0
31 *4638:A *4596:RESET_B 3.39426e-05
32 *4670:A *4596:RESET_B 5.4003e-05
33 *4671:A *4594:RESET_B 0.000105911
34 *4671:A *4596:RESET_B 3.03465e-05
35 *171:10 *4720:A 0.000239839
36 *189:10 *4596:RESET_B 9.9535e-05
37 *191:10 *4595:RESET_B 1.15688e-05
38 *449:125 *4721:A 0.000117951
39 *449:129 *4721:A 4.55801e-05
40 *485:10 *4596:RESET_B 1.4399e-05
41 *485:42 *4596:RESET_B 0.000221461
42 *521:66 *4720:A 0.000381896
43 *582:8 *4595:RESET_B 1.0063e-05
44 *704:12 *4721:A 2.68548e-05
*RES
1 *4723:X *706:8 7.845 
2 *706:8 *706:10 5.97 
3 *706:10 *706:16 7.98 
4 *706:16 *4720:A 12.72 
5 *706:16 *4721:A 11.91 
6 *706:10 *4722:A 4.755 
7 *706:8 *4596:RESET_B 22.065 
8 *4596:RESET_B *4594:RESET_B 6.4 
9 *4596:RESET_B *4595:RESET_B 8.5825 
*END

*D_NET *707 0.00746086
*CONN
*I *4480:RESET_B I *D sky130_fd_sc_hd__dfrtp_2
*I *4478:SET_B I *D sky130_fd_sc_hd__dfstp_2
*I *4404:RESET_B I *D sky130_fd_sc_hd__dfrtp_2
*I *4446:RESET_B I *D sky130_fd_sc_hd__dfrtp_2
*I *4412:RESET_B I *D sky130_fd_sc_hd__dfrtp_2
*I *4428:RESET_B I *D sky130_fd_sc_hd__dfrtp_2
*I *4429:RESET_B I *D sky130_fd_sc_hd__dfrtp_2
*I *4476:RESET_B I *D sky130_fd_sc_hd__dfrtp_2
*I *4724:X O *D sky130_fd_sc_hd__clkdlybuf4s25_1
*CAP
1 *4480:RESET_B 0.000375062
2 *4478:SET_B 0.00108553
3 *4404:RESET_B 0.000124335
4 *4446:RESET_B 0.000396917
5 *4412:RESET_B 0.000157072
6 *4428:RESET_B 6.79049e-05
7 *4429:RESET_B 0.000776441
8 *4476:RESET_B 0.000331399
9 *4724:X 3.38751e-05
10 *707:37 0.000838097
11 *707:12 0.000457313
12 *707:10 0.000481042
13 *707:8 0.000546842
14 *4428:RESET_B *985:8 6.52409e-05
15 *4476:RESET_B *4476:D 0
16 *4476:RESET_B *987:14 0
17 *4480:RESET_B *3878:B 3.45588e-05
18 *4480:RESET_B *4077:A1 0
19 *4480:RESET_B *4480:D 0
20 *4480:RESET_B *998:36 0
21 *4480:RESET_B *999:6 4.67034e-05
22 *707:12 *987:14 0
23 *3873:A1 *707:10 0
24 *3873:A1 *707:37 0
25 *4082:A1 *4480:RESET_B 0.000141606
26 *4366:A1 *4476:RESET_B 0
27 *4366:A2 *707:10 0
28 *4412:CLK *4446:RESET_B 4.83032e-05
29 *4412:CLK *707:37 1.64067e-05
30 *4412:D *707:37 0.000114649
31 *4428:CLK *4428:RESET_B 0.000228856
32 *4428:D *4476:RESET_B 0.000164679
33 *4428:D *707:12 0.000314452
34 *4429:CLK *4478:SET_B 0.000214272
35 *90:45 *707:10 0
36 *90:45 *707:12 0
37 *112:8 *707:8 4.82863e-05
38 *115:12 *4476:RESET_B 2.68721e-05
39 *115:12 *707:10 4.94404e-05
40 *115:12 *707:12 2.4997e-05
41 *272:12 *4480:RESET_B 0
42 *272:20 *4480:RESET_B 0
43 *483:34 *4446:RESET_B 3.112e-05
44 *487:33 *4478:SET_B 0.00017613
45 *529:6 *4404:RESET_B 4.24575e-05
46 *665:14 *707:37 0
*RES
1 *4724:X *707:8 4.05 
2 *707:8 *707:10 3.165 
3 *707:10 *707:12 4.185 
4 *707:12 *4476:RESET_B 6.185 
5 *707:12 *4429:RESET_B 2.7425 
6 *707:10 *4428:RESET_B 4.1225 
7 *707:8 *707:37 5.205 
8 *707:37 *4412:RESET_B 4.1225 
9 *707:37 *4446:RESET_B 7.0925 
10 *4476:RESET_B *4404:RESET_B 6.175 
11 *4429:RESET_B *4478:SET_B 9.555 
12 *4478:SET_B *4480:RESET_B 10.3075 
*END

*D_NET *708 0.00476918
*CONN
*I *4483:RESET_B I *D sky130_fd_sc_hd__dfrtp_2
*I *4482:SET_B I *D sky130_fd_sc_hd__dfstp_2
*I *4484:SET_B I *D sky130_fd_sc_hd__dfstp_2
*I *4481:SET_B I *D sky130_fd_sc_hd__dfstp_2
*I *4725:X O *D sky130_fd_sc_hd__clkdlybuf4s25_1
*CAP
1 *4483:RESET_B 0.000172944
2 *4482:SET_B 0.000269266
3 *4484:SET_B 4.68278e-05
4 *4481:SET_B 0.000839503
5 *4725:X 0.000178195
6 *708:10 0.000622315
7 *4481:SET_B *1003:35 9.12857e-06
8 *4482:SET_B *4085:A1_N 2.65337e-05
9 *4482:SET_B *1003:6 4.77769e-05
10 *4482:SET_B *1003:35 7.58382e-05
11 *4483:RESET_B *3879:A 5.72091e-05
12 *4483:RESET_B *4750:A 3.15404e-05
13 *4483:RESET_B *1003:35 0
14 *708:10 *4485:SET_B 9.30717e-05
15 *708:10 *4486:RESET_B 8.53113e-06
16 *3880:D *4483:RESET_B 0.000249864
17 *4083:A *4483:RESET_B 0
18 *4087:A2 *4482:SET_B 0.000232584
19 *4090:A1 *4481:SET_B 7.03219e-05
20 *4090:A1 *4484:SET_B 4.66108e-05
21 *4092:A1 *708:10 3.09179e-05
22 *4092:A2 *4481:SET_B 0.000109489
23 *4092:A2 *708:10 0.000385857
24 *117:41 *4483:RESET_B 0.000143266
25 *119:10 *4481:SET_B 0.000304702
26 *119:10 *4483:RESET_B 4.20673e-05
27 *119:25 *4481:SET_B 0.000350827
28 *123:10 *4481:SET_B 3.0816e-05
29 *123:10 *708:10 0.000136267
30 *272:12 *4482:SET_B 0.000156911
*RES
1 *4725:X *708:10 8.67 
2 *708:10 *4481:SET_B 11.54 
3 *708:10 *4484:SET_B 2.7425 
4 *4481:SET_B *4482:SET_B 10.165 
5 *4481:SET_B *4483:RESET_B 8.8375 
*END

*D_NET *709 0.00783514
*CONN
*I *4436:RESET_B I *D sky130_fd_sc_hd__dfrtp_2
*I *4435:RESET_B I *D sky130_fd_sc_hd__dfrtp_2
*I *4437:RESET_B I *D sky130_fd_sc_hd__dfrtp_2
*I *4438:RESET_B I *D sky130_fd_sc_hd__dfrtp_2
*I *4439:RESET_B I *D sky130_fd_sc_hd__dfrtp_2
*I *4445:RESET_B I *D sky130_fd_sc_hd__dfrtp_2
*I *4447:RESET_B I *D sky130_fd_sc_hd__dfrtp_2
*I *4443:RESET_B I *D sky130_fd_sc_hd__dfrtp_2
*I *4726:X O *D sky130_fd_sc_hd__clkdlybuf4s25_1
*CAP
1 *4436:RESET_B 0.000131068
2 *4435:RESET_B 0.000263159
3 *4437:RESET_B 0
4 *4438:RESET_B 0.000479499
5 *4439:RESET_B 0.000112758
6 *4445:RESET_B 0
7 *4447:RESET_B 4.92031e-05
8 *4443:RESET_B 6.69843e-05
9 *4726:X 8.964e-06
10 *709:76 0.000470454
11 *709:69 0.000306362
12 *709:40 0.000557661
13 *709:33 0.000417865
14 *709:21 0.000789708
15 *709:6 0.000594128
16 *4436:RESET_B *4601:A 9.766e-05
17 *4436:RESET_B *4762:A 4.38051e-05
18 *4438:RESET_B *715:75 7.70828e-05
19 *709:21 *4726:A 2.63322e-05
20 *709:21 *712:23 0.000508104
21 *709:33 *3887:B2 0.000335865
22 *709:33 *715:10 8.69157e-05
23 *709:33 *715:75 0.000267532
24 *709:40 *715:75 0.000466565
25 *709:69 *4767:A 7.28749e-05
26 *709:69 *715:75 0
27 *709:76 *4762:A 7.23602e-05
28 *3887:B1 *709:33 0.00016844
29 *4383:B *709:69 0
30 *4383:B *709:76 0
31 *4384:B1 *4435:RESET_B 0.0001249
32 *4384:B1 *4436:RESET_B 0.000105132
33 *4390:A2 *709:40 9.30787e-05
34 *4398:B_N *709:33 5.16418e-05
35 *4399:A1 *4443:RESET_B 9.54399e-05
36 *4399:A1 *709:6 4.82863e-05
37 *4399:A1 *709:21 4.82919e-05
38 *4399:B1 *4443:RESET_B 0
39 *4438:CLK *4438:RESET_B 3.57349e-05
40 *4439:D *709:40 9.54399e-05
41 *123:88 *709:33 5.4003e-05
42 *123:88 *709:40 2.14129e-05
43 *125:10 *709:33 0.000100316
44 *125:12 *709:33 6.36578e-05
45 *449:177 *709:6 3.00381e-05
46 *449:177 *709:21 8.95933e-05
47 *489:10 *4438:RESET_B 0
48 *489:21 *4438:RESET_B 0.000187759
49 *489:21 *709:69 0
50 *489:27 *4438:RESET_B 0.000119066
51 *489:27 *709:69 0
52 *489:42 *709:69 0
53 *489:42 *709:76 0
*RES
1 *4726:X *709:6 2.05 
2 *709:6 *4443:RESET_B 5.38 
3 *709:6 *709:21 7.815 
4 *709:21 *4447:RESET_B 0.7575 
5 *709:21 *709:33 10.01 
6 *709:33 *4445:RESET_B 2 
7 *709:33 *709:40 5.46 
8 *709:40 *4439:RESET_B 3.4325 
9 *709:40 *4438:RESET_B 7.5875 
10 *4438:RESET_B *709:69 5.93 
11 *709:69 *4437:RESET_B 2 
12 *709:69 *709:76 1.38 
13 *709:76 *4435:RESET_B 5.6225 
14 *709:76 *4436:RESET_B 5.72 
*END

*D_NET *710 0.00705976
*CONN
*I *4434:RESET_B I *D sky130_fd_sc_hd__dfrtp_2
*I *4433:RESET_B I *D sky130_fd_sc_hd__dfrtp_2
*I *4432:RESET_B I *D sky130_fd_sc_hd__dfrtp_2
*I *4431:RESET_B I *D sky130_fd_sc_hd__dfrtp_2
*I *4430:RESET_B I *D sky130_fd_sc_hd__dfrtp_2
*I *4486:RESET_B I *D sky130_fd_sc_hd__dfrtp_2
*I *4485:SET_B I *D sky130_fd_sc_hd__dfstp_2
*I *4444:SET_B I *D sky130_fd_sc_hd__dfstp_2
*I *4727:X O *D sky130_fd_sc_hd__clkdlybuf4s25_1
*CAP
1 *4434:RESET_B 0.000300402
2 *4433:RESET_B 0.000564343
3 *4432:RESET_B 0.00044701
4 *4431:RESET_B 0
5 *4430:RESET_B 0.000652701
6 *4486:RESET_B 0.000604384
7 *4485:SET_B 3.14574e-05
8 *4444:SET_B 2.48235e-05
9 *4727:X 0.00011479
10 *710:62 0.000352945
11 *710:26 0.000673904
12 *710:12 0.000660502
13 *4430:RESET_B *3871:A1 0
14 *4430:RESET_B *3884:A 8.68387e-05
15 *4430:RESET_B *1007:19 4.70343e-05
16 *4430:RESET_B *1012:12 0.000118527
17 *4432:RESET_B *4375:A 0.000166346
18 *4434:RESET_B *4378:A1 0
19 *4434:RESET_B *4379:A 0
20 *4434:RESET_B *4766:A 2.56899e-05
21 *710:26 *4485:D 0.000123225
22 *710:62 *1013:10 0
23 uart_tx *4430:RESET_B 0
24 *3891:A1 *710:12 4.76581e-05
25 *4091:B *710:26 6.52265e-05
26 *4092:A1 *710:26 1.61831e-05
27 *4092:A2 *4486:RESET_B 1.07797e-05
28 *4092:A2 *710:26 0.000158066
29 *4092:B1 *710:26 6.46363e-05
30 *4371:B *4430:RESET_B 0
31 *4371:B *710:62 9.29751e-06
32 *4374:A2 *4432:RESET_B 0
33 *4375:B *4432:RESET_B 0.000131408
34 *4375:B *710:62 0.000235585
35 *4376:A2 *4434:RESET_B 0.000162332
36 *4376:B1 *4432:RESET_B 4.91189e-05
37 *4376:B1 *4433:RESET_B 3.09164e-05
38 *4377:B *4434:RESET_B 0
39 *4378:A2 *4434:RESET_B 2.87867e-05
40 *4378:A3 *4434:RESET_B 3.50033e-05
41 *4433:CLK *4434:RESET_B 8.34323e-05
42 *4433:D *4434:RESET_B 0.000185405
43 *4856:A *4434:RESET_B 0
44 *123:10 *4430:RESET_B 0
45 *123:10 *4485:SET_B 9.30717e-05
46 *123:10 *4486:RESET_B 0.000266838
47 *270:23 *710:12 5.52231e-05
48 *486:10 *710:12 0
49 *486:49 *4444:SET_B 2.40101e-05
50 *486:49 *710:26 9.4087e-05
51 *650:51 *710:62 0.000116165
52 *708:10 *4485:SET_B 9.30717e-05
53 *708:10 *4486:RESET_B 8.53113e-06
*RES
1 *4727:X *710:12 7.685 
2 *710:12 *4444:SET_B 0.3975 
3 *710:12 *710:26 9.815 
4 *710:26 *4485:SET_B 3.125 
5 *710:26 *4486:RESET_B 5.165 
6 *4486:RESET_B *4430:RESET_B 13.2625 
7 *4430:RESET_B *710:62 6.185 
8 *710:62 *4431:RESET_B 2 
9 *710:62 *4432:RESET_B 6.4325 
10 *4432:RESET_B *4433:RESET_B 7.8475 
11 *4433:RESET_B *4434:RESET_B 10.36 
*END

*D_NET *711 0.00712248
*CONN
*I *4111:A1 I *D sky130_fd_sc_hd__o21ai_2
*I *4108:A1 I *D sky130_fd_sc_hd__o21ai_2
*I *4098:A1 I *D sky130_fd_sc_hd__o21ai_2
*I *4106:A1 I *D sky130_fd_sc_hd__o21ai_2
*I *4044:A I *D sky130_fd_sc_hd__inv_2
*I *4103:A1 I *D sky130_fd_sc_hd__o21ai_2
*I *4100:A1 I *D sky130_fd_sc_hd__o21ai_2
*I *4095:A2 I *D sky130_fd_sc_hd__o21ai_2
*I *4728:X O *D sky130_fd_sc_hd__clkdlybuf4s25_1
*CAP
1 *4111:A1 0.000243815
2 *4108:A1 0.000397061
3 *4098:A1 0
4 *4106:A1 0.000201126
5 *4044:A 0.000138986
6 *4103:A1 7.02655e-05
7 *4100:A1 5.12615e-05
8 *4095:A2 0.000295399
9 *4728:X 0
10 *711:55 0.000546632
11 *711:29 0.000288149
12 *711:27 0.000695838
13 *711:23 0.000407415
14 *711:4 0.000533362
15 *4106:A1 *4032:A 8.64599e-05
16 *4108:A1 *4032:A 0.000120825
17 *4108:A1 *4558:D 0.00014028
18 *4111:A1 *4559:D 4.99619e-05
19 *711:23 *4554:D 0.000117825
20 *711:23 *793:18 0
21 *711:27 *793:18 0
22 *711:29 *4555:D 4.77807e-05
23 *711:55 *4031:B 0.000194921
24 *711:55 *796:16 0.000194295
25 *4032:B *711:55 0.000152054
26 *4095:A1 *4095:A2 8.41345e-05
27 *4095:A1 *711:23 1.3582e-05
28 *4097:A *711:27 7.01579e-05
29 *4099:B *711:27 4.88778e-05
30 *4100:A2 *4100:A1 2.00026e-05
31 *4100:A2 *711:29 0.000196077
32 *4100:B1 *711:29 2.0187e-05
33 *4103:A2 *4103:A1 0.000136679
34 *4105:B *4108:A1 2.21697e-05
35 *4106:B1 *4108:A1 0.000333975
36 *4107:B *4108:A1 9.00751e-05
37 *4108:A2 *4108:A1 8.06861e-05
38 *4108:A2 *4111:A1 5.53249e-06
39 *4111:B1 *4111:A1 0.000239813
40 *4557:CLK *4108:A1 6.54361e-06
41 *245:8 *711:55 0.000122817
42 *246:8 *4106:A1 2.01934e-05
43 *246:8 *711:55 5.83121e-06
44 *478:12 *4095:A2 0
45 *478:12 *711:23 7.89611e-05
46 *478:16 *711:23 9.68787e-05
47 *478:16 *711:27 0.000200108
48 *479:33 *4111:A1 0
49 *657:31 *711:29 6.04372e-05
50 *657:31 *711:55 0.000195052
51 *697:20 *711:23 0
52 *697:22 *711:23 0
*RES
1 *4728:X *711:4 1.6 
2 *711:4 *4095:A2 10.085 
3 *711:4 *711:23 6.815 
4 *711:23 *711:27 6.44 
5 *711:27 *711:29 3.21 
6 *711:29 *4100:A1 2.41 
7 *711:29 *4103:A1 7.235 
8 *711:27 *711:55 8.505 
9 *711:55 *4044:A 7.745 
10 *711:55 *4106:A1 2.74 
11 *711:23 *4098:A1 3.6 
12 *4106:A1 *4108:A1 12.99 
13 *4108:A1 *4111:A1 11.955 
*END

*D_NET *712 0.00677113
*CONN
*I *4725:A I *D sky130_fd_sc_hd__clkdlybuf4s25_1
*I *4727:A I *D sky130_fd_sc_hd__clkdlybuf4s25_1
*I *4724:A I *D sky130_fd_sc_hd__clkdlybuf4s25_1
*I *4726:A I *D sky130_fd_sc_hd__clkdlybuf4s25_1
*I *4729:X O *D sky130_fd_sc_hd__clkdlybuf4s25_1
*CAP
1 *4725:A 0.000486933
2 *4727:A 1.21068e-05
3 *4724:A 0.000492891
4 *4726:A 1.94724e-05
5 *4729:X 0.000294561
6 *712:42 0.00127219
7 *712:23 0.00145641
8 *712:10 0.000504398
9 *4724:A *3887:B2 0.000211213
10 *4725:A *4485:D 4.27235e-05
11 *712:10 *3886:A 0.000116165
12 *712:10 *1011:10 0.000137578
13 *3887:A2 *4724:A 0.00015526
14 *3887:B1 *4724:A 0.000358336
15 *4399:A1 *712:10 0
16 *4445:CLK *712:10 0
17 *4446:D *4724:A 0.000176391
18 *4447:CLK *712:10 0
19 *4447:CLK *712:23 8.49205e-05
20 *4447:D *4724:A 1.76774e-05
21 *112:25 *4724:A 0.000134875
22 *114:8 *4724:A 0.000111329
23 *123:10 *4725:A 7.67479e-05
24 *449:177 *712:10 6.4422e-05
25 *486:10 *4727:A 1.00941e-05
26 *709:21 *4726:A 2.63322e-05
27 *709:21 *712:23 0.000508104
*RES
1 *4729:X *712:10 11.06 
2 *712:10 *4726:A 2.05 
3 *712:10 *712:23 6.95 
4 *712:23 *4724:A 16.755 
5 *712:23 *712:42 2.22773 
6 *712:42 *4727:A 4.3325 
7 *712:42 *4725:A 6.5997 
*END

*D_NET *713 0.0160185
*CONN
*I *4723:A I *D sky130_fd_sc_hd__clkdlybuf4s25_1
*I *4729:A I *D sky130_fd_sc_hd__clkdlybuf4s25_1
*I *4719:A I *D sky130_fd_sc_hd__clkdlybuf4s25_1
*I *4714:A I *D sky130_fd_sc_hd__clkdlybuf4s25_1
*I *4730:X O *D sky130_fd_sc_hd__clkdlybuf4s25_1
*CAP
1 *4723:A 0.000149604
2 *4729:A 0.00126056
3 *4719:A 0.00149485
4 *4714:A 0.000190961
5 *4730:X 0.000261184
6 *713:46 0.0015197
7 *713:12 0.00301941
8 *713:6 0.00170432
9 *4714:A *4357:A 7.5416e-05
10 *4719:A *746:8 3.21052e-05
11 *4723:A *3969:B 0.000180682
12 *4723:A *4812:A 0.000110683
13 *4729:A *4393:C 2.05056e-05
14 *4729:A *4396:B1 0.00015639
15 *4729:A *4812:A 0.000114081
16 *4729:A *1010:6 0.000120655
17 *713:12 *3937:A 1.0397e-05
18 *713:12 *4336:A1 0
19 *713:12 *4357:A 0.000314438
20 *713:12 *4730:A 5.21545e-05
21 *713:12 *984:8 1.65129e-05
22 *713:46 *4730:A 7.47284e-05
23 *713:46 *4812:A 5.4003e-05
24 *3860:A1 *713:12 0.000154857
25 *3921:B1 *713:12 0.000398059
26 *3926:B1 *4714:A 9.66106e-05
27 *3926:B1 *4719:A 1.4237e-05
28 *3926:B2 *4719:A 3.10667e-05
29 *3929:C1 *4719:A 0.000219426
30 *3934:A2 *713:12 0.000174846
31 *3945:A2 *4714:A 4.82919e-05
32 *3945:A3 *4714:A 0.000161529
33 *4139:A1 *4719:A 4.82863e-05
34 *4139:B1 *4719:A 0.000214831
35 *4336:B1 *713:12 0.000139933
36 *4336:B1 *713:46 0.000187766
37 *4361:S *713:12 4.01548e-05
38 *4415:RESET_B *713:12 0
39 *4442:CLK *4729:A 0.000241866
40 *4452:CLK *4719:A 0.000173328
41 *4453:D *4719:A 2.75145e-05
42 *4453:RESET_B *4719:A 0.000161997
43 *4476:CLK *4719:A 0
44 *4566:CLK *4719:A 0
45 *4596:RESET_B *4723:A 1.07797e-05
46 *4680:A *4719:A 2.86623e-05
47 *4685:A *713:12 0.000333625
48 *4720:A *713:12 0.000437163
49 *4722:A *713:6 4.41506e-05
50 *4722:A *713:12 5.83121e-06
51 *4783:A *713:12 0.000116158
52 *17:10 *713:12 7.70938e-05
53 *104:38 *713:12 0
54 *157:10 *4714:A 0
55 *157:10 *713:12 0
56 *480:8 *4719:A 0
57 *480:10 *4719:A 0
58 *498:14 *713:12 0.000249921
59 *521:18 *713:12 9.12857e-06
60 *521:32 *713:12 0
61 *584:10 *713:12 0.000182978
62 *659:21 *4719:A 0
63 *660:51 *4719:A 0.00019194
64 *664:25 *713:12 7.67465e-05
65 *664:27 *713:12 7.21296e-06
66 *664:43 *713:12 0
67 *664:45 *713:12 0
68 *696:10 *4714:A 1.91597e-05
69 *703:90 *713:12 0.000202095
70 *705:10 *713:46 0
71 *705:20 *713:46 0
72 *706:8 *4723:A 0.000122325
73 *706:10 *4723:A 0.0001471
74 *706:10 *713:46 0.000124532
75 *706:16 *713:12 0.000163922
*RES
1 *4730:X *713:6 4.465 
2 *713:6 *713:12 36.305 
3 *713:12 *4714:A 8.025 
4 *713:12 *4719:A 32.53 
5 *713:6 *713:46 5.42 
6 *713:46 *4729:A 18.72 
7 *713:46 *4723:A 8.16 
*END

*D_NET *714 0.020557
*CONN
*I *4730:A I *D sky130_fd_sc_hd__clkdlybuf4s25_1
*I *4710:A I *D sky130_fd_sc_hd__clkdlybuf4s25_1
*I *4701:A I *D sky130_fd_sc_hd__clkdlybuf4s25_1
*I *4697:A I *D sky130_fd_sc_hd__clkdlybuf4s25_1
*I *4731:X O *D sky130_fd_sc_hd__clkdlybuf4s25_1
*CAP
1 *4730:A 0.00186149
2 *4710:A 5.29395e-05
3 *4701:A 0.0015821
4 *4697:A 0
5 *4731:X 0.000504354
6 *714:61 0.00335302
7 *714:44 0.00154446
8 *714:20 0.00294847
9 *714:10 0.00187073
10 *4701:A *3912:A1 3.28386e-05
11 *4701:A *3912:A2 4.82863e-05
12 *4701:A *3914:A 5.49536e-05
13 *4701:A *4806:A 5.05521e-05
14 *714:61 *4051:B1 0.000136284
15 *3912:A3 *4701:A 1.12578e-05
16 *3912:B1 *4701:A 0.000726769
17 *3918:B *4701:A 0.000153482
18 *3996:D *714:10 0
19 *4048:A *714:10 0
20 *4048:A *714:61 0.0006117
21 *4049:A *714:61 0.000497676
22 *4049:B *714:61 4.60584e-05
23 *4054:B1 *714:61 1.34594e-05
24 *4058:A1 *4730:A 0.000467068
25 *4058:A2 *4730:A 0.000199833
26 *4058:A3 *4730:A 0.000198939
27 *4058:B1 *4730:A 4.82919e-05
28 *4061:A *4730:A 2.05056e-05
29 *4062:A *4730:A 0.000122155
30 *4062:B *4730:A 0.000241483
31 *4063:A2 *714:61 2.8185e-05
32 *4067:A *714:20 0.000126743
33 *4277:A *4701:A 4.66108e-05
34 *4277:A *714:20 1.91597e-05
35 *4277:B *714:20 9.16237e-05
36 *4336:B1 *4730:A 7.26551e-05
37 *4356:A1 *4701:A 8.65961e-05
38 *4356:A2 *4701:A 6.6564e-05
39 *4423:D *4701:A 6.31208e-05
40 *4449:RESET_B *4701:A 4.35648e-05
41 *4463:D *714:20 3.32056e-05
42 *4466:D *714:61 0.000124007
43 *4467:D *714:20 0
44 *4468:CLK *714:20 0.000111022
45 *4468:D *714:61 8.73389e-06
46 *4472:CLK *714:20 0.000339198
47 *4472:D *714:20 6.5525e-05
48 *4695:A *714:20 2.60986e-05
49 *4702:A *714:10 0.000160529
50 *4702:A *714:20 9.24049e-05
51 *4704:A *714:10 0
52 *4706:A *4730:A 8.40213e-05
53 *4753:A *4730:A 2.75229e-05
54 *4754:A *714:61 0.00011577
55 *259:38 *714:61 8.37747e-05
56 *265:12 *4730:A 4.82919e-05
57 *265:12 *714:61 8.82557e-05
58 *496:88 *714:20 0.000141592
59 *497:35 *714:20 0.000124993
60 *497:44 *714:20 8.22287e-05
61 *642:45 *4701:A 0.000147077
62 *642:45 *714:20 2.75145e-05
63 *642:57 *714:20 0
64 *675:10 *714:20 0.000114492
65 *692:10 *714:10 0
66 *706:10 *4730:A 2.23922e-05
67 *706:16 *4730:A 0.0003175
68 *713:12 *4730:A 5.21545e-05
69 *713:46 *4730:A 7.47284e-05
*RES
1 *4731:X *714:10 10.89 
2 *714:10 *714:20 31.67 
3 *714:20 *4697:A 1.6 
4 *714:20 *4701:A 25.675 
5 *714:10 *714:44 2 
6 *714:44 *4710:A 2.395 
7 *714:44 *714:61 25.095 
8 *714:61 *4730:A 38.615 
*END

*D_NET *715 0.0112862
*CONN
*I *4382:A1 I *D sky130_fd_sc_hd__a31o_2
*I *4384:A1 I *D sky130_fd_sc_hd__a31o_2
*I *4386:A1 I *D sky130_fd_sc_hd__a31o_2
*I *4398:D I *D sky130_fd_sc_hd__and4bb_2
*I *4395:A1 I *D sky130_fd_sc_hd__a21bo_2
*I *4393:C I *D sky130_fd_sc_hd__and4b_2
*I *3834:A I *D sky130_fd_sc_hd__inv_2
*I *3887:B2 I *D sky130_fd_sc_hd__a22o_2
*I *4732:X O *D sky130_fd_sc_hd__clkdlybuf4s25_1
*CAP
1 *4382:A1 8.15197e-05
2 *4384:A1 0
3 *4386:A1 0.000203751
4 *4398:D 1.85694e-05
5 *4395:A1 0
6 *4393:C 0.000197392
7 *3834:A 2.78785e-05
8 *3887:B2 0.000360589
9 *4732:X 4.16082e-05
10 *715:89 0.000926122
11 *715:75 0.00155187
12 *715:44 0.000245703
13 *715:31 0.000481678
14 *715:25 0.000496555
15 *715:10 0.000460028
16 *715:8 0.000816524
17 *4382:A1 *4601:A 1.46828e-05
18 *4393:C *3885:B 6.73424e-05
19 *4393:C *3885:C 2.92496e-05
20 *4393:C *4396:B1 0.00014719
21 *4393:C *1008:31 2.0514e-05
22 *4393:C *1010:6 4.66108e-05
23 *4398:D *4398:A_N 9.53428e-06
24 *715:25 *4398:A_N 5.74791e-05
25 *715:31 *4398:A_N 0.000260318
26 *715:31 *4749:A 4.66108e-05
27 *715:75 *716:52 0
28 *715:89 *4601:A 0.000201774
29 *3887:A1 *3887:B2 2.69153e-05
30 *3887:B1 *3887:B2 4.24292e-06
31 *3889:B1 *715:8 1.56428e-05
32 *4368:A2 *3887:B2 0
33 *4382:A3 *4382:A1 8.65905e-05
34 *4382:A3 *715:75 0.000172527
35 *4383:B *715:75 0.000382031
36 *4384:A3 *4386:A1 0.000129218
37 *4384:A3 *715:89 1.34361e-05
38 *4386:A2 *4386:A1 5.76534e-05
39 *4386:B1 *715:75 0.000164686
40 *4388:A3 *715:75 3.81494e-05
41 *4388:B1 *715:75 0
42 *4392:A1 *4393:C 8.44359e-05
43 *4392:A2 *3834:A 2.45182e-05
44 *4392:A2 *715:44 4.28483e-05
45 *4393:B *4393:C 4.82863e-05
46 *4395:B1_N *4393:C 2.40822e-05
47 *4398:C *715:25 1.08758e-05
48 *4398:C *715:31 4.82863e-05
49 *4399:B1 *715:31 0.000175802
50 *4436:CLK *715:89 2.72482e-05
51 *4436:D *715:89 0.000139245
52 *4438:RESET_B *715:75 7.70828e-05
53 *4596:CLK *4386:A1 2.11084e-05
54 *4642:A *715:75 0
55 *4724:A *3887:B2 0.000211213
56 *4729:A *4393:C 2.05056e-05
57 *83:10 *715:31 4.82919e-05
58 *124:10 *3834:A 5.33085e-05
59 *124:10 *715:31 2.75145e-05
60 *124:10 *715:44 0.000141599
61 *431:10 *715:75 0
62 *443:23 *715:44 1.0183e-05
63 *444:8 *4393:C 4.80285e-05
64 *456:12 *3887:B2 0.000203769
65 *456:12 *715:10 9.37731e-05
66 *456:12 *715:75 0.000381337
67 *489:27 *4386:A1 4.90267e-05
68 *489:42 *4386:A1 9.68709e-05
69 *489:55 *4386:A1 4.50017e-05
70 *489:55 *715:89 4.31921e-05
71 *651:16 *4386:A1 2.97408e-05
72 *709:33 *3887:B2 0.000335865
73 *709:33 *715:10 8.69157e-05
74 *709:33 *715:75 0.000267532
75 *709:40 *715:75 0.000466565
76 *709:69 *715:75 0
*RES
1 *4732:X *715:8 4.05 
2 *715:8 *715:10 1.125 
3 *715:10 *3887:B2 12.57 
4 *715:10 *715:25 3.14 
5 *715:25 *715:31 9.71 
6 *715:31 *3834:A 4.215 
7 *715:31 *715:44 3.635 
8 *715:44 *4393:C 10.46 
9 *715:44 *4395:A1 1.6 
10 *715:25 *4398:D 1.96 
11 *715:8 *715:75 21.485 
12 *715:75 *715:89 13.1 
13 *715:89 *4386:A1 9 
14 *715:89 *4384:A1 3.6 
15 *715:75 *4382:A1 3.1 
*END

*D_NET *716 0.00950474
*CONN
*I *4368:B2 I *D sky130_fd_sc_hd__a221o_2
*I *4378:A1 I *D sky130_fd_sc_hd__a31o_2
*I *4376:A1 I *D sky130_fd_sc_hd__a31o_2
*I *4372:A1 I *D sky130_fd_sc_hd__a31o_2
*I *4374:A1 I *D sky130_fd_sc_hd__a31o_2
*I *4388:A1 I *D sky130_fd_sc_hd__a31o_2
*I *4732:A I *D sky130_fd_sc_hd__clkdlybuf4s25_1
*I *4073:A I *D sky130_fd_sc_hd__or3_2
*I *4733:X O *D sky130_fd_sc_hd__clkdlybuf4s25_1
*CAP
1 *4368:B2 0
2 *4378:A1 0.000153486
3 *4376:A1 7.57721e-05
4 *4372:A1 0.000245929
5 *4374:A1 0
6 *4388:A1 8.10885e-05
7 *4732:A 0
8 *4073:A 0.000267706
9 *4733:X 0.000409352
10 *716:89 0.000333194
11 *716:69 0.000413633
12 *716:65 0.000979691
13 *716:52 0.00119978
14 *716:41 0.000474381
15 *716:28 0.000388059
16 *716:22 0.000465959
17 *4073:A *4073:C 4.66108e-05
18 *4073:A *1025:6 1.19928e-05
19 *716:22 *4368:C1 1.90686e-05
20 *716:22 *4398:A_N 1.95481e-05
21 *716:22 *4733:A 0.000159747
22 *716:22 *1024:44 4.9968e-05
23 *716:22 *1025:34 4.5254e-05
24 *716:28 *4398:A_N 4.78979e-05
25 *3891:B1 *716:22 0.000113585
26 *4368:B1 *716:22 1.69451e-05
27 *4372:A3 *4372:A1 0.000194588
28 *4372:B1 *4372:A1 1.89685e-05
29 *4374:A2 *716:69 6.40523e-05
30 *4374:B1 *4372:A1 0
31 *4375:B *4372:A1 0
32 *4376:A3 *4376:A1 5.83121e-06
33 *4378:A2 *4378:A1 9.50342e-06
34 *4378:A3 *4376:A1 1.88904e-05
35 *4378:A3 *4378:A1 0.000160722
36 *4378:A3 *716:89 1.97849e-05
37 *4388:A2 *4388:A1 0.000124895
38 *4388:A2 *716:65 7.40446e-05
39 *4388:A3 *716:52 0
40 *4388:B1 *716:52 0
41 *4389:A1_N *4073:A 2.34423e-05
42 *4389:A1_N *716:41 9.16237e-05
43 *4389:A1_N *716:52 0.000301473
44 *4389:B2 *716:65 2.15025e-05
45 *4432:D *4376:A1 3.81908e-06
46 *4434:CLK *4378:A1 5.63974e-05
47 *4434:RESET_B *4378:A1 0
48 *4444:D *4073:A 0.000138551
49 *4639:A *716:22 9.3062e-06
50 *4642:A *716:52 0.000231564
51 *4856:A *4378:A1 4.13171e-05
52 *122:8 *716:22 0.00010491
53 *123:67 *4073:A 0.000379174
54 *123:67 *716:41 4.21314e-05
55 *123:88 *716:41 0.00011852
56 *123:88 *716:52 0.00017354
57 *126:10 *4073:A 0.000107154
58 *431:10 *716:52 0
59 *432:10 *716:65 0
60 *433:14 *716:52 0
61 *490:30 *4372:A1 0
62 *490:39 *716:65 4.19967e-05
63 *490:39 *716:89 9.49203e-05
64 *490:52 *4378:A1 4.85649e-05
65 *490:52 *716:89 1.1688e-05
66 *650:10 *716:52 0.000203493
67 *650:51 *4372:A1 0
68 *651:66 *4376:A1 5.97883e-06
69 *651:66 *716:65 3.09233e-05
70 *651:66 *716:89 0.000200641
71 *651:86 *716:69 0.000312182
72 *715:75 *716:52 0
*RES
1 *4733:X *716:22 13.2238 
2 *716:22 *716:28 2.89625 
3 *716:28 *4073:A 10.215 
4 *716:28 *716:41 1.89 
5 *716:41 *4732:A 3.6 
6 *716:41 *716:52 13.07 
7 *716:52 *4388:A1 2.74 
8 *716:52 *716:65 10.385 
9 *716:65 *716:69 5.705 
10 *716:69 *4374:A1 1.6 
11 *716:69 *4372:A1 10.295 
12 *716:65 *716:89 3.0375 
13 *716:89 *4376:A1 4.7325 
14 *716:89 *4378:A1 7.6575 
15 *716:22 *4368:B2 1.6 
*END

*D_NET *717 0.00100066
*CONN
*I *4454:D I *D sky130_fd_sc_hd__dfrtp_2
*I *4455:HI O *D sky130_fd_sc_hd__conb_1
*CAP
1 *4454:D 0.000297751
2 *4455:HI 0.000297751
3 *4292:A2 *4454:D 0.00011852
4 *4454:CLK *4454:D 2.75145e-05
5 *208:14 *4454:D 1.1561e-05
6 *467:44 *4454:D 0.00015009
7 *467:46 *4454:D 9.74694e-05
*RES
1 *4455:HI *4454:D 12.66 
*END

*D_NET *718 0.000575587
*CONN
*I *4456:D I *D sky130_fd_sc_hd__dfrtp_2
*I *4839:X O *D sky130_fd_sc_hd__dlygate4sd3_1
*CAP
1 *4456:D 0.000227052
2 *4839:X 0.000227052
3 *4454:RESET_B *4456:D 2.40647e-05
4 *530:18 *4456:D 8.17763e-05
5 *630:44 *4456:D 1.56428e-05
*RES
1 *4839:X *4456:D 10.32 
*END

*D_NET *719 0.00100233
*CONN
*I *4050:B1 I *D sky130_fd_sc_hd__o21a_2
*I *4840:X O *D sky130_fd_sc_hd__dlygate4sd3_1
*CAP
1 *4050:B1 0.000139417
2 *4840:X 0.000139417
3 *3902:C_N *4050:B1 0.000393024
4 *131:17 *4050:B1 1.91597e-05
5 *131:26 *4050:B1 0.000161837
6 *259:50 *4050:B1 8.65905e-05
7 *691:19 *4050:B1 6.28843e-05
*RES
1 *4840:X *4050:B1 12.135 
*END

*D_NET *720 0.0103599
*CONN
*I *4135:A1 I *D sky130_fd_sc_hd__o21ai_2
*I *4127:A1 I *D sky130_fd_sc_hd__o21ai_2
*I *4130:A1 I *D sky130_fd_sc_hd__o21ai_2
*I *4132:A1 I *D sky130_fd_sc_hd__o21ai_2
*I *4122:A1 I *D sky130_fd_sc_hd__o21ai_2
*I *4146:A1 I *D sky130_fd_sc_hd__o21ai_2
*I *4144:A1 I *D sky130_fd_sc_hd__o21ai_2
*I *4124:A1 I *D sky130_fd_sc_hd__o21ai_2
*I *4734:X O *D sky130_fd_sc_hd__clkdlybuf4s25_1
*CAP
1 *4135:A1 0
2 *4127:A1 0.000412827
3 *4130:A1 0.000151916
4 *4132:A1 0.000926828
5 *4122:A1 0.000280191
6 *4146:A1 0
7 *4144:A1 0.000427706
8 *4124:A1 0.000479723
9 *4734:X 0.0006523
10 *720:92 0.000543625
11 *720:61 0.00116589
12 *720:45 0.000280191
13 *720:43 0.000331888
14 *720:26 0.000714226
15 *4144:A1 *4145:A 8.49205e-05
16 *720:26 *4572:D 6.10014e-05
17 *720:43 *4572:D 0.00019194
18 *4124:B1 *4122:A1 8.57024e-05
19 *4127:B1 *4127:A1 0.000176994
20 *4130:A2 *4132:A1 0
21 *4132:A2 *4132:A1 0.00030047
22 *4143:A *4144:A1 2.75145e-05
23 *4144:A2 *4144:A1 1.85674e-05
24 *4144:B1 *4144:A1 8.57024e-05
25 *4145:B *4144:A1 2.93572e-05
26 *4146:A2 *4144:A1 8.8266e-05
27 *4146:A2 *720:43 0.000342247
28 *4477:RESET_B *4132:A1 0
29 *4563:RESET_B *4144:A1 0.000161529
30 *4567:RESET_B *4132:A1 0.0001369
31 *4572:RESET_B *720:26 0
32 *4717:A *4132:A1 0.00022921
33 *4718:A *4132:A1 0
34 *251:40 *4127:A1 0.00048749
35 *251:40 *720:92 0.000203178
36 *531:32 *4124:A1 5.83121e-06
37 *531:32 *720:26 3.37941e-05
38 *659:21 *4132:A1 4.80285e-05
39 *659:27 *4132:A1 1.15688e-05
40 *659:27 *720:43 1.34361e-05
41 *659:27 *720:61 0.000283294
42 *659:46 *4122:A1 4.16445e-05
43 *659:57 *4122:A1 0.00044216
44 *659:81 *4132:A1 2.16917e-05
45 *659:98 *4130:A1 1.83847e-05
46 *659:98 *4132:A1 1.34503e-05
47 *659:98 *720:92 6.1357e-05
48 *699:22 *4132:A1 2.96466e-05
49 *699:24 *720:43 0
50 *699:26 *720:26 0
51 *702:27 *720:43 0
52 *702:27 *720:61 0.000257314
*RES
1 *4734:X *4124:A1 10.325 
2 *4734:X *720:26 6.12 
3 *720:26 *4144:A1 11.085 
4 *720:26 *720:43 4.44 
5 *720:43 *720:45 2 
6 *720:45 *4146:A1 1.6 
7 *720:45 *4122:A1 7.57 
8 *720:43 *720:61 7.97 
9 *720:61 *4132:A1 21.08 
10 *720:61 *4130:A1 2.05 
11 *4130:A1 *720:92 4.465 
12 *720:92 *4127:A1 9.43 
13 *720:92 *4135:A1 1.6 
*END

*D_NET *721 0.00183393
*CONN
*I *4051:B1 I *D sky130_fd_sc_hd__o21a_2
*I *4841:X O *D sky130_fd_sc_hd__dlygate4sd3_1
*CAP
1 *4051:B1 0.000608324
2 *4841:X 0.000608324
3 *4047:B *4051:B1 0
4 *4051:A1 *4051:B1 5.12942e-05
5 *4063:A1 *4051:B1 3.09233e-05
6 *4063:A2 *4051:B1 8.65961e-05
7 *4457:D *4051:B1 1.91597e-05
8 *4465:CLK *4051:B1 0
9 *4465:D *4051:B1 0.00011852
10 *4465:RESET_B *4051:B1 0.000120186
11 *4466:D *4051:B1 0
12 *4466:RESET_B *4051:B1 0
13 *259:44 *4051:B1 5.43211e-05
14 *259:50 *4051:B1 0
15 *471:51 *4051:B1 0
16 *714:61 *4051:B1 0.000136284
*RES
1 *4841:X *4051:B1 18.615 
*END

*D_NET *722 0.000409544
*CONN
*I *4355:B1 I *D sky130_fd_sc_hd__o21a_2
*I *4842:X O *D sky130_fd_sc_hd__dlygate4sd3_1
*CAP
1 *4355:B1 0.000141344
2 *4842:X 0.000141344
3 *4355:B1 *4842:A 5.05437e-05
4 *4355:A2 *4355:B1 7.63125e-05
5 *4422:D *4355:B1 0
*RES
1 *4842:X *4355:B1 9.63 
*END

*D_NET *723 0.000281546
*CONN
*I *4053:B1 I *D sky130_fd_sc_hd__o21a_2
*I *4843:X O *D sky130_fd_sc_hd__dlygate4sd3_1
*CAP
1 *4053:B1 7.4236e-05
2 *4843:X 7.4236e-05
3 *4053:A1 *4053:B1 4.77769e-05
4 *4053:A2 *4053:B1 8.52972e-05
*RES
1 *4843:X *4053:B1 4.685 
*END

*D_NET *724 0.000159393
*CONN
*I *4350:B1 I *D sky130_fd_sc_hd__o31a_2
*I *4844:X O *D sky130_fd_sc_hd__dlygate4sd3_1
*CAP
1 *4350:B1 3.63983e-05
2 *4844:X 3.63983e-05
3 *4350:A2 *4350:B1 8.65961e-05
*RES
1 *4844:X *4350:B1 3.995 
*END

*D_NET *725 0.000155412
*CONN
*I *4354:B1 I *D sky130_fd_sc_hd__o31a_2
*I *4845:X O *D sky130_fd_sc_hd__dlygate4sd3_1
*CAP
1 *4354:B1 3.4408e-05
2 *4845:X 3.4408e-05
3 *4354:A2 *4354:B1 8.65961e-05
*RES
1 *4845:X *4354:B1 3.995 
*END

*D_NET *726 0.000475881
*CONN
*I *4356:B1 I *D sky130_fd_sc_hd__o21a_2
*I *4846:X O *D sky130_fd_sc_hd__dlygate4sd3_1
*CAP
1 *4356:B1 0.000156581
2 *4846:X 0.000156581
3 *4352:B1 *4356:B1 4.65607e-05
4 *4354:A3 *4356:B1 0.000106655
5 *4419:D *4356:B1 0
6 *107:47 *4356:B1 9.50342e-06
*RES
1 *4846:X *4356:B1 9.72 
*END

*D_NET *727 0.000316769
*CONN
*I *4351:B1 I *D sky130_fd_sc_hd__o21a_2
*I *4847:X O *D sky130_fd_sc_hd__dlygate4sd3_1
*CAP
1 *4351:B1 7.93515e-05
2 *4847:X 7.93515e-05
3 *4351:B1 *3909:A 0.000158066
*RES
1 *4847:X *4351:B1 4.685 
*END

*D_NET *728 0.00194826
*CONN
*I *4064:B1 I *D sky130_fd_sc_hd__o31a_2
*I *4848:X O *D sky130_fd_sc_hd__dlygate4sd3_1
*CAP
1 *4064:B1 0.000354572
2 *4848:X 0.000354572
3 *3896:B *4064:B1 0.000144647
4 *3906:B *4064:B1 1.10951e-05
5 *3906:C *4064:B1 0.000153058
6 *3913:A2 *4064:B1 8.52972e-05
7 *4064:A1 *4064:B1 8.23457e-05
8 *4064:A2 *4064:B1 1.54665e-05
9 *4064:A3 *4064:B1 4.31915e-05
10 *4457:RESET_B *4064:B1 0.000226167
11 *86:8 *4064:B1 1.0397e-05
12 *86:65 *4064:B1 1.21329e-05
13 *668:44 *4064:B1 0.000361539
14 *686:10 *4064:B1 9.37846e-05
*RES
1 *4848:X *4064:B1 17.4 
*END

*D_NET *729 0.000401245
*CONN
*I *4307:A I *D sky130_fd_sc_hd__nor2_2
*I *4849:X O *D sky130_fd_sc_hd__dlygate4sd3_1
*CAP
1 *4307:A 5.65703e-05
2 *4849:X 5.65703e-05
3 *4307:A *4308:A 0.000201508
4 *4307:A *4308:B 8.65961e-05
*RES
1 *4849:X *4307:A 5.03 
*END

*D_NET *730 0.000199418
*CONN
*I *4264:A I *D sky130_fd_sc_hd__nor2_2
*I *4850:X O *D sky130_fd_sc_hd__dlygate4sd3_1
*CAP
1 *4264:A 9.97088e-05
2 *4850:X 9.97088e-05
*RES
1 *4850:X *4264:A 4.685 
*END

*D_NET *731 0.000398159
*CONN
*I *4731:A I *D sky130_fd_sc_hd__clkdlybuf4s25_1
*I *4456:Q O *D sky130_fd_sc_hd__dfrtp_2
*CAP
1 *4731:A 0.000152742
2 *4456:Q 0.000152742
3 *4731:A *4501:D 3.25997e-05
4 *4704:A *4731:A 0
5 *685:8 *4731:A 5.30673e-05
6 *685:21 *4731:A 0
7 *685:50 *4731:A 7.00889e-06
*RES
1 *4456:Q *4731:A 10.14 
*END

*D_NET *732 0.00166977
*CONN
*I *3910:C I *D sky130_fd_sc_hd__or4_2
*I *4736:A I *D sky130_fd_sc_hd__dlygate4sd3_1
*I *4416:Q O *D sky130_fd_sc_hd__dfrtp_2
*CAP
1 *3910:C 5.26947e-05
2 *4736:A 0.000115145
3 *4416:Q 9.2431e-05
4 *732:10 0.00026027
5 *3895:D *732:10 4.82863e-05
6 *4068:B *4736:A 0.000423626
7 *4068:C *4736:A 7.99757e-05
8 *4349:A3 *732:10 5.65627e-05
9 *4349:B1 *4736:A 0.000108031
10 *4349:B2 *3910:C 8.35683e-05
11 *4349:B2 *732:10 5.4003e-05
12 *261:69 *3910:C 0
13 *264:8 *3910:C 0.000136877
14 *264:8 *732:10 0.000158297
*RES
1 *4416:Q *732:10 5.94 
2 *732:10 *4736:A 7.86 
3 *732:10 *3910:C 5.235 
*END

*D_NET *733 0.000478834
*CONN
*I *4844:A I *D sky130_fd_sc_hd__dlygate4sd3_1
*I *3911:C I *D sky130_fd_sc_hd__or4_2
*I *4417:Q O *D sky130_fd_sc_hd__dfrtp_2
*CAP
1 *4844:A 8.2023e-05
2 *3911:C 0.000149694
3 *4417:Q 6.76713e-05
4 *4844:A *3911:D 5.53249e-06
5 *3892:A *4844:A 6.23119e-05
6 *86:25 *3911:C 4.51031e-05
7 *670:29 *4844:A 6.64979e-05
*RES
1 *4417:Q *3911:C 4.34 
2 *3911:C *4844:A 9.09 
*END

*D_NET *734 0.00260074
*CONN
*I *3909:A I *D sky130_fd_sc_hd__or3_2
*I *4847:A I *D sky130_fd_sc_hd__dlygate4sd3_1
*I *4418:Q O *D sky130_fd_sc_hd__dfrtp_2
*CAP
1 *3909:A 0.00027799
2 *4847:A 0.000824044
3 *4418:Q 0.000546054
4 *3909:A *3909:B 6.97202e-05
5 *4847:A *735:12 3.72916e-05
6 *3909:C *3909:A 4.21973e-05
7 *4351:A2 *3909:A 9.53428e-06
8 *4351:B1 *3909:A 0.000158066
9 *4419:RESET_B *4847:A 2.20753e-05
10 *4644:A *4847:A 0.000352447
11 *138:40 *3909:A 0.000144467
12 *676:18 *4847:A 0.000116853
*RES
1 *4418:Q *4847:A 15.69 
2 *4847:A *3909:A 8.945 
*END

*D_NET *735 0.00148149
*CONN
*I *4739:A I *D sky130_fd_sc_hd__dlygate4sd3_1
*I *3912:A1 I *D sky130_fd_sc_hd__o311a_2
*I *4419:Q O *D sky130_fd_sc_hd__dfrtp_2
*CAP
1 *4739:A 6.40191e-05
2 *3912:A1 5.37733e-05
3 *4419:Q 0.000266767
4 *735:12 0.00038456
5 *3912:A1 *3912:A2 4.82863e-05
6 *735:12 *739:8 6.02123e-05
7 *3912:A3 *3912:A1 9.61248e-05
8 *3912:B1 *3912:A1 3.15199e-05
9 *3912:B1 *4739:A 0.000184866
10 *3913:B2 *3912:A1 4.21973e-05
11 *3913:B2 *4739:A 0.000179035
12 *4701:A *3912:A1 3.28386e-05
13 *4847:A *735:12 3.72916e-05
14 *107:47 *735:12 0
15 *138:25 *735:12 0
16 *676:16 *735:12 0
*RES
1 *4419:Q *735:12 9.815 
2 *735:12 *3912:A1 3.445 
3 *735:12 *4739:A 4.465 
*END

*D_NET *736 0.00250978
*CONN
*I *3910:D I *D sky130_fd_sc_hd__or4_2
*I *4740:A I *D sky130_fd_sc_hd__dlygate4sd3_1
*I *4420:Q O *D sky130_fd_sc_hd__dfrtp_2
*CAP
1 *3910:D 0.000174668
2 *4740:A 0.000237169
3 *4420:Q 0
4 *736:6 0.000411836
5 *4740:A *4693:A 4.82863e-05
6 *4349:B2 *3910:D 1.56428e-05
7 *4353:B1 *4740:A 1.34594e-05
8 *4474:D *4740:A 0
9 *4475:CLK *3910:D 0.000120186
10 *4475:CLK *4740:A 0.000369676
11 *264:8 *3910:D 0.000475075
12 *264:8 *4740:A 0.00027939
13 *470:20 *3910:D 0.000364392
*RES
1 *4420:Q *736:6 3.6 
2 *736:6 *4740:A 9.645 
3 *736:6 *3910:D 9.765 
*END

*D_NET *737 0.00109247
*CONN
*I *4845:A I *D sky130_fd_sc_hd__dlygate4sd3_1
*I *3911:D I *D sky130_fd_sc_hd__or4_2
*I *4421:Q O *D sky130_fd_sc_hd__dfrtp_2
*CAP
1 *4845:A 0.000136924
2 *3911:D 0.000115998
3 *4421:Q 0.000142568
4 *737:6 0.000395491
5 *3892:A *3911:D 0.000210151
6 *3892:B *4845:A 5.83121e-06
7 *3912:C1 *3911:D 0
8 *3912:C1 *4845:A 6.28765e-05
9 *4350:A3 *3911:D 0
10 *4844:A *3911:D 5.53249e-06
11 *127:8 *3911:D 1.71013e-05
12 *127:8 *4845:A 0
13 *670:29 *3911:D 0
14 *670:31 *3911:D 0
*RES
1 *4421:Q *737:6 3.085 
2 *737:6 *3911:D 8.51 
3 *737:6 *4845:A 7.775 
*END

*D_NET *738 0.00144984
*CONN
*I *3909:B I *D sky130_fd_sc_hd__or3_2
*I *4842:A I *D sky130_fd_sc_hd__dlygate4sd3_1
*I *4422:Q O *D sky130_fd_sc_hd__dfrtp_2
*CAP
1 *3909:B 0.000245338
2 *4842:A 0.000446118
3 *4422:Q 0.00020078
4 *3909:A *3909:B 6.97202e-05
5 *4261:A1 *3909:B 4.66108e-05
6 *4261:A1 *4842:A 5.83121e-06
7 *4262:B *3909:B 2.97004e-06
8 *4355:B1 *4842:A 5.05437e-05
9 *107:24 *3909:B 1.83847e-05
10 *107:24 *4842:A 2.49909e-05
11 *111:18 *3909:B 3.86529e-05
12 *494:12 *3909:B 0.000181376
13 *494:23 *3909:B 0.000118527
*RES
1 *4422:Q *4842:A 6.41 
2 *4842:A *3909:B 12.21 
*END

*D_NET *739 0.000672673
*CONN
*I *4846:A I *D sky130_fd_sc_hd__dlygate4sd3_1
*I *3912:A2 I *D sky130_fd_sc_hd__o311a_2
*I *4423:Q O *D sky130_fd_sc_hd__dfrtp_2
*CAP
1 *4846:A 8.75021e-05
2 *3912:A2 9.73191e-06
3 *4423:Q 9.11966e-05
4 *739:8 0.000188431
5 *3912:A1 *3912:A2 4.82863e-05
6 *3912:C1 *4846:A 6.14602e-05
7 *3912:C1 *739:8 2.97004e-06
8 *4701:A *3912:A2 4.82863e-05
9 *107:47 *739:8 0
10 *127:12 *4846:A 6.23206e-05
11 *127:12 *739:8 1.22762e-05
12 *735:12 *739:8 6.02123e-05
*RES
1 *4423:Q *739:8 5.235 
2 *739:8 *3912:A2 4.05 
3 *739:8 *4846:A 5.49 
*END

*D_NET *740 0.000925061
*CONN
*I *4839:A I *D sky130_fd_sc_hd__dlygate4sd3_1
*I *4454:Q O *D sky130_fd_sc_hd__dfrtp_2
*CAP
1 *4839:A 0.000202405
2 *4454:Q 0.000202405
3 *4501:RESET_B *4839:A 7.23602e-05
4 *208:24 *4839:A 0.000224171
5 *685:21 *4839:A 0.00022372
*RES
1 *4454:Q *4839:A 11.76 
*END

*D_NET *741 0.00629105
*CONN
*I *3924:A I *D sky130_fd_sc_hd__nand2_2
*I *3920:A I *D sky130_fd_sc_hd__nand2_2
*I *3934:A1 I *D sky130_fd_sc_hd__a32o_2
*I *3925:A1 I *D sky130_fd_sc_hd__a31oi_2
*I *3945:A1 I *D sky130_fd_sc_hd__a32o_2
*I *3921:A1 I *D sky130_fd_sc_hd__a31oi_2
*I *4476:Q O *D sky130_fd_sc_hd__dfrtp_2
*CAP
1 *3924:A 3.85516e-05
2 *3920:A 1.06134e-05
3 *3934:A1 0.000147685
4 *3925:A1 0
5 *3945:A1 0.000214267
6 *3921:A1 3.93004e-05
7 *4476:Q 0.000899965
8 *741:46 0.000147685
9 *741:31 0.000594782
10 *741:14 0.000463696
11 *741:12 0.00039063
12 *741:6 0.00127465
13 *3920:B *741:12 1.19928e-05
14 *3921:A2 *3920:A 4.44927e-05
15 *3921:A2 *3921:A1 0.00011379
16 *3921:A2 *741:14 0.000202314
17 *3921:B1 *3920:A 5.4003e-05
18 *3921:B1 *3921:A1 0.00011379
19 *3921:B1 *741:14 0.000209179
20 *3924:B *741:12 4.8854e-05
21 *3925:A2 *3945:A1 5.53249e-06
22 *3925:A2 *741:31 6.02123e-05
23 *3925:A3 *3934:A1 0
24 *3934:A2 *3934:A1 0.00030615
25 *3934:A3 *3934:A1 0.000154098
26 *3945:A2 *3945:A1 7.60048e-05
27 *3945:A3 *3945:A1 0.000235573
28 *4414:D *3945:A1 5.2961e-05
29 *449:222 *3945:A1 0.000119447
30 *449:222 *741:31 5.65627e-05
31 *664:43 *741:12 3.64998e-06
32 *696:10 *3945:A1 0.000200615
*RES
1 *4476:Q *741:6 14.815 
2 *741:6 *741:12 6.605 
3 *741:12 *741:14 2.4 
4 *741:14 *3921:A1 4.98 
5 *741:14 *741:31 8.59 
6 *741:31 *3945:A1 9.48 
7 *741:31 *741:46 2 
8 *741:46 *3925:A1 1.6 
9 *741:46 *3934:A1 5.53 
10 *741:12 *3920:A 4.215 
11 *741:6 *3924:A 2.41 
*END

*D_NET *742 0.00665512
*CONN
*I *3866:A I *D sky130_fd_sc_hd__nand2_2
*I *4363:B2 I *D sky130_fd_sc_hd__a221o_2
*I *4364:A I *D sky130_fd_sc_hd__nand2_2
*I *3867:A I *D sky130_fd_sc_hd__and3_2
*I *3859:A I *D sky130_fd_sc_hd__and3_2
*I *3858:A I *D sky130_fd_sc_hd__nand2_2
*I *4426:Q O *D sky130_fd_sc_hd__dfrtp_2
*CAP
1 *3866:A 0.000260287
2 *4363:B2 0.000128758
3 *4364:A 0
4 *3867:A 0
5 *3859:A 0.000272834
6 *3858:A 0
7 *4426:Q 0.000289082
8 *742:26 0.000629396
9 *742:18 0.000616288
10 *742:12 0.00090497
11 *742:6 0.000802796
12 *3858:B *3859:A 0.000172547
13 *3866:B *3866:A 0.00016113
14 *3894:B *742:26 0.000178496
15 *3925:A2 *3859:A 2.65814e-06
16 *3949:A1 *3866:A 8.75068e-05
17 *3950:A1 *3859:A 0
18 *4362:A *742:18 0.000140244
19 *4363:A1 *4363:B2 3.58971e-06
20 *4363:B1 *4363:B2 3.58971e-06
21 *4363:B1 *742:18 0.000273933
22 *4363:C1 *4363:B2 9.06748e-06
23 *4364:B *742:18 0.000168956
24 *4365:B2 *4363:B2 1.29378e-07
25 *4410:CLK *742:26 0.000185405
26 *4410:RESET_B *3859:A 1.01661e-05
27 *4426:CLK *742:12 4.31127e-05
28 *4426:D *742:12 3.72007e-05
29 *4757:A *3866:A 8.20398e-05
30 *4757:A *4363:B2 8.9257e-05
31 *4757:A *742:6 2.69217e-05
32 *4757:A *742:12 2.49909e-05
33 *4800:A *742:26 0.000272978
34 *171:10 *4363:B2 8.73589e-05
35 *171:20 *4363:B2 2.69153e-05
36 *482:10 *742:18 3.47498e-05
37 *482:10 *742:26 0.000132096
38 *482:12 *742:26 0.000179922
39 *482:69 *742:12 1.82571e-05
40 *482:69 *742:18 9.12857e-06
41 *521:66 *4363:B2 0.000192917
42 *583:10 *3859:A 9.54469e-05
43 *687:26 *742:18 0
*RES
1 *4426:Q *742:6 2.05 
2 *742:6 *742:12 9.35 
3 *742:12 *742:18 9.53 
4 *742:18 *742:26 13.27 
5 *742:26 *3858:A 1.6 
6 *742:26 *3859:A 10.205 
7 *742:18 *3867:A 1.6 
8 *742:12 *4364:A 3.6 
9 *742:6 *4363:B2 8.91875 
10 *4426:Q *3866:A 12.45 
*END

*D_NET *743 0.00499548
*CONN
*I *4760:A I *D sky130_fd_sc_hd__dlygate4sd3_1
*I *4357:A I *D sky130_fd_sc_hd__or3b_2
*I *3928:B I *D sky130_fd_sc_hd__and2b_2
*I *4452:Q O *D sky130_fd_sc_hd__dfrtp_2
*CAP
1 *4760:A 0.000346865
2 *4357:A 0.000619461
3 *3928:B 0
4 *4452:Q 0
5 *743:10 0.00124886
6 *743:4 0.000976268
7 *4760:A *3927:B 1.07797e-05
8 *4760:A *744:34 0.000157551
9 *3926:A2 *4357:A 0
10 *3934:A2 *4357:A 0.000139933
11 *4358:A2 *4760:A 5.17863e-05
12 *4358:B2 *4760:A 7.9642e-06
13 *4452:CLK *743:10 6.97034e-05
14 *4452:D *743:10 1.03323e-05
15 *4452:RESET_B *4760:A 0.000269292
16 *4452:RESET_B *743:10 8.33297e-05
17 *4713:A *4760:A 9.37731e-05
18 *4713:A *743:10 4.25184e-05
19 *4714:A *4357:A 7.5416e-05
20 *154:16 *4357:A 0.000200063
21 *154:16 *743:10 5.20968e-05
22 *157:10 *4357:A 0
23 *695:14 *4760:A 4.66108e-05
24 *695:26 *4760:A 0.000178432
25 *696:10 *4357:A 0
26 *696:10 *743:10 0
27 *713:12 *4357:A 0.000314438
*RES
1 *4452:Q *743:4 1.6 
2 *743:4 *743:10 9.785 
3 *743:10 *3928:B 3.6 
4 *743:10 *4357:A 15.615 
5 *743:4 *4760:A 13.055 
*END

*D_NET *744 0.00527303
*CONN
*I *3856:B1 I *D sky130_fd_sc_hd__o31ai_2
*I *3855:A I *D sky130_fd_sc_hd__nor2_2
*I *4793:A I *D sky130_fd_sc_hd__dlygate4sd3_1
*I *4424:Q O *D sky130_fd_sc_hd__dfrtp_2
*CAP
1 *3856:B1 0
2 *3855:A 0.000114089
3 *4793:A 0.000165266
4 *4424:Q 0.00125778
5 *744:34 0.0012066
6 *4793:A *3927:B 1.01155e-05
7 *3927:A_N *4793:A 0
8 *3929:B1 *4793:A 0.000239205
9 *3941:B *744:34 2.50049e-05
10 *4358:A1 *744:34 0.000467273
11 *4400:RESET_B *3855:A 4.57032e-05
12 *4402:CLK *3855:A 5.67263e-05
13 *4404:D *744:34 0.000312083
14 *4453:D *4793:A 0
15 *4453:RESET_B *744:34 8.59365e-05
16 *4752:A *3855:A 0
17 *4760:A *744:34 0.000157551
18 *100:14 *3855:A 0.000200185
19 *102:34 *3855:A 2.05056e-05
20 *476:12 *744:34 0
21 *476:34 *744:34 0.000236227
22 *523:22 *744:34 2.8185e-05
23 *529:23 *744:34 0.000203671
24 *529:27 *744:34 0.000113247
25 *695:14 *744:34 0.000319693
26 *695:26 *4793:A 7.98007e-06
*RES
1 *4424:Q *4793:A 10.62 
2 *4424:Q *744:34 27.98 
3 *744:34 *3855:A 8.375 
4 *744:34 *3856:B1 1.6 
*END

*D_NET *745 0.00313804
*CONN
*I *3929:A1 I *D sky130_fd_sc_hd__a311o_2
*I *3926:A1 I *D sky130_fd_sc_hd__a22o_2
*I *3923:A1 I *D sky130_fd_sc_hd__a22o_2
*I *4451:Q O *D sky130_fd_sc_hd__dfstp_2
*CAP
1 *3929:A1 0.000415991
2 *3926:A1 0
3 *3923:A1 0.000251117
4 *4451:Q 5.12312e-05
5 *745:27 0.000560391
6 *745:6 0.000446749
7 *3923:A2 *3923:A1 0.000177777
8 *3923:B2 *3923:A1 0
9 *3926:A2 *745:27 4.1652e-06
10 *3926:B1 *3929:A1 5.8188e-05
11 *3926:B2 *3929:A1 0.000143329
12 *3929:A2 *3929:A1 2.68526e-05
13 *3929:A3 *3929:A1 3.09164e-05
14 *3929:C1 *3929:A1 0
15 *4357:B *3929:A1 2.50049e-05
16 *4451:D *3929:A1 0
17 *4451:SET_B *745:6 8.23457e-05
18 *4451:SET_B *745:27 7.44125e-05
19 *4452:CLK *3929:A1 9.58867e-05
20 *4452:D *3923:A1 0.000248254
21 *4452:D *745:27 4.70999e-05
22 *4453:D *3923:A1 3.4437e-05
23 *154:16 *3923:A1 0.000265068
24 *154:38 *3929:A1 2.8185e-05
25 *476:70 *3929:A1 7.06347e-05
*RES
1 *4451:Q *745:6 2.395 
2 *745:6 *3923:A1 11.96 
3 *745:6 *745:27 6.43 
4 *745:27 *3926:A1 1.6 
5 *745:27 *3929:A1 13.01 
*END

*D_NET *746 0.00461684
*CONN
*I *4357:C_N I *D sky130_fd_sc_hd__or3b_2
*I *3922:A I *D sky130_fd_sc_hd__nand2_2
*I *4790:A I *D sky130_fd_sc_hd__dlygate4sd3_1
*I *3927:B I *D sky130_fd_sc_hd__and2b_2
*I *4453:Q O *D sky130_fd_sc_hd__dfrtp_2
*CAP
1 *4357:C_N 0.000203863
2 *3922:A 4.79093e-05
3 *4790:A 0.000107061
4 *3927:B 0.000339414
5 *4453:Q 0.000140803
6 *746:32 0.000382614
7 *746:10 0.000507126
8 *746:8 0.000332297
9 *3929:A2 *4357:C_N 5.47426e-05
10 *3929:B1 *3922:A 8.52845e-05
11 *3929:B1 *3927:B 0.00065887
12 *3929:B1 *4357:C_N 2.01779e-05
13 *3929:B1 *746:10 0.000103976
14 *3929:B1 *746:32 0.000231791
15 *3929:C1 *746:10 0
16 *3929:C1 *746:32 0
17 *4358:A1 *3922:A 4.66108e-05
18 *4358:B1 *4357:C_N 2.14005e-05
19 *4358:B1 *746:32 0
20 *4451:CLK *4790:A 0.000266164
21 *4451:D *3922:A 1.77595e-05
22 *4453:RESET_B *746:8 0.000116497
23 *4629:A *4357:C_N 0.000196052
24 *4713:A *3927:B 5.04907e-05
25 *4713:A *4790:A 0.000225285
26 *4713:A *746:10 1.22762e-05
27 *4719:A *746:8 3.21052e-05
28 *4760:A *3927:B 1.07797e-05
29 *4793:A *3927:B 1.01155e-05
30 *476:70 *4790:A 6.52265e-05
31 *695:26 *3927:B 0.000330147
*RES
1 *4453:Q *746:8 5.43 
2 *746:8 *746:10 1.38 
3 *746:10 *3927:B 12.09 
4 *746:10 *4790:A 6.81 
5 *746:8 *746:32 2.91 
6 *746:32 *3922:A 4.74 
7 *746:32 *4357:C_N 7.665 
*END

*D_NET *747 0.008557
*CONN
*I *3847:B1 I *D sky130_fd_sc_hd__o21ai_2
*I *3862:A I *D sky130_fd_sc_hd__or3_2
*I *3851:A2 I *D sky130_fd_sc_hd__a31oi_2
*I *3849:A2 I *D sky130_fd_sc_hd__a21oi_2
*I *4360:A1 I *D sky130_fd_sc_hd__a22o_2
*I *4359:A I *D sky130_fd_sc_hd__nand2_2
*I *3861:A I *D sky130_fd_sc_hd__nor2_2
*I *3919:A1 I *D sky130_fd_sc_hd__a221o_2
*I *4448:Q O *D sky130_fd_sc_hd__dfstp_2
*CAP
1 *3847:B1 0.000208653
2 *3862:A 0
3 *3851:A2 3.3804e-05
4 *3849:A2 0.000986226
5 *4360:A1 0.000146794
6 *4359:A 9.03069e-05
7 *3861:A 7.77117e-06
8 *3919:A1 9.47249e-05
9 *4448:Q 0
10 *747:55 0.00120186
11 *747:53 0.000231121
12 *747:40 0.000549248
13 *747:34 0.000350381
14 *747:25 0.000131771
15 *747:19 0.000345623
16 *747:4 0.000127613
17 *3861:A *3862:C 4.82863e-05
18 *747:25 *3942:A_N 0
19 *747:34 *3862:C 0.000123225
20 *3846:B *3847:B1 5.83121e-06
21 *3851:A1 *3849:A2 0
22 *3851:A3 *3847:B1 1.34503e-05
23 *3851:A3 *747:25 0
24 *3851:A3 *747:40 0.000302409
25 *3862:B *747:40 0.000116853
26 *3870:B1 *3851:A2 4.14369e-05
27 *3870:B1 *747:40 0
28 *3870:B1 *747:55 9.37731e-05
29 *3942:B *3847:B1 1.48096e-05
30 *3942:C *3847:B1 0.00027299
31 *3942:C *747:25 1.70935e-05
32 *4353:A3 *3919:A1 0.000156244
33 *4359:B *3851:A2 4.66108e-05
34 *4359:B *4359:A 2.94433e-05
35 *4359:B *747:53 0.000197264
36 *4360:B1 *4360:A1 3.00381e-05
37 *4360:B1 *747:40 1.22676e-05
38 *4360:B1 *747:55 0
39 *4360:B2 *4360:A1 8.49205e-05
40 *4409:CLK *3849:A2 0.000295279
41 *4409:D *3849:A2 3.43327e-05
42 *4449:CLK *3847:B1 0.000158297
43 *4471:CLK *4360:A1 0.000122663
44 *4471:CLK *747:55 2.92496e-05
45 *4529:CLK *3849:A2 4.66108e-05
46 *3:16 *747:25 0.000124942
47 *3:16 *747:40 0
48 *107:111 *3849:A2 0.000431794
49 *111:10 *747:25 0
50 *111:18 *3847:B1 0.000309618
51 *111:18 *3919:A1 8.23457e-05
52 *111:18 *747:19 8.49205e-05
53 *150:18 *3861:A 4.99619e-05
54 *150:18 *747:34 0.000113237
55 *150:37 *3919:A1 0.00015555
56 *160:10 *3847:B1 0.000137578
57 *160:27 *3847:B1 1.26626e-05
58 *449:226 *3851:A2 2.49909e-05
59 *449:226 *4359:A 2.50602e-05
60 *495:33 *3851:A2 4.9968e-05
61 *495:33 *747:55 0.000152127
62 *519:26 *3849:A2 2.97004e-06
*RES
1 *4448:Q *747:4 1.6 
2 *747:4 *3919:A1 8.285 
3 *747:4 *747:19 0.795 
4 *747:19 *747:25 6.4 
5 *747:25 *3861:A 2.05 
6 *747:25 *747:34 1.14 
7 *747:34 *747:40 10.99 
8 *747:40 *4359:A 3.01 
9 *747:40 *747:53 3.83 
10 *747:53 *747:55 2.145 
11 *747:55 *4360:A1 6.585 
12 *747:55 *3849:A2 21.055 
13 *747:53 *3851:A2 4.665 
14 *747:34 *3862:A 1.6 
15 *747:19 *3847:B1 11.735 
*END

*D_NET *748 0.00300229
*CONN
*I *4045:C_N I *D sky130_fd_sc_hd__or3b_2
*I *4796:A I *D sky130_fd_sc_hd__dlygate4sd3_1
*I *3931:B I *D sky130_fd_sc_hd__or3_2
*I *3942:A_N I *D sky130_fd_sc_hd__and4b_2
*I *4838:A I *D sky130_fd_sc_hd__dlygate4sd3_1
*I *4449:Q O *D sky130_fd_sc_hd__dfrtp_2
*CAP
1 *4045:C_N 0.000111952
2 *4796:A 7.95201e-05
3 *3931:B 0
4 *3942:A_N 9.87703e-05
5 *4838:A 5.32439e-05
6 *4449:Q 0.000261984
7 *748:52 0.0003562
8 *748:23 0.000655681
9 *748:6 0.000707411
10 *4045:C_N *750:14 0
11 *4838:A *749:8 0
12 *3851:A3 *3942:A_N 4.99619e-05
13 *3919:B2 *748:23 0
14 *3919:C1 *748:23 4.01535e-05
15 *3942:C *3942:A_N 4.82863e-05
16 *4045:B *4045:C_N 0
17 *4045:B *4838:A 7.06865e-05
18 *4045:B *748:52 0
19 *4349:A3 *748:23 0.000132655
20 *4353:A3 *4838:A 6.28765e-05
21 *4449:RESET_B *748:6 3.51231e-05
22 *4449:RESET_B *748:52 8.8266e-05
23 *4700:A *748:52 0
24 *3:16 *748:23 1.10983e-05
25 *84:8 *3942:A_N 0
26 *111:10 *3942:A_N 3.67779e-05
27 *111:61 *3942:A_N 3.4222e-05
28 *111:61 *748:23 6.74157e-05
29 *149:18 *4045:C_N 0
30 *149:18 *748:52 0
31 *681:10 *748:52 0
32 *681:12 *748:52 0
33 *747:25 *3942:A_N 0
*RES
1 *4449:Q *748:6 2.74 
2 *748:6 *4838:A 6.98 
3 *748:6 *748:23 10.085 
4 *748:23 *3942:A_N 5.685 
5 *748:23 *3931:B 3.6 
6 *4449:Q *748:52 6.03 
7 *748:52 *4796:A 4.74 
8 *748:52 *4045:C_N 5.49 
*END

*D_NET *749 0.00484992
*CONN
*I *3914:A I *D sky130_fd_sc_hd__and2_2
*I *3931:A I *D sky130_fd_sc_hd__or3_2
*I *3835:A I *D sky130_fd_sc_hd__inv_2
*I *3862:C I *D sky130_fd_sc_hd__or3_2
*I *3861:B I *D sky130_fd_sc_hd__nor2_2
*I *4450:Q O *D sky130_fd_sc_hd__dfrtp_2
*CAP
1 *3914:A 0.000209035
2 *3931:A 9.61251e-05
3 *3835:A 4.3211e-05
4 *3862:C 0.000117063
5 *3861:B 0
6 *4450:Q 0
7 *749:42 0.000477104
8 *749:14 0.000442255
9 *749:8 0.000803965
10 *749:6 0.000350039
11 *3846:B *3862:C 0
12 *3861:A *3862:C 4.82863e-05
13 *3916:A *749:8 0
14 *3918:A *749:42 0.000339883
15 *3918:B *3914:A 0.000237243
16 *3918:B *749:42 5.83121e-06
17 *3919:A2 *3862:C 0.000351028
18 *3919:A2 *749:8 0
19 *3919:A2 *749:14 4.35432e-05
20 *3919:C1 *3835:A 4.52157e-05
21 *3919:C1 *3931:A 2.66586e-05
22 *3919:C1 *749:8 2.51475e-05
23 *3919:C1 *749:42 6.33985e-06
24 *3931:C *3931:A 2.75229e-05
25 *4045:B *3914:A 0
26 *4045:B *749:8 0
27 *4353:A3 *749:8 0
28 *4448:D *749:42 0.000201508
29 *4448:SET_B *749:8 9.07342e-05
30 *4448:SET_B *749:14 7.37109e-05
31 *4449:RESET_B *3914:A 6.52265e-05
32 *4701:A *3914:A 5.49536e-05
33 *4838:A *749:8 0
34 *107:24 *749:14 0.000209846
35 *150:18 *3862:C 9.37973e-05
36 *150:18 *749:14 4.41506e-05
37 *150:37 *749:8 0
38 *681:12 *3914:A 4.28483e-05
39 *681:12 *749:8 1.94892e-05
40 *681:53 *749:14 0
41 *682:8 *3914:A 0.00013493
42 *682:14 *749:14 0
43 *747:34 *3862:C 0.000123225
*RES
1 *4450:Q *749:6 3.6 
2 *749:6 *749:8 3.165 
3 *749:8 *749:14 8.54 
4 *749:14 *3861:B 1.6 
5 *749:14 *3862:C 5.53 
6 *749:8 *749:42 8.21 
7 *749:42 *3835:A 2.9125 
8 *749:42 *3931:A 3.445 
9 *749:6 *3914:A 8.88 
*END

*D_NET *750 0.00370999
*CONN
*I *3953:B I *D sky130_fd_sc_hd__nor2_2
*I *3954:B I *D sky130_fd_sc_hd__nor2_2
*I *4450:D I *D sky130_fd_sc_hd__dfrtp_2
*I *4045:A I *D sky130_fd_sc_hd__or3b_2
*I *3848:Y O *D sky130_fd_sc_hd__inv_2
*CAP
1 *3953:B 0
2 *3954:B 6.14903e-05
3 *4450:D 0.000158171
4 *4045:A 0
5 *3848:Y 0.000284353
6 *750:27 0.000219661
7 *750:25 0.00053679
8 *750:14 0.000821143
9 *3912:B1 *4450:D 0
10 *4045:B *750:14 0.000143266
11 *4045:C_N *750:14 0
12 *4353:A3 *750:14 0.00011741
13 *111:28 *4450:D 0.000409118
14 *148:12 *3954:B 0.000163992
15 *148:12 *4450:D 0.000364625
16 *149:12 *4450:D 7.4027e-05
17 *258:12 *750:25 0.000241483
18 *494:32 *3954:B 6.0236e-05
19 *494:32 *4450:D 5.42303e-05
*RES
1 *3848:Y *750:14 10.97 
2 *750:14 *4045:A 1.6 
3 *750:14 *750:25 8.415 
4 *750:25 *750:27 2 
5 *750:27 *4450:D 9.825 
6 *750:27 *3954:B 5.49 
7 *750:25 *3953:B 1.6 
*END

*D_NET *751 0.00219747
*CONN
*I *4057:B I *D sky130_fd_sc_hd__or3b_2
*I *4069:B I *D sky130_fd_sc_hd__nor3_2
*I *4070:B I *D sky130_fd_sc_hd__or3_2
*I *4449:D I *D sky130_fd_sc_hd__dfrtp_2
*I *3917:X O *D sky130_fd_sc_hd__a21o_2
*CAP
1 *4057:B 7.22028e-05
2 *4069:B 8.40434e-05
3 *4070:B 4.52773e-05
4 *4449:D 3.99824e-05
5 *3917:X 0.000117285
6 *751:23 0.000314926
7 *751:12 0.000225588
8 *751:10 0.000189487
9 *4069:C *4069:B 8.40269e-05
10 *4071:A3 *4069:B 0.000116158
11 *4349:A3 *4057:B 0.00019996
12 *4349:A3 *751:10 0.000229904
13 *4449:CLK *751:10 0.0001032
14 *4688:A *4069:B 0
15 *4688:A *4070:B 0
16 *3:22 *751:10 5.20662e-05
17 *96:12 *751:23 4.41506e-05
18 *96:18 *4069:B 0.000130721
19 *96:18 *4070:B 5.23362e-05
20 *160:27 *4070:B 2.60908e-05
21 *160:27 *751:10 0
22 *160:38 *4057:B 0
23 *160:38 *751:10 0
24 *264:8 *4057:B 7.00642e-05
*RES
1 *3917:X *751:10 7.05 
2 *751:10 *751:12 2 
3 *751:12 *4449:D 2.05 
4 *751:12 *751:23 4.52 
5 *751:23 *4070:B 4.725 
6 *751:23 *4069:B 6.03 
7 *751:10 *4057:B 6 
*END

*D_NET *752 0.00274436
*CONN
*I *3930:A2 I *D sky130_fd_sc_hd__a21bo_2
*I *3850:A_N I *D sky130_fd_sc_hd__nand2b_2
*I *4771:A I *D sky130_fd_sc_hd__dlygate4sd3_1
*I *4425:Q O *D sky130_fd_sc_hd__dfrtp_2
*CAP
1 *3930:A2 0.00014695
2 *3850:A_N 0.000135434
3 *4771:A 9.57233e-05
4 *4425:Q 0
5 *752:19 0.000444113
6 *752:6 0.000257452
7 *3851:A1 *4771:A 0.000121241
8 *3851:A1 *752:19 0.000163585
9 *3915:A0 *3850:A_N 8.40213e-05
10 *3915:A1 *3850:A_N 2.0514e-05
11 *3932:A *3930:A2 8.65905e-05
12 *3933:A2 *3930:A2 0.000126679
13 *3933:A2 *752:19 0.000354215
14 *3944:B1 *3850:A_N 4.66108e-05
15 *4406:CLK *3930:A2 0
16 *4406:CLK *752:19 0
17 *4688:A *3850:A_N 6.03525e-05
18 *150:18 *3850:A_N 9.2006e-05
19 *161:10 *3930:A2 2.92496e-05
20 *167:35 *3930:A2 8.57321e-05
21 *449:226 *4771:A 7.10578e-05
22 *518:38 *3930:A2 0.00014132
23 *519:38 *3850:A_N 6.12198e-05
24 *669:46 *4771:A 7.20861e-05
25 *669:46 *752:19 4.82117e-05
*RES
1 *4425:Q *752:6 3.6 
2 *752:6 *4771:A 6.375 
3 *752:6 *752:19 5.205 
4 *752:19 *3850:A_N 6.93 
5 *752:19 *3930:A2 7.665 
*END

*D_NET *753 0.000953772
*CONN
*I *4471:D I *D sky130_fd_sc_hd__dfrtp_2
*I *3851:Y O *D sky130_fd_sc_hd__a31oi_2
*CAP
1 *4471:D 0.000273758
2 *3851:Y 0.000273758
3 *3870:A1 *4471:D 0.000113797
4 *3870:C1 *4471:D 8.09021e-06
5 *4425:D *4471:D 0.000213528
6 *4471:CLK *4471:D 0
7 *4677:A *4471:D 0
8 *162:16 *4471:D 7.08403e-05
*RES
1 *3851:Y *4471:D 12.855 
*END

*D_NET *754 0.000259424
*CONN
*I *4689:A I *D sky130_fd_sc_hd__clkdlybuf4s25_1
*I *4471:Q O *D sky130_fd_sc_hd__dfrtp_2
*CAP
1 *4689:A 0.000129712
2 *4471:Q 0.000129712
3 *4677:A *4689:A 0
*RES
1 *4471:Q *4689:A 9.03 
*END

*D_NET *755 0.00096415
*CONN
*I *4469:D I *D sky130_fd_sc_hd__dfrtp_2
*I *3953:Y O *D sky130_fd_sc_hd__nor2_2
*CAP
1 *4469:D 0.000162071
2 *3953:Y 0.000162071
3 *3913:B2 *4469:D 0.000320834
4 *494:32 *4469:D 0.000319174
*RES
1 *3953:Y *4469:D 12.015 
*END

*D_NET *756 0.000709432
*CONN
*I *4470:D I *D sky130_fd_sc_hd__dfrtp_2
*I *3954:Y O *D sky130_fd_sc_hd__nor2_2
*CAP
1 *4470:D 0.000121722
2 *3954:Y 0.000121722
3 *4046:A *4470:D 4.82863e-05
4 *4470:CLK *4470:D 4.40812e-05
5 *148:12 *4470:D 0.000296088
6 *494:32 *4470:D 7.75325e-05
*RES
1 *3954:Y *4470:D 11.07 
*END

*D_NET *757 0.00416311
*CONN
*I *4692:A I *D sky130_fd_sc_hd__clkdlybuf4s25_1
*I *4693:A I *D sky130_fd_sc_hd__clkdlybuf4s25_1
*I *4469:Q O *D sky130_fd_sc_hd__dfrtp_2
*CAP
1 *4692:A 0.000359987
2 *4693:A 0.000971955
3 *4469:Q 0.00133194
4 *4692:A *4690:A 7.17811e-05
5 *4071:A1 *4693:A 0
6 *4071:A3 *4693:A 0
7 *4353:A2 *4693:A 0.000501133
8 *4353:A3 *4693:A 1.47347e-05
9 *4469:RESET_B *4692:A 0
10 *4474:D *4693:A 3.68596e-05
11 *4740:A *4693:A 4.82863e-05
12 *259:8 *4692:A 0
13 *261:12 *4692:A 0.000188283
14 *261:22 *4692:A 0.000347917
15 *264:8 *4693:A 0.000165052
16 *666:8 *4692:A 1.1392e-05
17 *671:12 *4692:A 0.00011379
*RES
1 *4469:Q *4693:A 20.73 
2 *4469:Q *4692:A 15.975 
*END

*D_NET *758 0.00155356
*CONN
*I *4690:A I *D sky130_fd_sc_hd__clkdlybuf4s25_1
*I *4691:A I *D sky130_fd_sc_hd__clkdlybuf4s25_1
*I *4470:Q O *D sky130_fd_sc_hd__dfrtp_2
*CAP
1 *4690:A 0.00020744
2 *4691:A 6.35848e-05
3 *4470:Q 0.000182024
4 *758:12 0.000453049
5 *3893:C1 *4690:A 2.69153e-05
6 *3895:D *4691:A 9.66021e-05
7 *3895:D *758:12 0.000132423
8 *3913:B1 *4690:A 2.75145e-05
9 *4420:CLK *758:12 0
10 *4687:A *4690:A 0.000208141
11 *4692:A *4690:A 7.17811e-05
12 *259:8 *4690:A 0
13 *261:12 *758:12 7.89689e-05
14 *469:10 *758:12 0
15 *671:12 *4690:A 5.12017e-06
*RES
1 *4470:Q *758:12 9.41 
2 *758:12 *4691:A 3.085 
3 *758:12 *4690:A 10.235 
*END

*D_NET *759 0.000797368
*CONN
*I *4597:A I *D sky130_fd_sc_hd__buf_2
*I *4044:Y O *D sky130_fd_sc_hd__inv_2
*CAP
1 *4597:A 0.000262235
2 *4044:Y 0.000262235
3 *4557:RESET_B *4597:A 0.000272899
*RES
1 *4044:Y *4597:A 11.1 
*END

*D_NET *760 0.000438221
*CONN
*I *4553:D I *D sky130_fd_sc_hd__dfrtp_2
*I *4095:Y O *D sky130_fd_sc_hd__o21ai_2
*CAP
1 *4553:D 0.000162342
2 *4095:Y 0.000162342
3 *4095:B1 *4553:D 0.000113538
*RES
1 *4095:Y *4553:D 5.30375 
*END

*D_NET *761 0.000938454
*CONN
*I *4563:D I *D sky130_fd_sc_hd__dfrtp_2
*I *4122:Y O *D sky130_fd_sc_hd__o21ai_2
*CAP
1 *4563:D 0.00020158
2 *4122:Y 0.00020158
3 *4122:A2 *4563:D 1.48813e-05
4 *4124:B1 *4563:D 0.000354806
5 *452:14 *4563:D 7.06865e-05
6 *481:20 *4563:D 2.75538e-05
7 *481:24 *4563:D 6.73665e-05
*RES
1 *4122:Y *4563:D 12.12 
*END

*D_NET *762 0.000717326
*CONN
*I *4564:D I *D sky130_fd_sc_hd__dfrtp_2
*I *4124:Y O *D sky130_fd_sc_hd__o21ai_2
*CAP
1 *4564:D 0.00013542
2 *4124:Y 0.00013542
3 *4124:A2 *4564:D 0.000129687
4 *4124:B1 *4564:D 0.000316799
*RES
1 *4124:Y *4564:D 11.325 
*END

*D_NET *763 0.00067632
*CONN
*I *4565:D I *D sky130_fd_sc_hd__dfrtp_2
*I *4127:Y O *D sky130_fd_sc_hd__o21ai_2
*CAP
1 *4565:D 0.000142925
2 *4127:Y 0.000142925
3 *4127:A2 *4565:D 0.000339184
4 *481:12 *4565:D 5.12855e-05
5 *701:37 *4565:D 0
*RES
1 *4127:Y *4565:D 11.13 
*END

*D_NET *764 0.000228466
*CONN
*I *4566:D I *D sky130_fd_sc_hd__dfrtp_2
*I *4130:Y O *D sky130_fd_sc_hd__o21ai_2
*CAP
1 *4566:D 5.76016e-05
2 *4130:Y 5.76016e-05
3 *4717:A *4566:D 4.4073e-05
4 *659:27 *4566:D 4.43871e-06
5 *702:27 *4566:D 6.47516e-05
*RES
1 *4130:Y *4566:D 8.58 
*END

*D_NET *765 0.000600469
*CONN
*I *4567:D I *D sky130_fd_sc_hd__dfrtp_2
*I *4132:Y O *D sky130_fd_sc_hd__o21ai_2
*CAP
1 *4567:D 0.000126592
2 *4132:Y 0.000126592
3 *4567:D *4569:D 0
4 *4139:A1 *4567:D 5.42473e-05
5 *4680:A *4567:D 0.000174519
6 *660:51 *4567:D 0.00011852
*RES
1 *4132:Y *4567:D 10.62 
*END

*D_NET *766 0.000987798
*CONN
*I *4568:D I *D sky130_fd_sc_hd__dfrtp_2
*I *4135:Y O *D sky130_fd_sc_hd__o21ai_2
*CAP
1 *4568:D 0.000148017
2 *4135:Y 0.000148017
3 *4568:D *4133:B1 2.49909e-05
4 *4633:A *4568:D 0.000310424
5 *481:53 *4568:D 0.000308062
6 *659:98 *4568:D 4.82863e-05
*RES
1 *4135:Y *4568:D 11.775 
*END

*D_NET *767 0.00120753
*CONN
*I *4569:D I *D sky130_fd_sc_hd__dfrtp_2
*I *4139:Y O *D sky130_fd_sc_hd__o21ai_2
*CAP
1 *4569:D 0.000355876
2 *4139:Y 0.000355876
3 *4139:A2 *4569:D 0.000495774
4 *4567:D *4569:D 0
5 *4569:CLK *4569:D 0
6 *480:31 *4569:D 0
*RES
1 *4139:Y *4569:D 14.565 
*END

*D_NET *768 0.000587942
*CONN
*I *4570:D I *D sky130_fd_sc_hd__dfrtp_2
*I *4141:Y O *D sky130_fd_sc_hd__o21ai_2
*CAP
1 *4570:D 0.000186318
2 *4141:Y 0.000186318
3 *4143:B *4570:D 0.000120186
4 *449:340 *4570:D 9.51192e-05
5 *531:46 *4570:D 0
*RES
1 *4141:Y *4570:D 10.755 
*END

*D_NET *769 0.000391169
*CONN
*I *4571:D I *D sky130_fd_sc_hd__dfrtp_2
*I *4144:Y O *D sky130_fd_sc_hd__o21ai_2
*CAP
1 *4571:D 0.000164412
2 *4144:Y 0.000164412
3 *4143:B *4571:D 0
4 *255:10 *4571:D 6.23462e-05
5 *660:14 *4571:D 0
*RES
1 *4144:Y *4571:D 9.795 
*END

*D_NET *770 0.00122124
*CONN
*I *4572:D I *D sky130_fd_sc_hd__dfrtp_2
*I *4146:Y O *D sky130_fd_sc_hd__o21ai_2
*CAP
1 *4572:D 0.000266948
2 *4146:Y 0.000266948
3 *4572:RESET_B *4572:D 0
4 *531:32 *4572:D 0.000139238
5 *702:27 *4572:D 0.000295167
6 *720:26 *4572:D 6.10014e-05
7 *720:43 *4572:D 0.00019194
*RES
1 *4146:Y *4572:D 14.955 
*END

*D_NET *771 0.000331528
*CONN
*I *4554:D I *D sky130_fd_sc_hd__dfrtp_2
*I *4098:Y O *D sky130_fd_sc_hd__o21ai_2
*CAP
1 *4554:D 7.21511e-05
2 *4098:Y 7.21511e-05
3 *4097:A *4554:D 2.11084e-05
4 *4097:B *4554:D 4.82919e-05
5 *697:22 *4554:D 0
6 *711:23 *4554:D 0.000117825
*RES
1 *4098:Y *4554:D 9.03 
*END

*D_NET *772 0.000355659
*CONN
*I *4573:D I *D sky130_fd_sc_hd__dfrtp_2
*I *4149:X O *D sky130_fd_sc_hd__or2_2
*CAP
1 *4573:D 7.88067e-05
2 *4149:X 7.88067e-05
3 *4148:A1 *4573:D 0.000198046
*RES
1 *4149:X *4573:D 5.03 
*END

*D_NET *773 0.000492277
*CONN
*I *4574:D I *D sky130_fd_sc_hd__dfrtp_2
*I *4150:X O *D sky130_fd_sc_hd__a21bo_2
*CAP
1 *4574:D 0.000171537
2 *4150:X 0.000171537
3 *4150:B1_N *4574:D 9.71067e-05
4 *478:10 *4574:D 5.53249e-06
5 *478:54 *4574:D 4.65643e-05
*RES
1 *4150:X *4574:D 10.155 
*END

*D_NET *774 0.000722105
*CONN
*I *4555:D I *D sky130_fd_sc_hd__dfrtp_2
*I *4100:Y O *D sky130_fd_sc_hd__o21ai_2
*CAP
1 *4555:D 0.000199767
2 *4100:Y 0.000199767
3 *4103:A2 *4555:D 0.000138106
4 *4555:CLK *4555:D 0.000136685
5 *711:29 *4555:D 4.77807e-05
*RES
1 *4100:Y *4555:D 11.325 
*END

*D_NET *775 0.000370886
*CONN
*I *4556:D I *D sky130_fd_sc_hd__dfrtp_2
*I *4103:Y O *D sky130_fd_sc_hd__o21ai_2
*CAP
1 *4556:D 0.000124927
2 *4103:Y 0.000124927
3 *4555:CLK *4556:D 0.000121032
*RES
1 *4103:Y *4556:D 5.375 
*END

*D_NET *776 0.000224278
*CONN
*I *4557:D I *D sky130_fd_sc_hd__dfrtp_2
*I *4106:Y O *D sky130_fd_sc_hd__o21ai_2
*CAP
1 *4557:D 6.09687e-05
2 *4106:Y 6.09687e-05
3 *4557:CLK *4557:D 0.00010234
*RES
1 *4106:Y *4557:D 8.47875 
*END

*D_NET *777 0.000534551
*CONN
*I *4558:D I *D sky130_fd_sc_hd__dfrtp_2
*I *4108:Y O *D sky130_fd_sc_hd__o21ai_2
*CAP
1 *4558:D 9.1063e-05
2 *4108:Y 9.1063e-05
3 *4105:B *4558:D 2.69217e-05
4 *4108:A1 *4558:D 0.00014028
5 *4108:A2 *4558:D 0.000138613
6 *4108:B1 *4558:D 4.66108e-05
*RES
1 *4108:Y *4558:D 9.735 
*END

*D_NET *778 0.000413822
*CONN
*I *4559:D I *D sky130_fd_sc_hd__dfrtp_2
*I *4111:Y O *D sky130_fd_sc_hd__o21ai_2
*CAP
1 *4559:D 0.000159451
2 *4111:Y 0.000159451
3 *4110:B *4559:D 4.49585e-05
4 *4111:A1 *4559:D 4.99619e-05
*RES
1 *4111:Y *4559:D 9.825 
*END

*D_NET *779 0.00138211
*CONN
*I *4560:D I *D sky130_fd_sc_hd__dfrtp_2
*I *4114:Y O *D sky130_fd_sc_hd__o21ai_2
*CAP
1 *4560:D 0.0001805
2 *4114:Y 0.0001805
3 *4560:D *4561:D 0.000208484
4 *4113:A *4560:D 0
5 *4114:A1 *4560:D 2.75229e-05
6 *4114:A2 *4560:D 0.000464578
7 *4115:B *4560:D 0
8 *4562:CLK *4560:D 3.94338e-05
9 *531:95 *4560:D 7.21296e-06
10 *658:36 *4560:D 0.000273878
*RES
1 *4114:Y *4560:D 13.905 
*END

*D_NET *780 0.00101601
*CONN
*I *4561:D I *D sky130_fd_sc_hd__dfrtp_2
*I *4116:Y O *D sky130_fd_sc_hd__o21ai_2
*CAP
1 *4561:D 0.000215249
2 *4116:Y 0.000215249
3 *4561:D *4562:D 0.000117825
4 *4115:B *4561:D 0
5 *4116:A2 *4561:D 0.000162325
6 *4116:B1 *4561:D 9.68787e-05
7 *4560:D *4561:D 0.000208484
8 *531:95 *4561:D 0
*RES
1 *4116:Y *4561:D 12.915 
*END

*D_NET *781 0.000581856
*CONN
*I *4562:D I *D sky130_fd_sc_hd__dfrtp_2
*I *4119:Y O *D sky130_fd_sc_hd__o21ai_2
*CAP
1 *4562:D 0.000141504
2 *4119:Y 0.000141504
3 *4561:D *4562:D 0.000117825
4 *4562:CLK *4562:D 3.72916e-05
5 *658:36 *4562:D 0.000143732
*RES
1 *4119:Y *4562:D 10.41 
*END

*D_NET *782 0.00304579
*CONN
*I *4780:A I *D sky130_fd_sc_hd__dlygate4sd3_1
*I *4096:A I *D sky130_fd_sc_hd__and2_2
*I *4101:A1 I *D sky130_fd_sc_hd__o31ai_2
*I *4030:A I *D sky130_fd_sc_hd__nor2_2
*I *4031:A I *D sky130_fd_sc_hd__or4_2
*I *4553:Q O *D sky130_fd_sc_hd__dfrtp_2
*CAP
1 *4780:A 0
2 *4096:A 5.05434e-05
3 *4101:A1 0
4 *4030:A 5.49905e-05
5 *4031:A 0.000129575
6 *4553:Q 0.000244844
7 *782:29 0.000212998
8 *782:14 0.000390012
9 *782:12 0.0004125
10 *782:10 0.00050437
11 *4030:A *4030:B 0.000232985
12 *4031:A *4101:B1 5.06832e-05
13 *4031:A *797:10 3.75882e-06
14 *4096:A *793:12 0.000124895
15 *782:12 *793:12 0
16 *782:29 *4030:B 3.03854e-05
17 *4095:B1 *782:10 8.03844e-05
18 *4102:B *782:29 9.32375e-05
19 *4103:A2 *4030:A 8.5873e-05
20 *4103:A2 *782:29 0.00034376
21 *4678:A *782:10 0
22 *4678:A *782:12 0
23 *531:22 *782:10 0
24 *657:31 *782:14 0
25 *697:20 *782:10 0
26 *697:20 *782:12 0
27 *697:22 *782:12 0
28 *697:22 *782:14 0
*RES
1 *4553:Q *782:10 7.065 
2 *782:10 *782:12 4.185 
3 *782:12 *782:14 1.635 
4 *782:14 *4031:A 6 
5 *782:14 *782:29 6.17 
6 *782:29 *4030:A 3.775 
7 *782:29 *4101:A1 1.6 
8 *782:12 *4096:A 4.74 
9 *782:10 *4780:A 3.6 
*END

*D_NET *783 0.00174852
*CONN
*I *4036:A I *D sky130_fd_sc_hd__nor2_2
*I *4125:A1 I *D sky130_fd_sc_hd__o31ai_2
*I *4037:A I *D sky130_fd_sc_hd__or4_2
*I *4120:A I *D sky130_fd_sc_hd__and2_2
*I *4563:Q O *D sky130_fd_sc_hd__dfrtp_2
*CAP
1 *4036:A 2.89525e-05
2 *4125:A1 9.28761e-05
3 *4037:A 0
4 *4120:A 0.000131786
5 *4563:Q 0
6 *783:32 0.000162286
7 *783:23 0.000207136
8 *783:6 0.000298465
9 *4036:A *4037:C 4.60584e-05
10 *783:23 *4037:B 0.00011964
11 *783:23 *784:26 2.49909e-05
12 *783:32 *4037:C 1.16578e-05
13 *4120:B *4120:A 4.82863e-05
14 *4121:B *4120:A 0.000141599
15 *4121:B *4125:A1 0
16 *4121:B *783:23 0.000185398
17 *4123:B *4125:A1 0
18 *4125:A3 *4125:A1 5.42473e-05
19 *250:10 *4036:A 8.40269e-05
20 *250:10 *4125:A1 0
21 *250:10 *783:23 5.30673e-05
22 *250:10 *783:32 4.60584e-05
23 *251:10 *783:23 1.19928e-05
*RES
1 *4563:Q *783:6 3.6 
2 *783:6 *4120:A 6.195 
3 *783:6 *783:23 6.32 
4 *783:23 *4037:A 1.6 
5 *783:23 *783:32 1.155 
6 *783:32 *4125:A1 7.235 
7 *783:32 *4036:A 2.755 
*END

*D_NET *784 0.00187168
*CONN
*I *4125:A2 I *D sky130_fd_sc_hd__o31ai_2
*I *4123:A I *D sky130_fd_sc_hd__xnor2_2
*I *4037:B I *D sky130_fd_sc_hd__or4_2
*I *4564:Q O *D sky130_fd_sc_hd__dfrtp_2
*CAP
1 *4125:A2 0.000244781
2 *4123:A 0
3 *4037:B 7.88824e-05
4 *4564:Q 0.000312133
5 *784:26 0.000478031
6 *4121:B *784:26 0
7 *4122:A2 *4125:A2 9.66106e-05
8 *4123:B *4125:A2 0.00032595
9 *4564:RESET_B *784:26 4.61744e-05
10 *251:10 *4037:B 0.0001249
11 *251:10 *784:26 1.95851e-05
12 *783:23 *4037:B 0.00011964
13 *783:23 *784:26 2.49909e-05
*RES
1 *4564:Q *4037:B 5.39 
2 *4564:Q *784:26 8.81 
3 *784:26 *4123:A 1.6 
4 *784:26 *4125:A2 6.91 
*END

*D_NET *785 0.000874957
*CONN
*I *4125:B1 I *D sky130_fd_sc_hd__o31ai_2
*I *4037:C I *D sky130_fd_sc_hd__or4_2
*I *4565:Q O *D sky130_fd_sc_hd__dfrtp_2
*CAP
1 *4125:B1 0
2 *4037:C 0.000283275
3 *4565:Q 9.62986e-05
4 *785:8 0.000379574
5 *4036:A *4037:C 4.60584e-05
6 *4036:B *4037:C 4.82919e-05
7 *4125:A3 *4037:C 0
8 *4126:B *785:8 0
9 *249:41 *4037:C 0
10 *250:10 *4037:C 9.80032e-06
11 *783:32 *4037:C 1.16578e-05
*RES
1 *4565:Q *785:8 5.235 
2 *785:8 *4037:C 8.265 
3 *785:8 *4125:B1 3.6 
*END

*D_NET *786 0.0026672
*CONN
*I *4039:A I *D sky130_fd_sc_hd__or4_2
*I *4133:A1 I *D sky130_fd_sc_hd__o31ai_2
*I *4128:A I *D sky130_fd_sc_hd__and2_2
*I *4038:A I *D sky130_fd_sc_hd__nor2_2
*I *4566:Q O *D sky130_fd_sc_hd__dfrtp_2
*CAP
1 *4039:A 8.01396e-05
2 *4133:A1 0.000124108
3 *4128:A 0
4 *4038:A 0.000141249
5 *4566:Q 0
6 *786:10 0.000199041
7 *786:8 0.000346579
8 *786:4 0.000244818
9 *4039:A *4039:B 6.68963e-05
10 *4133:A1 *4039:B 5.02217e-05
11 *4133:A1 *4131:A 1.70935e-05
12 *4133:A1 *787:8 3.64998e-06
13 *4133:A1 *787:21 3.05373e-05
14 *786:8 *4039:B 0.000212923
15 *4038:B *4038:A 3.95724e-05
16 *4130:A2 *4038:A 4.18603e-06
17 *4130:A2 *4133:A1 1.61461e-05
18 *4130:A2 *786:10 6.95248e-05
19 *4568:CLK *4133:A1 8.49205e-05
20 *4568:RESET_B *4039:A 0.000193801
21 *4568:RESET_B *786:8 6.03678e-05
22 *252:10 *4038:A 0.00016163
23 *252:10 *4133:A1 0.000206817
24 *252:10 *786:10 0.000185405
25 *253:12 *4038:A 7.35813e-05
26 *253:46 *4038:A 5.39961e-05
27 *481:53 *4038:A 0
28 *702:27 *4038:A 0
*RES
1 *4566:Q *786:4 1.6 
2 *786:4 *786:8 5.555 
3 *786:8 *786:10 2.145 
4 *786:10 *4038:A 7.245 
5 *786:10 *4128:A 3.6 
6 *786:8 *4133:A1 7.155 
7 *786:4 *4039:A 3.79 
*END

*D_NET *787 0.00283899
*CONN
*I *4133:A2 I *D sky130_fd_sc_hd__o31ai_2
*I *4131:A I *D sky130_fd_sc_hd__xnor2_2
*I *4039:B I *D sky130_fd_sc_hd__or4_2
*I *4567:Q O *D sky130_fd_sc_hd__dfrtp_2
*CAP
1 *4133:A2 3.563e-05
2 *4131:A 0.000167226
3 *4039:B 0.000538398
4 *4567:Q 0.000138198
5 *787:21 0.000214524
6 *787:8 0.000688264
7 *4039:A *4039:B 6.68963e-05
8 *4130:A2 *4039:B 9.54399e-05
9 *4130:A2 *4131:A 0.000329939
10 *4130:A2 *787:21 4.54719e-05
11 *4133:A1 *4039:B 5.02217e-05
12 *4133:A1 *4131:A 1.70935e-05
13 *4133:A1 *787:8 3.64998e-06
14 *4133:A1 *787:21 3.05373e-05
15 *4477:RESET_B *787:8 5.34747e-05
16 *4568:CLK *787:8 2.51419e-05
17 *252:10 *4131:A 0.000125957
18 *786:8 *4039:B 0.000212923
*RES
1 *4567:Q *787:8 5.775 
2 *787:8 *4039:B 10.695 
3 *787:8 *787:21 0.615 
4 *787:21 *4131:A 8.235 
5 *787:21 *4133:A2 4.05 
*END

*D_NET *788 0.00184871
*CONN
*I *4039:C I *D sky130_fd_sc_hd__or4_2
*I *4133:B1 I *D sky130_fd_sc_hd__o31ai_2
*I *4568:Q O *D sky130_fd_sc_hd__dfrtp_2
*CAP
1 *4039:C 3.57257e-05
2 *4133:B1 0.000443377
3 *4568:Q 0.000309294
4 *788:6 0.000788396
5 *4039:C *4477:D 6.5525e-05
6 *4134:B *4133:B1 4.82919e-05
7 *4568:CLK *4133:B1 1.45963e-05
8 *4568:D *4133:B1 2.49909e-05
9 *4568:RESET_B *4039:C 0.000118513
*RES
1 *4568:Q *788:6 4.81 
2 *788:6 *4133:B1 6.82 
3 *788:6 *4039:C 6.98 
*END

*D_NET *789 0.00243457
*CONN
*I *4137:A I *D sky130_fd_sc_hd__nand2_2
*I *4040:A I *D sky130_fd_sc_hd__or3_2
*I *4136:A I *D sky130_fd_sc_hd__nor2_2
*I *4142:A1 I *D sky130_fd_sc_hd__o31a_2
*I *4569:Q O *D sky130_fd_sc_hd__dfrtp_2
*CAP
1 *4137:A 0.000195522
2 *4040:A 0
3 *4136:A 0.000167532
4 *4142:A1 6.06928e-05
5 *4569:Q 0.000156548
6 *789:27 0.000203082
7 *789:25 0.000264545
8 *789:10 0.000250713
9 *4137:A *4040:C 7.08076e-06
10 *4142:A1 *4040:B 5.65627e-05
11 *4142:A1 *4140:A 4.82919e-05
12 *4142:A1 *790:12 4.43871e-06
13 *789:10 *4040:B 6.28843e-05
14 *4136:B *4136:A 0.00013637
15 *4136:B *4137:A 5.98163e-05
16 *4137:B *4137:A 0
17 *4138:A_N *4136:A 9.2741e-05
18 *4138:B *4136:A 0.000426206
19 *4138:B *4137:A 3.57457e-05
20 *4569:RESET_B *789:10 1.4389e-05
21 *254:8 *4142:A1 0.000117832
22 *307:6 *4136:A 7.35729e-05
23 *660:12 *789:10 0
24 *699:22 *789:10 0
*RES
1 *4569:Q *789:10 6.195 
2 *789:10 *4142:A1 5.43 
3 *789:10 *789:25 2.45 
4 *789:25 *789:27 0.615 
5 *789:27 *4136:A 6.88 
6 *789:27 *4040:A 1.6 
7 *789:25 *4137:A 5.185 
*END

*D_NET *790 0.0016918
*CONN
*I *4040:B I *D sky130_fd_sc_hd__or3_2
*I *4140:A I *D sky130_fd_sc_hd__xnor2_2
*I *4142:A2 I *D sky130_fd_sc_hd__o31a_2
*I *4570:Q O *D sky130_fd_sc_hd__dfrtp_2
*CAP
1 *4040:B 0.000133756
2 *4140:A 0.000216764
3 *4142:A2 0
4 *4570:Q 0.000183325
5 *790:14 0.000216764
6 *790:12 0.000317081
7 *4040:B *4040:C 0.000139245
8 *4040:B *791:14 0
9 *4140:A *4040:C 1.85674e-05
10 *790:12 *791:14 0
11 *4142:A1 *4040:B 5.65627e-05
12 *4142:A1 *4140:A 4.82919e-05
13 *4142:A1 *790:12 4.43871e-06
14 *4143:B *4140:A 8.03844e-05
15 *254:8 *790:12 0.000150861
16 *449:362 *790:12 6.28765e-05
17 *699:22 *4040:B 0
18 *789:10 *4040:B 6.28843e-05
*RES
1 *4570:Q *790:12 7.83 
2 *790:12 *790:14 2 
3 *790:14 *4142:A2 1.6 
4 *790:14 *4140:A 5.185 
5 *790:12 *4040:B 6.255 
*END

*D_NET *791 0.00226765
*CONN
*I *4040:C I *D sky130_fd_sc_hd__or3_2
*I *4142:B1 I *D sky130_fd_sc_hd__o31a_2
*I *4571:Q O *D sky130_fd_sc_hd__dfrtp_2
*CAP
1 *4040:C 0.000118708
2 *4142:B1 0
3 *4571:Q 0.000283827
4 *791:14 0.000402536
5 *4040:B *4040:C 0.000139245
6 *4040:B *791:14 0
7 *4137:A *4040:C 7.08076e-06
8 *4138:B *4040:C 1.32064e-05
9 *4140:A *4040:C 1.85674e-05
10 *4142:A3 *4040:C 2.30292e-05
11 *4142:A3 *791:14 8.65905e-05
12 *4571:RESET_B *791:14 4.82919e-05
13 *4572:RESET_B *791:14 8.53113e-06
14 *449:362 *791:14 8.08153e-06
15 *451:8 *791:14 0.000448214
16 *699:22 *4040:C 0
17 *699:22 *791:14 0.000375847
18 *699:24 *791:14 0.000198981
19 *699:26 *791:14 8.69088e-05
20 *790:12 *791:14 0
*RES
1 *4571:Q *791:14 14.6 
2 *791:14 *4142:B1 1.6 
3 *791:14 *4040:C 8.1725 
*END

*D_NET *792 0.00251436
*CONN
*I *4145:A I *D sky130_fd_sc_hd__xnor2_2
*I *4042:A I *D sky130_fd_sc_hd__or4_2
*I *4147:A1 I *D sky130_fd_sc_hd__o31a_2
*I *4572:Q O *D sky130_fd_sc_hd__dfrtp_2
*CAP
1 *4145:A 0.000155979
2 *4042:A 0.00034095
3 *4147:A1 1.85694e-05
4 *4572:Q 0
5 *792:12 0.000518401
6 *792:6 0.00031486
7 *4042:D *4042:A 9.47375e-05
8 *4144:A1 *4145:A 8.49205e-05
9 *4144:B1 *4145:A 8.53113e-06
10 *4145:B *4145:A 4.82919e-05
11 *4147:A2 *4042:A 0.000264759
12 *4147:A2 *4147:A1 9.53428e-06
13 *4149:A *792:12 2.66586e-05
14 *254:8 *4145:A 0.000196406
15 *254:14 *4042:A 1.12578e-05
16 *254:14 *4145:A 3.05295e-05
17 *254:14 *792:12 0.000119039
18 *660:14 *4145:A 0.000216964
19 *660:14 *792:12 5.39718e-05
*RES
1 *4572:Q *792:6 3.6 
2 *792:6 *792:12 5.3 
3 *792:12 *4147:A1 1.96 
4 *792:12 *4042:A 7.585 
5 *792:6 *4145:A 9.09 
*END

*D_NET *793 0.00348415
*CONN
*I *4096:B I *D sky130_fd_sc_hd__and2_2
*I *4101:A2 I *D sky130_fd_sc_hd__o31ai_2
*I *4030:B I *D sky130_fd_sc_hd__nor2_2
*I *4031:B I *D sky130_fd_sc_hd__or4_2
*I *4554:Q O *D sky130_fd_sc_hd__dfrtp_2
*CAP
1 *4096:B 0
2 *4101:A2 0
3 *4030:B 0.000143007
4 *4031:B 0.000239767
5 *4554:Q 0.000200189
6 *793:31 0.000143007
7 *793:18 0.00037359
8 *793:12 0.000334011
9 *4031:B *4101:A3 0.000156159
10 *793:18 *4101:A3 9.12494e-06
11 *4030:A *4030:B 0.000232985
12 *4096:A *793:12 0.000124895
13 *4097:A *4031:B 5.0096e-05
14 *4097:A *793:18 0.00014872
15 *4098:B1 *793:12 0.00038879
16 *4098:B1 *793:18 0.000123225
17 *4099:B *4031:B 0.000132821
18 *4103:A2 *4030:B 2.38055e-05
19 *244:8 *4030:B 0.000306863
20 *657:10 *793:12 0
21 *657:31 *793:12 2.92496e-05
22 *697:22 *4031:B 2.29568e-05
23 *697:22 *793:18 7.55782e-05
24 *711:23 *793:18 0
25 *711:27 *793:18 0
26 *711:55 *4031:B 0.000194921
27 *782:12 *793:12 0
28 *782:29 *4030:B 3.03854e-05
*RES
1 *4554:Q *793:12 10.535 
2 *793:12 *793:18 5.54 
3 *793:18 *4031:B 8.085 
4 *793:18 *793:31 2 
5 *793:31 *4030:B 5.875 
6 *793:31 *4101:A2 1.6 
7 *793:12 *4096:B 1.6 
*END

*D_NET *794 0.000660784
*CONN
*I *4821:A I *D sky130_fd_sc_hd__dlygate4sd3_1
*I *4042:B I *D sky130_fd_sc_hd__or4_2
*I *4573:Q O *D sky130_fd_sc_hd__dfrtp_2
*CAP
1 *4821:A 8.78867e-05
2 *4042:B 6.87237e-05
3 *4573:Q 3.1747e-05
4 *794:6 0.000188357
5 *4147:B1 *794:6 5.30673e-05
6 *4148:A1 *4821:A 0.000111285
7 *4148:A1 *794:6 7.26735e-05
8 *256:8 *4042:B 4.7043e-05
9 *531:32 *4042:B 0
*RES
1 *4573:Q *794:6 2.74 
2 *794:6 *4042:B 6.98 
3 *794:6 *4821:A 3.43 
*END

*D_NET *795 0.00190568
*CONN
*I *3845:A I *D sky130_fd_sc_hd__inv_2
*I *4043:A I *D sky130_fd_sc_hd__nor2_2
*I *4792:A I *D sky130_fd_sc_hd__dlygate4sd3_1
*I *4574:Q O *D sky130_fd_sc_hd__dfrtp_2
*CAP
1 *3845:A 0.000225682
2 *4043:A 0.000196629
3 *4792:A 0
4 *4574:Q 0.000238197
5 *795:19 0.000443933
6 *795:10 0.000259819
7 *4043:B *4043:A 4.99619e-05
8 *4114:A2 *3845:A 0
9 *4114:B1 *3845:A 0.000195238
10 *4114:B1 *4043:A 0.000163019
11 *256:8 *3845:A 0
12 *479:23 *795:10 8.65905e-05
13 *479:23 *795:19 4.66108e-05
14 *479:27 *4043:A 0
15 *531:95 *3845:A 0
*RES
1 *4574:Q *795:10 5.275 
2 *795:10 *4792:A 1.6 
3 *795:10 *795:19 2.45 
4 *795:19 *4043:A 7.32 
5 *795:19 *3845:A 7.785 
*END

*D_NET *796 0.00139609
*CONN
*I *4031:C I *D sky130_fd_sc_hd__or4_2
*I *4099:A I *D sky130_fd_sc_hd__xnor2_2
*I *4101:A3 I *D sky130_fd_sc_hd__o31ai_2
*I *4555:Q O *D sky130_fd_sc_hd__dfrtp_2
*CAP
1 *4031:C 0
2 *4099:A 0
3 *4101:A3 5.30596e-05
4 *4555:Q 0.000206401
5 *796:16 0.000120018
6 *796:12 0.000273359
7 *796:12 *797:10 0.000109489
8 *4031:B *4101:A3 0.000156159
9 *4555:RESET_B *796:12 3.50571e-05
10 *657:31 *796:16 0.00011465
11 *697:22 *4101:A3 8.79638e-05
12 *697:22 *796:12 3.65143e-05
13 *711:55 *796:16 0.000194295
14 *793:18 *4101:A3 9.12494e-06
*RES
1 *4555:Q *796:12 9.47 
2 *796:12 *796:16 2.19 
3 *796:16 *4101:A3 7.49 
4 *796:16 *4099:A 1.6 
5 *796:12 *4031:C 1.6 
*END

*D_NET *797 0.00106782
*CONN
*I *4101:B1 I *D sky130_fd_sc_hd__o31ai_2
*I *4031:D I *D sky130_fd_sc_hd__or4_2
*I *4556:Q O *D sky130_fd_sc_hd__dfrtp_2
*CAP
1 *4101:B1 5.39517e-05
2 *4031:D 0
3 *4556:Q 0.000310322
4 *797:10 0.000364274
5 *4031:A *4101:B1 5.06832e-05
6 *4031:A *797:10 3.75882e-06
7 *4557:RESET_B *797:10 3.5456e-05
8 *697:22 *4101:B1 6.97526e-05
9 *697:22 *797:10 7.01276e-05
10 *796:12 *797:10 0.000109489
*RES
1 *4556:Q *797:10 8.1 
2 *797:10 *4031:D 3.6 
3 *797:10 *4101:B1 5.235 
*END

*D_NET *798 0.00393706
*CONN
*I *4033:A I *D sky130_fd_sc_hd__or4_2
*I *4109:A1 I *D sky130_fd_sc_hd__o31ai_2
*I *4032:A I *D sky130_fd_sc_hd__nor2_2
*I *4104:A I *D sky130_fd_sc_hd__and2_2
*I *4557:Q O *D sky130_fd_sc_hd__dfrtp_2
*CAP
1 *4033:A 0.000229973
2 *4109:A1 2.23024e-05
3 *4032:A 0.0004768
4 *4104:A 0.000241634
5 *4557:Q 0.000105491
6 *798:40 0.000276435
7 *798:21 0.000558911
8 *798:8 0.000405077
9 *4032:A *4107:A 0.000235378
10 *4033:A *4033:B 6.06669e-05
11 *4033:A *4033:C 4.89395e-05
12 *4033:A *799:6 1.56428e-05
13 *4109:A1 *4107:A 4.77769e-05
14 *4033:D *4033:A 0.000122821
15 *4106:A1 *4032:A 8.64599e-05
16 *4107:B *4032:A 0.000154494
17 *4108:A1 *4032:A 0.000120825
18 *4110:B *4033:A 0.000157418
19 *4110:B *798:21 8.33066e-06
20 *4110:B *798:40 4.87939e-05
21 *245:27 *4104:A 0.000397715
22 *245:27 *798:21 2.87133e-05
23 *246:8 *4032:A 8.64599e-05
*RES
1 *4557:Q *798:8 4.74 
2 *798:8 *4104:A 9.12 
3 *798:8 *798:21 1.125 
4 *798:21 *4032:A 12.915 
5 *798:21 *798:40 0.615 
6 *798:40 *4109:A1 4.05 
7 *798:40 *4033:A 8.7 
*END

*D_NET *799 0.00154424
*CONN
*I *4033:B I *D sky130_fd_sc_hd__or4_2
*I *4109:A2 I *D sky130_fd_sc_hd__o31ai_2
*I *4107:A I *D sky130_fd_sc_hd__xnor2_2
*I *4558:Q O *D sky130_fd_sc_hd__dfrtp_2
*CAP
1 *4033:B 0.000111093
2 *4109:A2 0
3 *4107:A 0.000155315
4 *4558:Q 4.16082e-05
5 *799:12 0.000234902
6 *799:6 0.000232289
7 *4032:A *4107:A 0.000235378
8 *4033:A *4033:B 6.06669e-05
9 *4033:A *799:6 1.56428e-05
10 *4033:D *799:12 0.000128981
11 *4109:A1 *4107:A 4.77769e-05
12 *4110:B *4107:A 4.77807e-05
13 *4110:B *799:12 0.000223679
14 *245:27 *799:12 9.12494e-06
*RES
1 *4558:Q *799:6 2.05 
2 *799:6 *799:12 6.655 
3 *799:12 *4107:A 5.185 
4 *799:12 *4109:A2 1.6 
5 *799:6 *4033:B 3.085 
*END

*D_NET *800 0.00118292
*CONN
*I *4033:C I *D sky130_fd_sc_hd__or4_2
*I *4109:B1 I *D sky130_fd_sc_hd__o31ai_2
*I *4559:Q O *D sky130_fd_sc_hd__dfrtp_2
*CAP
1 *4033:C 0.000157456
2 *4109:B1 0.000321457
3 *4559:Q 8.80757e-05
4 *800:8 0.000566988
5 *4033:A *4033:C 4.89395e-05
6 *247:12 *800:8 0
*RES
1 *4559:Q *800:8 4.98 
2 *800:8 *4109:B1 8.355 
3 *800:8 *4033:C 6.12 
*END

*D_NET *801 0.00320869
*CONN
*I *4034:A I *D sky130_fd_sc_hd__nor2_2
*I *4117:A1 I *D sky130_fd_sc_hd__o31ai_2
*I *4035:A I *D sky130_fd_sc_hd__or4_2
*I *4112:A I *D sky130_fd_sc_hd__and2_2
*I *4560:Q O *D sky130_fd_sc_hd__dfrtp_2
*CAP
1 *4034:A 0.000131093
2 *4117:A1 0.000376083
3 *4035:A 0.000173875
4 *4112:A 0.000111213
5 *4560:Q 0
6 *801:19 0.000641663
7 *801:6 0.000202918
8 *801:4 0.000131093
9 *4035:A *4035:C 2.11084e-05
10 *4117:A1 *4035:C 0
11 *4117:A1 *4117:A2 2.32503e-05
12 *4117:A1 *4117:B1 0
13 *4035:D *4035:A 3.74161e-05
14 *4112:B *4112:A 8.8266e-05
15 *4113:A *4112:A 0
16 *4113:A *801:19 0
17 *4115:B *4117:A1 0
18 *4115:B *801:19 0
19 *4117:A3 *4035:A 0.000120655
20 *4117:A3 *4117:A1 0.000562262
21 *4118:B *4117:A1 7.81954e-05
22 *4559:RESET_B *801:19 1.1561e-05
23 *4560:RESET_B *4034:A 1.91597e-05
24 *4716:A *4117:A1 6.15576e-06
25 *247:31 *4034:A 8.40269e-05
26 *247:31 *4112:A 0.000163019
27 *247:31 *801:19 3.09233e-05
28 *698:23 *4117:A1 0.00011219
29 *698:25 *4117:A1 2.59981e-05
30 *698:25 *801:19 5.65627e-05
*RES
1 *4560:Q *801:4 1.6 
2 *801:4 *801:6 2 
3 *801:6 *4112:A 6.285 
4 *801:6 *801:19 1.89 
5 *801:19 *4035:A 6.48 
6 *801:19 *4117:A1 12.78 
7 *801:4 *4034:A 3.79 
*END

*D_NET *802 0.0016433
*CONN
*I *4035:B I *D sky130_fd_sc_hd__or4_2
*I *4117:A2 I *D sky130_fd_sc_hd__o31ai_2
*I *4115:A I *D sky130_fd_sc_hd__xnor2_2
*I *4561:Q O *D sky130_fd_sc_hd__dfrtp_2
*CAP
1 *4035:B 9.53068e-05
2 *4117:A2 0.000147733
3 *4115:A 2.22788e-05
4 *4561:Q 0
5 *802:10 0.000402234
6 *802:4 0.000327528
7 *4035:D *4035:B 1.83847e-05
8 *4115:B *802:10 0
9 *4117:A1 *4117:A2 2.32503e-05
10 *4117:A3 *4035:B 1.19928e-05
11 *4117:A3 *4117:A2 0.000160658
12 *4117:A3 *802:10 0.000296775
13 *4119:A2 *4115:A 4.82863e-05
14 *4561:RESET_B *4035:B 2.05056e-05
15 *4561:RESET_B *802:10 6.83659e-05
*RES
1 *4561:Q *802:4 1.6 
2 *802:4 *802:10 6.56 
3 *802:10 *4115:A 4.05 
4 *802:10 *4117:A2 6.555 
5 *802:4 *4035:B 2.74 
*END

*D_NET *803 0.00126379
*CONN
*I *4117:B1 I *D sky130_fd_sc_hd__o31ai_2
*I *4035:C I *D sky130_fd_sc_hd__or4_2
*I *4562:Q O *D sky130_fd_sc_hd__dfrtp_2
*CAP
1 *4117:B1 0.000312879
2 *4035:C 0.000159956
3 *4562:Q 0
4 *803:6 0.000472835
5 *4035:A *4035:C 2.11084e-05
6 *4117:A1 *4035:C 0
7 *4117:A1 *4117:B1 0
8 *4118:B *4117:B1 0
9 *249:8 *4035:C 0.000105068
10 *249:8 *4117:B1 6.55328e-05
11 *249:17 *4117:B1 0.000126407
12 *698:23 *4035:C 0
*RES
1 *4562:Q *803:6 3.6 
2 *803:6 *4035:C 6.81 
3 *803:6 *4117:B1 9.36 
*END

*D_NET *804 0.000605081
*CONN
*I *4598:A I *D sky130_fd_sc_hd__buf_2
*I *4029:Y O *D sky130_fd_sc_hd__inv_2
*CAP
1 *4598:A 0.000141666
2 *4029:Y 0.000141666
3 *4853:A *4598:A 5.68531e-05
4 *542:10 *4598:A 7.1624e-05
5 *564:30 *4598:A 1.28996e-05
6 *564:38 *4598:A 0.000180373
*RES
1 *4029:Y *4598:A 10.875 
*END

*D_NET *805 0.00129146
*CONN
*I *4531:D I *D sky130_fd_sc_hd__dfrtp_2
*I *4152:Y O *D sky130_fd_sc_hd__o21ai_2
*CAP
1 *4531:D 0.0002923
2 *4152:Y 0.0002923
3 *4531:D *4153:B 0.000393029
4 *4531:D *838:8 4.94404e-05
5 *4532:RESET_B *4531:D 5.02217e-05
6 *4552:RESET_B *4531:D 1.26626e-05
7 *4660:A *4531:D 0.000201503
8 *553:10 *4531:D 0
9 *696:16 *4531:D 0
*RES
1 *4152:Y *4531:D 14.175 
*END

*D_NET *806 0.000267214
*CONN
*I *4541:D I *D sky130_fd_sc_hd__dfrtp_2
*I *4179:Y O *D sky130_fd_sc_hd__o21ai_2
*CAP
1 *4541:D 9.54104e-05
2 *4179:Y 9.54104e-05
3 *4541:D *828:6 1.34618e-05
4 *652:56 *4541:D 6.29313e-05
*RES
1 *4179:Y *4541:D 9.03 
*END

*D_NET *807 0.000901637
*CONN
*I *4542:D I *D sky130_fd_sc_hd__dfrtp_2
*I *4181:Y O *D sky130_fd_sc_hd__o21ai_2
*CAP
1 *4542:D 0.000262456
2 *4181:Y 0.000262456
3 *4021:D *4542:D 0.000153685
4 *4181:A2 *4542:D 0.00011152
5 *542:35 *4542:D 0.00011152
*RES
1 *4181:Y *4542:D 13.395 
*END

*D_NET *808 0.000722433
*CONN
*I *4543:D I *D sky130_fd_sc_hd__dfrtp_2
*I *4184:Y O *D sky130_fd_sc_hd__o21ai_2
*CAP
1 *4543:D 0.000202556
2 *4184:Y 0.000202556
3 *4182:A3 *4543:D 0
4 *473:24 *4543:D 0
5 *542:43 *4543:D 4.66826e-05
6 *652:56 *4543:D 0.00027064
*RES
1 *4184:Y *4543:D 11.16 
*END

*D_NET *809 0.00115592
*CONN
*I *4544:D I *D sky130_fd_sc_hd__dfrtp_2
*I *4187:Y O *D sky130_fd_sc_hd__o21ai_2
*CAP
1 *4544:D 0.000413874
2 *4187:Y 0.000413874
3 *4544:D *831:10 5.83121e-06
4 *4544:D *832:10 0.00013629
5 *4187:A2 *4544:D 7.27003e-05
6 *4544:RESET_B *4544:D 0.000113355
*RES
1 *4187:Y *4544:D 14.79 
*END

*D_NET *810 0.00124172
*CONN
*I *4545:D I *D sky130_fd_sc_hd__dfrtp_2
*I *4189:Y O *D sky130_fd_sc_hd__o21ai_2
*CAP
1 *4545:D 0.000305335
2 *4189:Y 0.000305335
3 *4187:A1 *4545:D 3.34493e-05
4 *4187:B1 *4545:D 0.000111907
5 *4545:CLK *4545:D 0.000227992
6 *236:10 *4545:D 0.000121019
7 *474:31 *4545:D 0.000136679
*RES
1 *4189:Y *4545:D 14.1 
*END

*D_NET *811 0.000412352
*CONN
*I *4546:D I *D sky130_fd_sc_hd__dfrtp_2
*I *4192:Y O *D sky130_fd_sc_hd__o21ai_2
*CAP
1 *4546:D 0.000153517
2 *4192:Y 0.000153517
3 *4192:A2 *4546:D 4.61244e-05
4 *474:25 *4546:D 5.54336e-05
5 *474:31 *4546:D 3.75882e-06
*RES
1 *4192:Y *4546:D 9.975 
*END

*D_NET *812 0.000350946
*CONN
*I *4547:D I *D sky130_fd_sc_hd__dfrtp_2
*I *4196:Y O *D sky130_fd_sc_hd__o21ai_2
*CAP
1 *4547:D 9.09041e-05
2 *4196:Y 9.09041e-05
3 *4547:D *4025:A 1.52945e-05
4 *4547:D *834:23 2.46089e-05
5 *4196:A1 *4547:D 1.92979e-05
6 *4196:A2 *4547:D 5.07362e-05
7 *474:82 *4547:D 5.92006e-05
8 *696:81 *4547:D 0
*RES
1 *4196:Y *4547:D 9.345 
*END

*D_NET *813 0.000523449
*CONN
*I *4548:D I *D sky130_fd_sc_hd__dfrtp_2
*I *4199:Y O *D sky130_fd_sc_hd__o21ai_2
*CAP
1 *4548:D 8.1435e-05
2 *4199:Y 8.1435e-05
3 *4195:B *4548:D 0.000199777
4 *4196:A2 *4548:D 3.97823e-05
5 *4548:CLK *4548:D 0.000121019
*RES
1 *4199:Y *4548:D 5.84 
*END

*D_NET *814 0.000439384
*CONN
*I *4549:D I *D sky130_fd_sc_hd__dfrtp_2
*I *4201:Y O *D sky130_fd_sc_hd__o21ai_2
*CAP
1 *4549:D 0.000180208
2 *4201:Y 0.000180208
3 *4627:A *4549:D 7.89689e-05
*RES
1 *4201:Y *4549:D 10.32 
*END

*D_NET *815 0.000973772
*CONN
*I *4550:D I *D sky130_fd_sc_hd__dfrtp_2
*I *4203:Y O *D sky130_fd_sc_hd__o21ai_2
*CAP
1 *4550:D 0.000333438
2 *4203:Y 0.000333438
3 *4203:A2 *4550:D 0.000198511
4 *4661:A *4550:D 1.83365e-05
5 *464:10 *4550:D 8.42161e-05
6 *564:14 *4550:D 5.83121e-06
*RES
1 *4203:Y *4550:D 12.66 
*END

*D_NET *816 0.000985895
*CONN
*I *4532:D I *D sky130_fd_sc_hd__dfrtp_2
*I *4155:Y O *D sky130_fd_sc_hd__o21ai_2
*CAP
1 *4532:D 0.000255645
2 *4155:Y 0.000255645
3 *4532:D *4158:A1 9.5433e-05
4 *4532:D *827:10 0.000187071
5 *4532:D *827:12 0.00011852
6 *4155:A2 *4532:D 7.35813e-05
7 *4156:B *4532:D 0
8 *553:10 *4532:D 0
9 *553:16 *4532:D 0
*RES
1 *4155:Y *4532:D 12.78 
*END

*D_NET *817 0.0012983
*CONN
*I *4551:D I *D sky130_fd_sc_hd__dfrtp_2
*I *4205:Y O *D sky130_fd_sc_hd__o211ai_2
*CAP
1 *4551:D 0.000327698
2 *4205:Y 0.000327698
3 *4551:D *4791:A 5.4003e-05
4 *4551:D *840:8 5.83121e-06
5 *4551:D *840:12 0.000383698
6 *4028:B *4551:D 9.50342e-06
7 *4551:CLK *4551:D 0.000189872
8 *464:10 *4551:D 0
*RES
1 *4205:Y *4551:D 13.98 
*END

*D_NET *818 0.0010669
*CONN
*I *4552:D I *D sky130_fd_sc_hd__dfrtp_2
*I *4206:X O *D sky130_fd_sc_hd__a21bo_2
*CAP
1 *4552:D 0.000177955
2 *4206:X 0.000177955
3 *4532:RESET_B *4552:D 5.02217e-05
4 *4552:RESET_B *4552:D 7.96759e-05
5 *475:8 *4552:D 5.23362e-05
6 *475:12 *4552:D 0.000116853
7 *475:43 *4552:D 9.27326e-05
8 *696:16 *4552:D 0.000319167
*RES
1 *4206:X *4552:D 12.705 
*END

*D_NET *819 0.000672856
*CONN
*I *4533:D I *D sky130_fd_sc_hd__dfrtp_2
*I *4157:Y O *D sky130_fd_sc_hd__o21ai_2
*CAP
1 *4533:D 0.000182525
2 *4157:Y 0.000182525
3 *4157:A2 *4533:D 0.000109338
4 *4160:A2 *4533:D 0.000124895
5 *473:16 *4533:D 7.35729e-05
6 *473:22 *4533:D 0
7 *473:24 *4533:D 0
*RES
1 *4157:Y *4533:D 11.505 
*END

*D_NET *820 0.000689086
*CONN
*I *4534:D I *D sky130_fd_sc_hd__dfrtp_2
*I *4160:Y O *D sky130_fd_sc_hd__o21ai_2
*CAP
1 *4534:D 0.000320397
2 *4160:Y 0.000320397
3 *4157:B1 *4534:D 0
4 *4166:A3 *4534:D 0
5 *4534:CLK *4534:D 4.82919e-05
6 *232:8 *4534:D 0
*RES
1 *4160:Y *4534:D 11.79 
*END

*D_NET *821 0.000456176
*CONN
*I *4535:D I *D sky130_fd_sc_hd__dfrtp_2
*I *4163:Y O *D sky130_fd_sc_hd__o21ai_2
*CAP
1 *4535:D 0.000105873
2 *4163:Y 0.000105873
3 *4163:B1 *4535:D 4.82863e-05
4 *4165:A1 *4535:D 8.40213e-05
5 *4165:A2 *4535:D 0
6 *4165:B1 *4535:D 0.000112123
*RES
1 *4163:Y *4535:D 9.375 
*END

*D_NET *822 0.000854648
*CONN
*I *4536:D I *D sky130_fd_sc_hd__dfrtp_2
*I *4165:Y O *D sky130_fd_sc_hd__o21ai_2
*CAP
1 *4536:D 0.000289719
2 *4165:Y 0.000289719
3 *4536:D *4166:A1 0.000109338
4 *4165:A2 *4536:D 0
5 *4535:RESET_B *4536:D 0.000165871
*RES
1 *4165:Y *4536:D 12.195 
*END

*D_NET *823 0.000727177
*CONN
*I *4537:D I *D sky130_fd_sc_hd__dfrtp_2
*I *4168:Y O *D sky130_fd_sc_hd__o21ai_2
*CAP
1 *4537:D 0.000249498
2 *4168:Y 0.000249498
3 *4168:A1 *4537:D 0
4 *4537:CLK *4537:D 6.97202e-05
5 *493:12 *4537:D 4.7043e-05
6 *542:43 *4537:D 0.000111417
*RES
1 *4168:Y *4537:D 11.79 
*END

*D_NET *824 0.000317807
*CONN
*I *4538:D I *D sky130_fd_sc_hd__dfrtp_2
*I *4171:Y O *D sky130_fd_sc_hd__o21ai_2
*CAP
1 *4538:D 3.68702e-05
2 *4171:Y 3.68702e-05
3 *4176:A1 *4538:D 0.000114016
4 *4176:B1 *4538:D 8.33066e-06
5 *652:10 *4538:D 9.12494e-06
6 *652:12 *4538:D 0.000112595
*RES
1 *4171:Y *4538:D 8.58 
*END

*D_NET *825 0.000868773
*CONN
*I *4539:D I *D sky130_fd_sc_hd__dfrtp_2
*I *4173:Y O *D sky130_fd_sc_hd__o21ai_2
*CAP
1 *4539:D 0.000333921
2 *4173:Y 0.000333921
3 *4173:A1 *4539:D 0
4 *493:14 *4539:D 2.4997e-05
5 *493:16 *4539:D 0.000175933
6 *542:45 *4539:D 0
*RES
1 *4173:Y *4539:D 13.215 
*END

*D_NET *826 0.000362598
*CONN
*I *4540:D I *D sky130_fd_sc_hd__dfrtp_2
*I *4176:Y O *D sky130_fd_sc_hd__o21ai_2
*CAP
1 *4540:D 0.000181299
2 *4176:Y 0.000181299
*RES
1 *4176:Y *4540:D 9.825 
*END

*D_NET *827 0.00382528
*CONN
*I *4153:A I *D sky130_fd_sc_hd__and2_2
*I *4777:A I *D sky130_fd_sc_hd__dlygate4sd3_1
*I *4015:A I *D sky130_fd_sc_hd__or4_2
*I *4014:A I *D sky130_fd_sc_hd__nor2_2
*I *4158:A1 I *D sky130_fd_sc_hd__o31ai_2
*I *4531:Q O *D sky130_fd_sc_hd__dfrtp_2
*CAP
1 *4153:A 0
2 *4777:A 0.000219508
3 *4015:A 8.14282e-05
4 *4014:A 0
5 *4158:A1 0.000181457
6 *4531:Q 0.000189231
7 *827:33 0.000134008
8 *827:27 0.000568555
9 *827:12 0.000509074
10 *827:10 0.000220381
11 *4015:A *4014:B 1.16578e-05
12 *4015:A *4015:C 0.000161529
13 *4015:A *838:21 1.33285e-05
14 *4777:A *4153:B 0.000112622
15 *4777:A *838:12 0
16 *827:33 *4014:B 3.25635e-05
17 *4152:A1 *4777:A 4.82919e-05
18 *4152:B1 *4777:A 9.37731e-05
19 *4154:A *827:27 0.000271308
20 *4155:A2 *4158:A1 5.16418e-05
21 *4155:A2 *827:12 8.59365e-05
22 *4155:B1 *827:27 2.05056e-05
23 *4156:B *4158:A1 0
24 *4532:CLK *4158:A1 0.000110307
25 *4532:CLK *827:10 9.9535e-05
26 *4532:CLK *827:12 1.26626e-05
27 *4532:D *4158:A1 9.5433e-05
28 *4532:D *827:10 0.000187071
29 *4532:D *827:12 0.00011852
30 *4660:A *4777:A 1.17409e-05
31 *229:6 *827:27 8.65961e-05
32 *230:27 *4158:A1 9.66106e-05
33 *553:10 *827:10 0
*RES
1 *4531:Q *827:10 7.725 
2 *827:10 *827:12 1.38 
3 *827:12 *4158:A1 7.995 
4 *827:12 *827:27 5.9 
5 *827:27 *827:33 1.17 
6 *827:33 *4014:A 1.6 
7 *827:33 *4015:A 3.43 
8 *827:27 *4777:A 9.605 
9 *827:10 *4153:A 3.6 
*END

*D_NET *828 0.00401145
*CONN
*I *4021:A I *D sky130_fd_sc_hd__or4_2
*I *4182:A1 I *D sky130_fd_sc_hd__o31ai_2
*I *4177:A I *D sky130_fd_sc_hd__and2_2
*I *4020:A I *D sky130_fd_sc_hd__nor2_2
*I *4541:Q O *D sky130_fd_sc_hd__dfrtp_2
*CAP
1 *4021:A 0.000260273
2 *4182:A1 0.000322772
3 *4177:A 0
4 *4020:A 4.65472e-05
5 *4541:Q 0
6 *828:17 0.000421886
7 *828:6 0.000807842
8 *828:4 0.000922454
9 *4021:A *4021:C 1.82111e-05
10 *4020:B *4020:A 9.12671e-06
11 *4020:B *828:6 1.19028e-05
12 *4180:B *828:17 0.000145584
13 *4182:A3 *4182:A1 0.000235568
14 *4541:CLK *828:6 2.49909e-05
15 *4541:CLK *828:17 0.000134756
16 *4541:D *828:6 1.34618e-05
17 *4541:RESET_B *828:6 1.78201e-05
18 *4544:RESET_B *4021:A 7.14166e-05
19 *4544:RESET_B *828:6 3.25525e-05
20 *232:16 *4182:A1 0
21 *473:24 *4182:A1 0.000155176
22 *473:26 *4182:A1 0.000210021
23 *473:26 *828:17 0.000149088
*RES
1 *4541:Q *828:4 1.6 
2 *828:4 *828:6 7.35 
3 *828:6 *4020:A 2.47 
4 *828:6 *828:17 5.42 
5 *828:17 *4177:A 3.6 
6 *828:17 *4182:A1 10.65 
7 *828:4 *4021:A 9.41 
*END

*D_NET *829 0.00192875
*CONN
*I *4182:A2 I *D sky130_fd_sc_hd__o31ai_2
*I *4180:A I *D sky130_fd_sc_hd__xnor2_2
*I *4021:B I *D sky130_fd_sc_hd__or4_2
*I *4542:Q O *D sky130_fd_sc_hd__dfrtp_2
*CAP
1 *4182:A2 0.000257668
2 *4180:A 8.78237e-05
3 *4021:B 5.94914e-05
4 *4542:Q 0.000358658
5 *829:22 0.000644658
6 *4182:A2 *4182:B1 5.20968e-05
7 *4021:D *4021:B 2.74281e-05
8 *4021:D *829:22 0.000104412
9 *4178:A *4180:A 4.77769e-05
10 *4178:B *4180:A 6.63221e-05
11 *4181:A2 *829:22 7.03276e-05
12 *4182:A3 *4182:A2 3.95724e-05
13 *542:35 *4182:A2 0
14 *693:16 *4182:A2 5.98004e-06
15 *693:18 *4182:A2 8.61724e-05
16 *693:18 *829:22 2.03643e-05
*RES
1 *4542:Q *4021:B 3.995 
2 *4542:Q *829:22 7.755 
3 *829:22 *4180:A 5.445 
4 *829:22 *4182:A2 8.775 
*END

*D_NET *830 0.00122988
*CONN
*I *4182:B1 I *D sky130_fd_sc_hd__o31ai_2
*I *4021:C I *D sky130_fd_sc_hd__or4_2
*I *4543:Q O *D sky130_fd_sc_hd__dfrtp_2
*CAP
1 *4182:B1 0.000232756
2 *4021:C 0.000299309
3 *4543:Q 0.000532065
4 *4021:A *4021:C 1.82111e-05
5 *4182:A2 *4182:B1 5.20968e-05
6 *4189:B1 *4021:C 0
7 *693:16 *4182:B1 9.54399e-05
8 *693:18 *4021:C 0
*RES
1 *4543:Q *4021:C 11.67 
2 *4543:Q *4182:B1 10.5 
*END

*D_NET *831 0.00372203
*CONN
*I *4022:A I *D sky130_fd_sc_hd__nor2_2
*I *4185:A I *D sky130_fd_sc_hd__and2_2
*I *4024:A I *D sky130_fd_sc_hd__or3_2
*I *4026:A I *D sky130_fd_sc_hd__or4_2
*I *4190:A1 I *D sky130_fd_sc_hd__o31ai_2
*I *4544:Q O *D sky130_fd_sc_hd__dfrtp_2
*CAP
1 *4022:A 2.03706e-05
2 *4185:A 0
3 *4024:A 0.000372618
4 *4026:A 0
5 *4190:A1 0.000117464
6 *4544:Q 0
7 *831:55 0.000130705
8 *831:25 0.000479577
9 *831:10 0.000766755
10 *831:4 0.000652665
11 *831:10 *832:10 0.000133085
12 *831:10 *832:21 0.00029937
13 *831:25 *4023:A 8.39222e-05
14 *831:25 *4190:A2 2.5137e-05
15 *831:25 *832:21 9.08126e-05
16 *4022:B *4022:A 4.90341e-05
17 *4026:B *4024:A 2.54824e-05
18 *4026:B *831:25 8.74345e-06
19 *4185:B *4022:A 1.26044e-05
20 *4186:A *831:55 0.000111293
21 *4188:B *4022:A 7.64529e-07
22 *4190:A3 *4190:A1 5.83121e-06
23 *4192:A2 *4190:A1 8.88726e-05
24 *4200:A1 *4024:A 1.41095e-05
25 *4200:A2 *4024:A 1.08758e-05
26 *4200:B1_N *4024:A 7.87003e-05
27 *4544:D *831:10 5.83121e-06
28 *237:8 *4022:A 5.18542e-05
29 *239:14 *4024:A 3.92156e-05
30 *241:8 *4024:A 4.63352e-05
31 *474:25 *4024:A 0
32 *474:25 *831:25 0
*RES
1 *4544:Q *831:4 1.6 
2 *831:4 *831:10 10.415 
3 *831:10 *4190:A1 5.805 
4 *831:10 *831:25 2.4 
5 *831:25 *4026:A 3.6 
6 *831:25 *4024:A 9.165 
7 *831:4 *831:55 5.83 
8 *831:55 *4185:A 1.6 
9 *831:55 *4022:A 2.56 
*END

*D_NET *832 0.00270589
*CONN
*I *4023:A I *D sky130_fd_sc_hd__or2_2
*I *4190:A2 I *D sky130_fd_sc_hd__o31ai_2
*I *4188:A I *D sky130_fd_sc_hd__xnor2_2
*I *4545:Q O *D sky130_fd_sc_hd__dfrtp_2
*CAP
1 *4023:A 0.000138163
2 *4190:A2 0.000123865
3 *4188:A 2.61242e-05
4 *4545:Q 0.000202897
5 *832:21 0.000412354
6 *832:10 0.000379347
7 *4024:C *4023:A 5.83121e-06
8 *4026:B *4023:A 4.70326e-05
9 *4026:B *832:21 4.28674e-05
10 *4026:D *4023:A 0.0001249
11 *4192:A2 *4190:A2 0.000119866
12 *4544:D *832:10 0.00013629
13 *4545:RESET_B *832:10 4.89362e-05
14 *236:10 *4188:A 4.66108e-05
15 *236:14 *832:10 1.42807e-05
16 *236:14 *832:21 0.000167832
17 *238:6 *4023:A 3.63661e-05
18 *474:25 *4190:A2 0
19 *831:10 *832:10 0.000133085
20 *831:10 *832:21 0.00029937
21 *831:25 *4023:A 8.39222e-05
22 *831:25 *4190:A2 2.5137e-05
23 *831:25 *832:21 9.08126e-05
*RES
1 *4545:Q *832:10 7.725 
2 *832:10 *4188:A 4.05 
3 *832:10 *832:21 4.695 
4 *832:21 *4190:A2 9.355 
5 *832:21 *4023:A 6.555 
*END

*D_NET *833 0.00103887
*CONN
*I *4023:B I *D sky130_fd_sc_hd__or2_2
*I *4190:B1 I *D sky130_fd_sc_hd__o31ai_2
*I *4546:Q O *D sky130_fd_sc_hd__dfrtp_2
*CAP
1 *4023:B 6.61464e-05
2 *4190:B1 7.67016e-05
3 *4546:Q 0.000189349
4 *833:10 0.000332197
5 *4026:B *4023:B 0
6 *4191:A *4023:B 7.41259e-05
7 *4191:A *833:10 1.22505e-05
8 *4191:B *4190:B1 0.000163204
9 *4192:A2 *4190:B1 0.0001249
10 *236:14 *833:10 0
*RES
1 *4546:Q *833:10 6.1575 
2 *833:10 *4190:B1 5.7675 
3 *833:10 *4023:B 5.1075 
*END

*D_NET *834 0.00457708
*CONN
*I *4193:A I *D sky130_fd_sc_hd__nor2_2
*I *4197:A I *D sky130_fd_sc_hd__or3_2
*I *4025:A I *D sky130_fd_sc_hd__or3_2
*I *4194:A I *D sky130_fd_sc_hd__nand2_2
*I *4547:Q O *D sky130_fd_sc_hd__dfrtp_2
*CAP
1 *4193:A 3.03716e-05
2 *4197:A 0.000111217
3 *4025:A 0.000253979
4 *4194:A 7.6487e-05
5 *4547:Q 0.00025729
6 *834:38 0.00040602
7 *834:23 0.000732914
8 *834:6 0.00054828
9 *4025:A *4025:B 0.000539839
10 *4025:A *4025:C 0.000337524
11 *4025:A *4198:A 0.000152227
12 *4194:B *4197:A 9.50342e-06
13 *4195:B *4194:A 0.000180486
14 *4196:A2 *4025:A 1.20662e-05
15 *4202:B *4194:A 0.00024677
16 *4547:D *4025:A 1.52945e-05
17 *4547:D *834:23 2.46089e-05
18 *4547:RESET_B *834:6 8.90438e-05
19 *4549:RESET_B *4025:A 0
20 *239:46 *4197:A 0.000166346
21 *342:12 *834:38 0.000235573
22 *474:82 *4197:A 2.23485e-05
23 *696:81 *4025:A 0.000106383
24 *696:81 *834:23 2.25075e-05
*RES
1 *4547:Q *834:6 4.465 
2 *834:6 *4194:A 8.51 
3 *834:6 *834:23 4.7 
4 *834:23 *4025:A 12.375 
5 *834:23 *834:38 5.48 
6 *834:38 *4197:A 8 
7 *834:38 *4193:A 2.05 
*END

*D_NET *835 0.00251494
*CONN
*I *4197:B I *D sky130_fd_sc_hd__or3_2
*I *4198:A I *D sky130_fd_sc_hd__xnor2_2
*I *4025:B I *D sky130_fd_sc_hd__or3_2
*I *4548:Q O *D sky130_fd_sc_hd__dfrtp_2
*CAP
1 *4197:B 6.08465e-05
2 *4198:A 0.000197733
3 *4025:B 0.00021068
4 *4548:Q 0.00013414
5 *835:8 0.000481707
6 *4025:A *4025:B 0.000539839
7 *4025:A *4198:A 0.000152227
8 *4026:D *4025:B 5.53249e-06
9 *4191:A *4025:B 4.49415e-05
10 *4196:A2 *4025:B 7.5416e-05
11 *4196:A2 *4198:A 0.000160071
12 *4196:A2 *835:8 1.56428e-05
13 *4196:B1 *4198:A 0.000188523
14 *239:31 *4025:B 0.000164502
15 *239:31 *4197:B 2.59835e-05
16 *239:31 *835:8 1.16578e-05
17 *239:46 *4197:B 5.83121e-06
18 *342:12 *4198:A 3.96653e-05
*RES
1 *4548:Q *835:8 4.74 
2 *835:8 *4025:B 10.59 
3 *835:8 *4198:A 8.37 
4 *4548:Q *4197:B 3.995 
*END

*D_NET *836 0.00122124
*CONN
*I *4789:A I *D sky130_fd_sc_hd__dlygate4sd3_1
*I *4025:C I *D sky130_fd_sc_hd__or3_2
*I *4549:Q O *D sky130_fd_sc_hd__dfrtp_2
*CAP
1 *4789:A 0.000161631
2 *4025:C 0.000110802
3 *4549:Q 6.16434e-05
4 *836:6 0.000334076
5 *4025:A *4025:C 0.000337524
6 *4200:A1 *4025:C 0.000160529
7 *4200:A1 *836:6 4.80285e-05
8 *4549:RESET_B *836:6 7.00889e-06
*RES
1 *4549:Q *836:6 2.74 
2 *836:6 *4025:C 9.53 
3 *836:6 *4789:A 3.775 
*END

*D_NET *837 0.00276366
*CONN
*I *4027:A I *D sky130_fd_sc_hd__or3_2
*I *4204:A1 I *D sky130_fd_sc_hd__o21ai_2
*I *4202:A I *D sky130_fd_sc_hd__xor2_2
*I *4550:Q O *D sky130_fd_sc_hd__dfrtp_2
*CAP
1 *4027:A 5.92856e-05
2 *4204:A1 0.000355699
3 *4202:A 0.000139392
4 *4550:Q 0
5 *837:6 0.000495091
6 *837:4 5.92856e-05
7 *4204:A1 *4027:B 4.70343e-05
8 *4204:A1 *4742:A 5.12017e-06
9 *4027:C *4027:A 8.65961e-05
10 *4204:A2 *4202:A 3.09233e-05
11 *4204:A2 *4204:A1 0.000804765
12 *4570:CLK *4204:A1 0.000178504
13 *4629:A *4204:A1 2.7228e-05
14 *4743:A *4204:A1 4.77719e-05
15 *241:40 *4202:A 0.000304814
16 *242:12 *4202:A 0.000122155
*RES
1 *4550:Q *837:4 1.6 
2 *837:4 *837:6 2 
3 *837:6 *4202:A 7.575 
4 *837:6 *4204:A1 13.23 
5 *837:4 *4027:A 2.74 
*END

*D_NET *838 0.00336485
*CONN
*I *4153:B I *D sky130_fd_sc_hd__and2_2
*I *4014:B I *D sky130_fd_sc_hd__nor2_2
*I *4158:A2 I *D sky130_fd_sc_hd__o31ai_2
*I *4015:B I *D sky130_fd_sc_hd__or4_2
*I *4532:Q O *D sky130_fd_sc_hd__dfrtp_2
*CAP
1 *4153:B 0.000236544
2 *4014:B 5.16303e-05
3 *4158:A2 0.000127742
4 *4015:B 0
5 *4532:Q 5.71921e-05
6 *838:21 0.000300552
7 *838:12 0.000291414
8 *838:8 0.000463971
9 *4158:A2 *4015:C 0.000126679
10 *4158:A2 *4158:A3 8.65961e-05
11 *4158:A2 *841:21 8.53113e-06
12 *838:12 *4015:C 0
13 *838:12 *4015:D 9.47454e-05
14 *838:21 *4015:C 0.000161529
15 *4015:A *4014:B 1.16578e-05
16 *4015:A *838:21 1.33285e-05
17 *4152:A1 *4153:B 0.000203178
18 *4152:B1 *4153:B 0.000131799
19 *4152:B1 *838:12 0
20 *4154:B *4153:B 0
21 *4155:A2 *4153:B 2.49909e-05
22 *4531:D *4153:B 0.000393029
23 *4531:D *838:8 4.94404e-05
24 *4660:A *4153:B 4.35348e-05
25 *4777:A *4153:B 0.000112622
26 *4777:A *838:12 0
27 *230:8 *838:12 5.53249e-06
28 *230:27 *4158:A2 0.000158066
29 *653:70 *4158:A2 7.36562e-05
30 *653:70 *838:12 0
31 *696:16 *838:8 4.40899e-05
32 *696:16 *838:12 6.0236e-05
33 *827:33 *4014:B 3.25635e-05
*RES
1 *4532:Q *838:8 4.98 
2 *838:8 *838:12 4.91 
3 *838:12 *4015:B 1.6 
4 *838:12 *838:21 2.19 
5 *838:21 *4158:A2 9.08 
6 *838:21 *4014:B 2.77 
7 *838:8 *4153:B 10.62 
*END

*D_NET *839 0.000988092
*CONN
*I *4742:A I *D sky130_fd_sc_hd__dlygate4sd3_1
*I *4027:B I *D sky130_fd_sc_hd__or3_2
*I *4551:Q O *D sky130_fd_sc_hd__dfrtp_2
*CAP
1 *4742:A 8.86933e-05
2 *4027:B 6.80614e-05
3 *4551:Q 0.000190971
4 *839:8 0.000347725
5 *4204:A1 *4027:B 4.70343e-05
6 *4204:A1 *4742:A 5.12017e-06
7 *4551:RESET_B *839:8 2.75145e-05
8 *4570:CLK *4742:A 0.000164686
9 *4570:CLK *839:8 4.82863e-05
*RES
1 *4551:Q *839:8 6.465 
2 *839:8 *4027:B 4.98 
3 *839:8 *4742:A 5.745 
*END

*D_NET *840 0.00349304
*CONN
*I *4791:A I *D sky130_fd_sc_hd__dlygate4sd3_1
*I *3844:A I *D sky130_fd_sc_hd__inv_2
*I *4028:A I *D sky130_fd_sc_hd__nor2_2
*I *4552:Q O *D sky130_fd_sc_hd__dfrtp_2
*CAP
1 *4791:A 0.000260387
2 *3844:A 0.000261653
3 *4028:A 0
4 *4552:Q 3.56363e-05
5 *840:12 0.00042859
6 *840:8 0.000462961
7 *4028:B *840:12 8.34426e-05
8 *4203:A2 *3844:A 9.67629e-05
9 *4203:B1 *3844:A 6.77023e-05
10 *4205:A1 *840:12 0.00020779
11 *4206:A1 *4791:A 4.80285e-05
12 *4551:D *4791:A 5.4003e-05
13 *4551:D *840:8 5.83121e-06
14 *4551:D *840:12 0.000383698
15 *4660:A *3844:A 0.000162978
16 *4661:A *3844:A 0.000209779
17 *4676:A *4791:A 0.000171793
18 *4676:A *840:12 0.000185634
19 *449:296 *4791:A 0.000136284
20 *449:300 *4791:A 0
21 *449:322 *4791:A 0.000111285
22 *464:10 *3844:A 5.87532e-05
23 *564:95 *3844:A 6.0047e-05
*RES
1 *4552:Q *840:8 4.05 
2 *840:8 *840:12 8.225 
3 *840:12 *4028:A 1.6 
4 *840:12 *3844:A 11.81 
5 *840:8 *4791:A 9.645 
*END

*D_NET *841 0.0022282
*CONN
*I *4015:C I *D sky130_fd_sc_hd__or4_2
*I *4158:A3 I *D sky130_fd_sc_hd__o31ai_2
*I *4156:A I *D sky130_fd_sc_hd__xnor2_2
*I *4533:Q O *D sky130_fd_sc_hd__dfrtp_2
*CAP
1 *4015:C 0.000126336
2 *4158:A3 7.69091e-05
3 *4156:A 2.61242e-05
4 *4533:Q 0.000238794
5 *841:21 0.000269785
6 *841:10 0.000331458
7 *4015:C *4015:D 5.83121e-06
8 *4158:A3 *4158:B1 1.08758e-05
9 *4015:A *4015:C 0.000161529
10 *4158:A2 *4015:C 0.000126679
11 *4158:A2 *4158:A3 8.65961e-05
12 *4158:A2 *841:21 8.53113e-06
13 *4159:A *4015:C 1.70935e-05
14 *4159:A *841:10 6.73491e-05
15 *4159:A *841:21 0.000100544
16 *4159:B *841:10 0.000133535
17 *4159:B *841:21 0.000133075
18 *4160:A2 *841:10 9.60582e-07
19 *4533:RESET_B *841:10 1.0063e-05
20 *230:8 *4015:C 4.50017e-05
21 *230:27 *4158:A3 2.05056e-05
22 *653:70 *4015:C 1.01661e-05
23 *653:70 *841:21 1.23244e-05
24 *653:96 *4156:A 4.66108e-05
25 *838:12 *4015:C 0
26 *838:21 *4015:C 0.000161529
*RES
1 *4533:Q *841:10 7.065 
2 *841:10 *4156:A 4.05 
3 *841:10 *841:21 2.145 
4 *841:21 *4158:A3 5.1 
5 *841:21 *4015:C 7.32 
*END

*D_NET *842 0.00166522
*CONN
*I *4015:D I *D sky130_fd_sc_hd__or4_2
*I *4158:B1 I *D sky130_fd_sc_hd__o31ai_2
*I *4534:Q O *D sky130_fd_sc_hd__dfrtp_2
*CAP
1 *4015:D 0.000158697
2 *4158:B1 0.000118003
3 *4534:Q 0.000254859
4 *842:8 0.000531559
5 *4015:C *4015:D 5.83121e-06
6 *4158:A3 *4158:B1 1.08758e-05
7 *4159:A *4015:D 2.75538e-05
8 *4159:A *842:8 8.08153e-06
9 *4201:B1 *4015:D 0
10 *4201:B1 *842:8 0
11 *230:8 *4015:D 2.97291e-05
12 *230:27 *4158:B1 2.8185e-05
13 *655:32 *4158:B1 3.54025e-05
14 *655:46 *842:8 0
15 *693:8 *842:8 0.000182195
16 *693:10 *842:8 5.20968e-05
17 *696:16 *4015:D 0.000127408
18 *838:12 *4015:D 9.47454e-05
*RES
1 *4534:Q *842:8 8.805 
2 *842:8 *4158:B1 5.43 
3 *842:8 *4015:D 7.305 
*END

*D_NET *843 0.00485177
*CONN
*I *4161:A I *D sky130_fd_sc_hd__and2_2
*I *4166:A1 I *D sky130_fd_sc_hd__o31ai_2
*I *4017:A I *D sky130_fd_sc_hd__or4_2
*I *4016:A I *D sky130_fd_sc_hd__nor2_2
*I *4535:Q O *D sky130_fd_sc_hd__dfrtp_2
*CAP
1 *4161:A 0
2 *4166:A1 0.000539851
3 *4017:A 0.000214298
4 *4016:A 1.85694e-05
5 *4535:Q 0.000227447
6 *843:42 0.000698744
7 *843:14 0.000344721
8 *843:10 0.000498194
9 *4166:A1 *4166:A2 0
10 *4160:A1 *4017:A 0
11 *4161:B *843:42 0.000161829
12 *4163:A2 *4166:A1 0
13 *4165:A1 *4166:A1 4.40725e-05
14 *4165:A2 *4166:A1 0
15 *4165:B1 *4166:A1 7.17811e-05
16 *4166:A3 *4017:A 4.18603e-06
17 *4168:B1 *4166:A1 4.99619e-05
18 *4535:CLK *4166:A1 0.000125525
19 *4535:RESET_B *843:10 2.11084e-05
20 *4536:D *4166:A1 0.000109338
21 *4677:A *843:42 8.97408e-05
22 *4699:A *843:10 7.59725e-05
23 *4699:A *843:42 7.24949e-05
24 *3:16 *4166:A1 0
25 *230:27 *4016:A 9.53428e-06
26 *230:27 *4017:A 2.75145e-05
27 *230:27 *843:14 2.30292e-05
28 *230:31 *843:14 4.82919e-05
29 *230:33 *4017:A 0.000128049
30 *231:8 *843:14 2.75229e-05
31 *493:10 *4166:A1 7.70938e-05
32 *493:12 *4166:A1 0.000101118
33 *553:59 *4017:A 3.66286e-05
34 *553:59 *843:14 0.000344459
35 *653:10 *4166:A1 0.000137249
36 *653:10 *843:42 0.000241483
37 *653:36 *843:42 0.000122331
38 *655:8 *843:14 8.73389e-06
39 *655:32 *843:14 7.67415e-06
40 *682:27 *4166:A1 0.000115779
41 *682:27 *843:42 2.7441e-05
*RES
1 *4535:Q *843:10 6.555 
2 *843:10 *843:14 5.21 
3 *843:14 *4016:A 1.96 
4 *843:14 *4017:A 9.98 
5 *843:10 *843:42 7.715 
6 *843:42 *4166:A1 18.185 
7 *843:42 *4161:A 1.6 
*END

*D_NET *844 0.00262332
*CONN
*I *4017:B I *D sky130_fd_sc_hd__or4_2
*I *4164:A I *D sky130_fd_sc_hd__xnor2_2
*I *4166:A2 I *D sky130_fd_sc_hd__o31ai_2
*I *4536:Q O *D sky130_fd_sc_hd__dfrtp_2
*CAP
1 *4017:B 0.000214024
2 *4164:A 0
3 *4166:A2 0.000548964
4 *4536:Q 8.79691e-05
5 *844:27 0.000305012
6 *844:6 0.000727921
7 *4017:B *4017:C 2.49909e-05
8 *4165:A2 *4017:B 0
9 *4166:A1 *4166:A2 0
10 *4166:A3 *4166:A2 8.65905e-05
11 *4168:A2 *844:6 8.40269e-05
12 *4168:A2 *844:27 3.09233e-05
13 *4168:B1 *4166:A2 9.53428e-06
14 *4536:RESET_B *4017:B 7.70758e-05
15 *4536:RESET_B *4166:A2 1.32907e-06
16 *4536:RESET_B *844:6 7.40482e-06
17 *4536:RESET_B *844:27 0.000141606
18 *4674:A *844:27 3.39944e-05
19 *493:12 *4166:A2 0
20 *652:6 *4166:A2 0.000164874
21 *680:25 *4166:A2 0
22 *680:25 *844:27 7.70828e-05
*RES
1 *4536:Q *844:6 2.74 
2 *844:6 *4166:A2 13.235 
3 *844:6 *844:27 4.655 
4 *844:27 *4164:A 3.6 
5 *844:27 *4017:B 6.3 
*END

*D_NET *845 0.00230475
*CONN
*I *4017:C I *D sky130_fd_sc_hd__or4_2
*I *4166:B1 I *D sky130_fd_sc_hd__o31ai_2
*I *4537:Q O *D sky130_fd_sc_hd__dfrtp_2
*CAP
1 *4017:C 0.000189619
2 *4166:B1 8.21322e-05
3 *4537:Q 7.89135e-05
4 *845:8 0.000350664
5 *4017:B *4017:C 2.49909e-05
6 *4164:B *4017:C 3.25831e-05
7 *4166:A3 *4017:C 0.000316806
8 *4166:A3 *4166:B1 0.000410454
9 *4674:A *4017:C 0.000191875
10 *4674:A *4166:B1 4.99619e-05
11 *230:33 *4017:C 2.14129e-05
12 *232:16 *4017:C 0
13 *232:16 *845:8 0
14 *652:6 *4166:B1 0.000241483
15 *652:52 *4166:B1 0.000313852
16 *680:25 *845:8 0
*RES
1 *4537:Q *845:8 4.725 
2 *845:8 *4166:B1 8.535 
3 *845:8 *4017:C 9.09 
*END

*D_NET *846 0.00232394
*CONN
*I *4169:A I *D sky130_fd_sc_hd__and2_2
*I *4019:A I *D sky130_fd_sc_hd__or4_2
*I *4018:A I *D sky130_fd_sc_hd__nor2_2
*I *4174:A1 I *D sky130_fd_sc_hd__o31ai_2
*I *4538:Q O *D sky130_fd_sc_hd__dfrtp_2
*CAP
1 *4169:A 6.55586e-05
2 *4019:A 3.43921e-05
3 *4018:A 0.000119576
4 *4174:A1 0
5 *4538:Q 0
6 *846:30 0.000245024
7 *846:12 0.000482646
8 *846:4 0.000508143
9 *846:12 *4019:B 1.34687e-05
10 *846:12 *847:16 3.2294e-05
11 *846:30 *4019:B 2.01829e-05
12 *4018:B *4018:A 0.000361562
13 *4019:D *4169:A 0.000113222
14 *4019:D *846:30 8.35118e-05
15 *4170:A *846:12 1.74776e-05
16 *4171:A2 *4018:A 4.77769e-05
17 *4171:A2 *846:12 2.69443e-06
18 *4172:B *846:12 2.23253e-05
19 *4173:A2 *846:12 9.60582e-07
20 *4538:RESET_B *846:12 4.20673e-05
21 *233:8 *4018:A 0.000111058
*RES
1 *4538:Q *846:4 1.6 
2 *846:4 *846:12 8.59 
3 *846:12 *4174:A1 1.6 
4 *846:12 *4018:A 5.53 
5 *846:4 *846:30 1.83 
6 *846:30 *4019:A 2.215 
7 *846:30 *4169:A 6.98 
*END

*D_NET *847 0.00182514
*CONN
*I *4174:A2 I *D sky130_fd_sc_hd__o31ai_2
*I *4019:B I *D sky130_fd_sc_hd__or4_2
*I *4172:A I *D sky130_fd_sc_hd__xnor2_2
*I *4539:Q O *D sky130_fd_sc_hd__dfrtp_2
*CAP
1 *4174:A2 0
2 *4019:B 8.27556e-05
3 *4172:A 8.16153e-05
4 *4539:Q 0.000223498
5 *847:16 0.000330658
6 *847:10 0.000389786
7 *4019:D *4019:B 4.7072e-06
8 *4170:A *847:10 0.000127307
9 *4170:A *847:16 5.20249e-05
10 *4172:B *847:16 0.000157035
11 *4538:RESET_B *847:16 1.55562e-05
12 *4539:RESET_B *847:10 1.23607e-05
13 *4540:RESET_B *4172:A 0.000156786
14 *4540:RESET_B *847:16 2.93006e-05
15 *680:29 *847:10 4.88301e-05
16 *680:29 *847:16 4.69705e-05
17 *846:12 *4019:B 1.34687e-05
18 *846:12 *847:16 3.2294e-05
19 *846:30 *4019:B 2.01829e-05
*RES
1 *4539:Q *847:10 7.065 
2 *847:10 *847:16 5.885 
3 *847:16 *4172:A 7.49 
4 *847:16 *4019:B 3.1 
5 *847:10 *4174:A2 3.6 
*END

*D_NET *848 0.00100447
*CONN
*I *4174:B1 I *D sky130_fd_sc_hd__o31ai_2
*I *4019:C I *D sky130_fd_sc_hd__or4_2
*I *4540:Q O *D sky130_fd_sc_hd__dfrtp_2
*CAP
1 *4174:B1 0.000161228
2 *4019:C 0
3 *4540:Q 0.000223952
4 *848:8 0.00038518
5 *4019:D *4174:B1 0.000111293
6 *232:31 *4174:B1 0.000122817
*RES
1 *4540:Q *848:8 7.02 
2 *848:8 *4019:C 3.6 
3 *848:8 *4174:B1 6.63 
*END

*D_NET *849 0.000540186
*CONN
*I *4599:A I *D sky130_fd_sc_hd__buf_2
*I *4013:Y O *D sky130_fd_sc_hd__inv_2
*CAP
1 *4599:A 0.000260608
2 *4013:Y 0.000260608
3 *4212:B *4599:A 1.8969e-05
*RES
1 *4013:Y *4599:A 10.665 
*END

*D_NET *850 0.000572455
*CONN
*I *4509:D I *D sky130_fd_sc_hd__dfrtp_2
*I *4208:Y O *D sky130_fd_sc_hd__o21ai_2
*CAP
1 *4509:D 0.000180772
2 *4208:Y 0.000180772
3 *4211:B1 *4509:D 0.000140912
4 *492:16 *4509:D 6.99988e-05
*RES
1 *4208:Y *4509:D 10.365 
*END

*D_NET *851 0.00100016
*CONN
*I *4519:D I *D sky130_fd_sc_hd__dfrtp_2
*I *4235:Y O *D sky130_fd_sc_hd__o21ai_2
*CAP
1 *4519:D 0.000152765
2 *4235:Y 0.000152765
3 *4235:A1 *4519:D 0.000208491
4 *220:38 *4519:D 0.000189291
5 *477:20 *4519:D 4.92896e-05
6 *575:14 *4519:D 0.00024756
*RES
1 *4235:Y *4519:D 12.5588 
*END

*D_NET *852 0.000685954
*CONN
*I *4520:D I *D sky130_fd_sc_hd__dfrtp_2
*I *4237:Y O *D sky130_fd_sc_hd__o21ai_2
*CAP
1 *4520:D 0.00021952
2 *4237:Y 0.00021952
3 *4520:D *873:8 0
4 *4520:D *873:23 0
5 *4237:A1 *4520:D 2.75145e-05
6 *4237:A2 *4520:D 0
7 *4519:RESET_B *4520:D 0
8 *218:25 *4520:D 9.37731e-05
9 *661:12 *4520:D 0.000125626
*RES
1 *4237:Y *4520:D 11.67 
*END

*D_NET *853 0.000575076
*CONN
*I *4521:D I *D sky130_fd_sc_hd__dfrtp_2
*I *4240:Y O *D sky130_fd_sc_hd__o21ai_2
*CAP
1 *4521:D 6.74982e-05
2 *4240:Y 6.74982e-05
3 *4240:A2 *4521:D 0.000120655
4 *4240:B1 *4521:D 0.000162083
5 *4520:CLK *4521:D 4.35432e-05
6 *661:12 *4521:D 0.000113797
*RES
1 *4240:Y *4521:D 9.72 
*END

*D_NET *854 0.000247707
*CONN
*I *4522:D I *D sky130_fd_sc_hd__dfrtp_2
*I *4243:Y O *D sky130_fd_sc_hd__o21ai_2
*CAP
1 *4522:D 4.69142e-05
2 *4243:Y 4.69142e-05
3 *4242:A *4522:D 7.81876e-05
4 *4245:A1 *4522:D 6.5525e-05
5 *488:67 *4522:D 1.01661e-05
*RES
1 *4243:Y *4522:D 8.835 
*END

*D_NET *855 0.000452541
*CONN
*I *4523:D I *D sky130_fd_sc_hd__dfrtp_2
*I *4245:Y O *D sky130_fd_sc_hd__o21ai_2
*CAP
1 *4523:D 7.87264e-05
2 *4245:Y 7.87264e-05
3 *4523:D *4241:A 5.05437e-05
4 *4523:D *876:20 5.83121e-06
5 *4245:A1 *4523:D 0.000118527
6 *4245:A2 *4523:D 0.000120186
*RES
1 *4245:Y *4523:D 9.375 
*END

*D_NET *856 0.000957475
*CONN
*I *4524:D I *D sky130_fd_sc_hd__dfrtp_2
*I *4248:Y O *D sky130_fd_sc_hd__o21ai_2
*CAP
1 *4524:D 0.000225983
2 *4248:Y 0.000225983
3 *4524:D *4246:A2 0.000229897
4 *4524:D *876:16 0.000178504
5 *4245:B1 *4524:D 0
6 *4248:A2 *4524:D 9.71067e-05
7 *450:10 *4524:D 0
*RES
1 *4248:Y *4524:D 12.915 
*END

*D_NET *857 0.000283976
*CONN
*I *4525:D I *D sky130_fd_sc_hd__dfrtp_2
*I *4252:Y O *D sky130_fd_sc_hd__o21ai_2
*CAP
1 *4525:D 7.0355e-05
2 *4252:Y 7.0355e-05
3 *4252:A2 *4525:D 0.000143266
4 *492:58 *4525:D 0
*RES
1 *4252:Y *4525:D 8.835 
*END

*D_NET *858 0.00125111
*CONN
*I *4526:D I *D sky130_fd_sc_hd__dfrtp_2
*I *4254:Y O *D sky130_fd_sc_hd__o21ai_2
*CAP
1 *4526:D 0.000259551
2 *4254:Y 0.000259551
3 *4210:B *4526:D 3.31103e-05
4 *4254:A2 *4526:D 0.000474336
5 *4662:A *4526:D 2.97004e-06
6 *597:20 *4526:D 0
7 *597:31 *4526:D 0.000137571
8 *662:8 *4526:D 8.40213e-05
*RES
1 *4254:Y *4526:D 13.905 
*END

*D_NET *859 0.000412644
*CONN
*I *4527:D I *D sky130_fd_sc_hd__dfrtp_2
*I *4257:Y O *D sky130_fd_sc_hd__o21ai_2
*CAP
1 *4527:D 5.80764e-05
2 *4257:Y 5.80764e-05
3 *4527:D *879:25 4.66108e-05
4 *4527:CLK *4527:D 2.49909e-05
5 *4662:A *4527:D 0.000112445
6 *597:10 *4527:D 0.000112445
*RES
1 *4257:Y *4527:D 9.03 
*END

*D_NET *860 0.000651904
*CONN
*I *4528:D I *D sky130_fd_sc_hd__dfrtp_2
*I *4259:Y O *D sky130_fd_sc_hd__o21ai_2
*CAP
1 *4528:D 0.00015691
2 *4259:Y 0.00015691
3 *4259:A2 *4528:D 6.58423e-05
4 *4262:A *4528:D 0.000105849
5 *608:14 *4528:D 0.000149292
6 *608:16 *4528:D 1.71013e-05
*RES
1 *4259:Y *4528:D 10.83 
*END

*D_NET *861 0.000395242
*CONN
*I *4510:D I *D sky130_fd_sc_hd__dfrtp_2
*I *4211:Y O *D sky130_fd_sc_hd__o21ai_2
*CAP
1 *4510:D 7.36664e-05
2 *4211:Y 7.36664e-05
3 *4211:A1 *4510:D 8.40069e-05
4 *4211:A2 *4510:D 0.000158072
5 *597:52 *4510:D 5.83121e-06
*RES
1 *4211:Y *4510:D 5.03 
*END

*D_NET *862 0.00148318
*CONN
*I *4529:D I *D sky130_fd_sc_hd__dfrtp_2
*I *4262:X O *D sky130_fd_sc_hd__or2_2
*CAP
1 *4529:D 0.000457537
2 *4262:X 0.000457537
3 *4529:D *3843:A 4.82863e-05
4 *4529:D *885:8 0
5 *4529:D *885:19 0
6 *4262:A *4529:D 0
7 *107:24 *4529:D 0.000109028
8 *681:75 *4529:D 9.14049e-05
9 *682:14 *4529:D 0.000319383
*RES
1 *4262:X *4529:D 16.785 
*END

*D_NET *863 0.000251144
*CONN
*I *4530:D I *D sky130_fd_sc_hd__dfrtp_2
*I *4263:X O *D sky130_fd_sc_hd__a21bo_2
*CAP
1 *4530:D 4.73846e-05
2 *4263:X 4.73846e-05
3 *4261:B1 *4530:D 7.81876e-05
4 *227:21 *4530:D 7.81876e-05
*RES
1 *4263:X *4530:D 8.835 
*END

*D_NET *864 0.000326898
*CONN
*I *4511:D I *D sky130_fd_sc_hd__dfrtp_2
*I *4213:Y O *D sky130_fd_sc_hd__o21ai_2
*CAP
1 *4511:D 9.74896e-05
2 *4213:Y 9.74896e-05
3 *4213:A1 *4511:D 4.77807e-05
4 *4511:CLK *4511:D 8.41384e-05
*RES
1 *4213:Y *4511:D 5.03 
*END

*D_NET *865 0.000369391
*CONN
*I *4512:D I *D sky130_fd_sc_hd__dfrtp_2
*I *4216:Y O *D sky130_fd_sc_hd__o21ai_2
*CAP
1 *4512:D 6.89692e-05
2 *4216:Y 6.89692e-05
3 *4216:A1 *4512:D 0.000115726
4 *4216:B1 *4512:D 0.000115726
*RES
1 *4216:Y *4512:D 9.03 
*END

*D_NET *866 0.00133474
*CONN
*I *4513:D I *D sky130_fd_sc_hd__dfrtp_2
*I *4219:Y O *D sky130_fd_sc_hd__o21ai_2
*CAP
1 *4513:D 0.000421347
2 *4219:Y 0.000421347
3 *4219:A1 *4513:D 8.34281e-06
4 *4219:A2 *4513:D 0.000176726
5 *4227:A1 *4513:D 4.89395e-05
6 *4515:CLK *4513:D 0.000119873
7 *575:24 *4513:D 9.05592e-05
8 *661:22 *4513:D 4.76051e-05
*RES
1 *4219:Y *4513:D 14.19 
*END

*D_NET *867 0.000375492
*CONN
*I *4514:D I *D sky130_fd_sc_hd__dfrtp_2
*I *4221:Y O *D sky130_fd_sc_hd__o21ai_2
*CAP
1 *4514:D 7.4443e-05
2 *4221:Y 7.4443e-05
3 *4221:A1 *4514:D 0.000112589
4 *4221:B1 *4514:D 0.000114016
*RES
1 *4221:Y *4514:D 9.03 
*END

*D_NET *868 0.000951806
*CONN
*I *4515:D I *D sky130_fd_sc_hd__dfrtp_2
*I *4224:Y O *D sky130_fd_sc_hd__o21ai_2
*CAP
1 *4515:D 0.000285115
2 *4224:Y 0.000285115
3 *4515:D *4002:A 3.68682e-05
4 *4515:D *4002:B 0
5 *4515:D *4002:C 0.000120655
6 *4223:B *4515:D 0.000160776
7 *661:18 *4515:D 6.32751e-05
*RES
1 *4224:Y *4515:D 13.14 
*END

*D_NET *869 0.00130488
*CONN
*I *4516:D I *D sky130_fd_sc_hd__dfrtp_2
*I *4227:Y O *D sky130_fd_sc_hd__o21ai_2
*CAP
1 *4516:D 0.000498004
2 *4227:Y 0.000498004
3 *4516:D *4600:A 0.000154931
4 *4227:A1 *4516:D 2.20014e-05
5 *4227:B1 *4516:D 8.64421e-05
6 *4516:RESET_B *4516:D 4.54998e-05
*RES
1 *4227:Y *4516:D 15.51 
*END

*D_NET *870 0.00115405
*CONN
*I *4517:D I *D sky130_fd_sc_hd__dfrtp_2
*I *4229:Y O *D sky130_fd_sc_hd__o21ai_2
*CAP
1 *4517:D 0.000404068
2 *4229:Y 0.000404068
3 *4517:D *4003:A 5.00173e-05
4 *4003:B *4517:D 7.6391e-05
5 *4226:A *4517:D 8.30853e-06
6 *4228:B *4517:D 0.000155056
7 *4229:A2 *4517:D 5.61452e-05
*RES
1 *4229:Y *4517:D 14.445 
*END

*D_NET *871 0.000558691
*CONN
*I *4518:D I *D sky130_fd_sc_hd__dfrtp_2
*I *4232:Y O *D sky130_fd_sc_hd__o21ai_2
*CAP
1 *4518:D 0.000262824
2 *4232:Y 0.000262824
3 *4232:B1 *4518:D 3.30434e-05
*RES
1 *4232:Y *4518:D 10.515 
*END

*D_NET *872 0.00294908
*CONN
*I *4209:A I *D sky130_fd_sc_hd__and2_2
*I *3999:A I *D sky130_fd_sc_hd__nor2_2
*I *4776:A I *D sky130_fd_sc_hd__dlygate4sd3_1
*I *4214:A1 I *D sky130_fd_sc_hd__o31ai_2
*I *4000:A I *D sky130_fd_sc_hd__or4_2
*I *4509:Q O *D sky130_fd_sc_hd__dfrtp_2
*CAP
1 *4209:A 0
2 *3999:A 0.000113102
3 *4776:A 0
4 *4214:A1 1.71961e-05
5 *4000:A 0.000130648
6 *4509:Q 0.000187387
7 *872:47 0.000165961
8 *872:40 0.000255318
9 *872:14 0.000455046
10 *872:10 0.000697048
11 *3999:A *3999:B 8.62279e-05
12 *4000:A *4000:C 4.77807e-05
13 *872:10 *4214:B1 9.23804e-06
14 *872:10 *883:34 0
15 *872:14 *4214:B1 4.77769e-05
16 *872:40 *4214:B1 0.000121659
17 *4208:A1 *4000:A 2.69217e-05
18 *4208:A1 *872:14 8.25505e-05
19 *4210:A *4000:A 4.96188e-05
20 *4213:A2 *4000:A 1.91597e-05
21 *4215:B *872:14 8.41384e-05
22 *597:75 *4000:A 0.000136685
23 *662:40 *872:14 1.22325e-05
24 *679:25 *872:10 5.39718e-05
25 *679:34 *872:10 0.00014941
*RES
1 *4509:Q *872:10 9.785 
2 *872:10 *872:14 3.915 
3 *872:14 *4000:A 8.48 
4 *872:14 *4214:A1 1.96 
5 *872:10 *872:40 2.79 
6 *872:40 *4776:A 1.6 
7 *872:40 *872:47 0.795 
8 *872:47 *3999:A 7.49 
9 *872:47 *4209:A 1.6 
*END

*D_NET *873 0.00537624
*CONN
*I *4006:A I *D sky130_fd_sc_hd__or4_2
*I *4238:A1 I *D sky130_fd_sc_hd__o31ai_2
*I *4005:A I *D sky130_fd_sc_hd__nor2_2
*I *4233:A I *D sky130_fd_sc_hd__and2_2
*I *4519:Q O *D sky130_fd_sc_hd__dfrtp_2
*CAP
1 *4006:A 0.000164553
2 *4238:A1 0.000208267
3 *4005:A 0.000255115
4 *4233:A 0.000676872
5 *4519:Q 4.61086e-05
6 *873:25 0.00052724
7 *873:23 0.000416496
8 *873:8 0.000911066
9 *4005:A *4236:A 4.99619e-05
10 *4005:A *874:32 3.66286e-05
11 *4006:A *4006:B 4.05674e-06
12 *4238:A1 *4238:A2 0.000233466
13 *873:25 *874:32 8.40269e-05
14 *4006:D *4005:A 1.60203e-05
15 *4006:D *4006:A 7.37172e-05
16 *4006:D *873:25 2.05056e-05
17 *4007:B *4238:A1 4.43591e-05
18 *4234:A *4005:A 1.16578e-05
19 *4236:B *4005:A 0.000122331
20 *4237:A2 *873:8 3.86529e-05
21 *4237:A2 *873:23 6.45317e-05
22 *4238:A3 *4238:A1 1.26626e-05
23 *4240:A2 *4233:A 4.84323e-05
24 *4240:A2 *873:23 0.000442725
25 *4240:B1 *4238:A1 0
26 *4520:CLK *4233:A 7.35813e-05
27 *4520:D *873:8 0
28 *4520:D *873:23 0
29 *4520:RESET_B *873:23 6.20952e-05
30 *220:21 *4233:A 5.4155e-06
31 *220:38 *4233:A 0.000158608
32 *220:47 *4005:A 0.000120819
33 *661:12 *873:23 0
34 *677:33 *4238:A1 0.000248261
35 *677:33 *873:23 0.000198004
*RES
1 *4519:Q *873:8 4.47 
2 *873:8 *4233:A 11.91 
3 *873:8 *873:23 8.48 
4 *873:23 *873:25 1.14 
5 *873:25 *4005:A 6.205 
6 *873:25 *4238:A1 10.7 
7 *873:23 *4006:A 4.135 
*END

*D_NET *874 0.00260457
*CONN
*I *4238:A2 I *D sky130_fd_sc_hd__o31ai_2
*I *4236:A I *D sky130_fd_sc_hd__xnor2_2
*I *4006:B I *D sky130_fd_sc_hd__or4_2
*I *4520:Q O *D sky130_fd_sc_hd__dfrtp_2
*CAP
1 *4238:A2 0.00010126
2 *4236:A 7.77117e-06
3 *4006:B 0.000664747
4 *4520:Q 0.0004931
5 *874:32 0.000280678
6 *4006:B *4238:B1 0
7 *4006:B *875:10 0
8 *4005:A *4236:A 4.99619e-05
9 *4005:A *874:32 3.66286e-05
10 *4006:A *4006:B 4.05674e-06
11 *4006:D *4236:A 4.82863e-05
12 *4006:D *874:32 0.00021083
13 *4007:B *4238:A2 8.40213e-05
14 *4237:A2 *4006:B 0
15 *4238:A1 *4238:A2 0.000233466
16 *4238:A3 *4238:A2 0.000160658
17 *4240:A2 *874:32 3.9442e-05
18 *4682:A *4006:B 0
19 *222:12 *4006:B 3.09164e-05
20 *677:33 *874:32 7.47215e-05
21 *873:25 *874:32 8.40269e-05
*RES
1 *4520:Q *4006:B 14.565 
2 *4006:B *874:32 9.095 
3 *874:32 *4236:A 2.05 
4 *874:32 *4238:A2 8.9 
*END

*D_NET *875 0.00136942
*CONN
*I *4238:B1 I *D sky130_fd_sc_hd__o31ai_2
*I *4006:C I *D sky130_fd_sc_hd__or4_2
*I *4521:Q O *D sky130_fd_sc_hd__dfrtp_2
*CAP
1 *4238:B1 0.000269627
2 *4006:C 0
3 *4521:Q 0.000226943
4 *875:10 0.00049657
5 *4006:B *4238:B1 0
6 *4006:B *875:10 0
7 *4007:B *4238:B1 1.12578e-05
8 *4237:A2 *875:10 9.54977e-05
9 *4239:B *4238:B1 9.91257e-05
10 *4240:A2 *4238:B1 0
11 *4240:A2 *875:10 0
12 *222:12 *4238:B1 6.30316e-05
13 *222:14 *4238:B1 2.49909e-05
14 *222:33 *4238:B1 5.23362e-05
15 *661:8 *875:10 3.00381e-05
16 *677:33 *4238:B1 0
*RES
1 *4521:Q *875:10 7.47 
2 *875:10 *4006:C 3.6 
3 *875:10 *4238:B1 8.43 
*END

*D_NET *876 0.00401539
*CONN
*I *4008:A I *D sky130_fd_sc_hd__or4_2
*I *4246:A1 I *D sky130_fd_sc_hd__o31ai_2
*I *4007:A I *D sky130_fd_sc_hd__nor2_2
*I *4241:A I *D sky130_fd_sc_hd__and2_2
*I *4522:Q O *D sky130_fd_sc_hd__dfrtp_2
*CAP
1 *4008:A 0.000335202
2 *4246:A1 0
3 *4007:A 0.000176621
4 *4241:A 0.000104327
5 *4522:Q 0
6 *876:20 0.000357249
7 *876:16 0.000560729
8 *876:4 0.00081963
9 *4008:A *4246:B1 0
10 *4008:A *878:12 4.7043e-05
11 *876:16 *4246:A2 8.40269e-05
12 *876:16 *4246:B1 0
13 *4240:A1 *4007:A 0
14 *4241:B *4241:A 0.000202372
15 *4241:B *876:16 2.7441e-05
16 *4241:B *876:20 0.00014719
17 *4242:B *4241:A 7.00889e-06
18 *4244:B *4007:A 0
19 *4245:B1 *876:20 4.66108e-05
20 *4522:RESET_B *4008:A 0.000201503
21 *4522:RESET_B *876:16 0.000120741
22 *4523:D *4241:A 5.05437e-05
23 *4523:D *876:20 5.83121e-06
24 *4523:RESET_B *4008:A 0
25 *4523:RESET_B *876:16 8.17755e-05
26 *4524:CLK *4008:A 0
27 *4524:CLK *876:16 9.37731e-05
28 *4524:D *876:16 0.000178504
29 *4530:CLK *876:16 3.21052e-05
30 *4630:A *4007:A 0.000162318
31 *450:10 *4007:A 0.000172845
32 *450:10 *876:16 0
33 *663:10 *4008:A 0
*RES
1 *4522:Q *876:4 1.6 
2 *876:4 *876:16 13.225 
3 *876:16 *876:20 1.845 
4 *876:20 *4241:A 4.24 
5 *876:20 *4007:A 9.53 
6 *876:16 *4246:A1 1.6 
7 *876:4 *4008:A 11.105 
*END

*D_NET *877 0.00227831
*CONN
*I *4008:B I *D sky130_fd_sc_hd__or4_2
*I *4246:A2 I *D sky130_fd_sc_hd__o31ai_2
*I *4244:A I *D sky130_fd_sc_hd__xnor2_2
*I *4523:Q O *D sky130_fd_sc_hd__dfrtp_2
*CAP
1 *4008:B 5.55492e-05
2 *4246:A2 0.000145023
3 *4244:A 0.000282725
4 *4523:Q 0
5 *877:6 0.000720075
6 *877:4 0.000347876
7 *4008:B *4246:B1 4.60584e-05
8 *877:6 *4246:B1 2.75229e-05
9 *4241:B *4246:A2 4.92062e-05
10 *4244:B *4244:A 1.26626e-05
11 *4245:A1 *4244:A 0.000141599
12 *4245:A2 *4244:A 9.54399e-05
13 *4245:B1 *4246:A2 2.97004e-06
14 *4523:CLK *4244:A 1.01661e-05
15 *4523:RESET_B *877:6 2.75145e-05
16 *4524:D *4246:A2 0.000229897
17 *450:10 *4246:A2 0
18 *876:16 *4246:A2 8.40269e-05
*RES
1 *4523:Q *877:4 1.6 
2 *877:4 *877:6 3.21 
3 *877:6 *4244:A 9.755 
4 *877:6 *4246:A2 9.05 
5 *877:4 *4008:B 2.395 
*END

*D_NET *878 0.000910614
*CONN
*I *4008:C I *D sky130_fd_sc_hd__or4_2
*I *4246:B1 I *D sky130_fd_sc_hd__o31ai_2
*I *4524:Q O *D sky130_fd_sc_hd__dfrtp_2
*CAP
1 *4008:C 0
2 *4246:B1 0.000206623
3 *4524:Q 0.00013832
4 *878:12 0.000344942
5 *4008:A *4246:B1 0
6 *4008:A *878:12 4.7043e-05
7 *4008:B *4246:B1 4.60584e-05
8 *4008:D *4246:B1 2.75145e-05
9 *4523:RESET_B *4246:B1 4.43871e-06
10 *224:6 *878:12 2.11084e-05
11 *663:10 *878:12 4.7043e-05
12 *876:16 *4246:B1 0
13 *877:6 *4246:B1 2.75229e-05
*RES
1 *4524:Q *878:12 8.465 
2 *878:12 *4246:B1 9.32 
3 *878:12 *4008:C 1.6 
*END

*D_NET *879 0.00356473
*CONN
*I *4255:A1 I *D sky130_fd_sc_hd__o31a_2
*I *4249:A I *D sky130_fd_sc_hd__nor2_2
*I *4250:A I *D sky130_fd_sc_hd__nand2_2
*I *4009:A I *D sky130_fd_sc_hd__or3_2
*I *4525:Q O *D sky130_fd_sc_hd__dfrtp_2
*CAP
1 *4255:A1 0.000111911
2 *4249:A 2.16046e-05
3 *4250:A 4.09061e-05
4 *4009:A 0
5 *4525:Q 0.000291396
6 *879:25 0.000841969
7 *879:21 0.000939935
8 *879:10 0.000339962
9 *4255:A1 *4009:C 1.16578e-05
10 *4255:A1 *881:8 4.00541e-06
11 *879:10 *4009:C 8.7152e-06
12 *879:10 *4255:A2 3.59902e-05
13 *879:10 *880:10 4.05358e-05
14 *879:21 *4009:C 0.000104176
15 *879:21 *4255:A2 5.88411e-05
16 *879:25 *4009:C 1.91597e-05
17 *879:25 *881:8 3.09088e-05
18 *4250:B *4249:A 2.14129e-05
19 *4250:B *4250:A 0.000116927
20 *4250:B *879:25 8.49205e-05
21 *4255:A3 *4255:A1 1.33293e-05
22 *4255:A3 *879:25 4.33703e-05
23 *4527:CLK *879:25 4.29107e-05
24 *4527:D *879:25 4.66108e-05
25 *4535:RESET_B *879:10 0
26 *4645:A *879:10 5.21627e-05
27 *4683:A *879:10 0.00010727
28 *224:49 *879:25 4.47678e-05
29 *458:12 *879:10 0
30 *663:57 *4249:A 2.7881e-05
31 *663:57 *4250:A 6.14974e-05
*RES
1 *4525:Q *879:10 8.76 
2 *879:10 *4009:A 3.6 
3 *879:10 *879:21 3.38 
4 *879:21 *879:25 11.075 
5 *879:25 *4250:A 4.98 
6 *879:25 *4249:A 4.215 
7 *879:21 *4255:A1 3.46 
*END

*D_NET *880 0.00135474
*CONN
*I *4255:A2 I *D sky130_fd_sc_hd__o31a_2
*I *4253:A I *D sky130_fd_sc_hd__xnor2_2
*I *4009:B I *D sky130_fd_sc_hd__or3_2
*I *4526:Q O *D sky130_fd_sc_hd__dfrtp_2
*CAP
1 *4255:A2 0.00015125
2 *4253:A 0.000166155
3 *4009:B 0
4 *4526:Q 7.19121e-05
5 *880:14 0.000206383
6 *880:10 0.00026339
7 *4255:A2 *4009:C 1.73877e-05
8 *4535:RESET_B *4255:A2 1.71013e-05
9 *4535:RESET_B *880:10 3.67779e-05
10 *4646:A *880:10 5.83121e-06
11 *4683:A *4253:A 9.2741e-05
12 *3:16 *4255:A2 0
13 *225:20 *4253:A 0.000159112
14 *225:20 *880:14 3.81908e-06
15 *458:12 *880:10 2.75145e-05
16 *879:10 *4255:A2 3.59902e-05
17 *879:10 *880:10 4.05358e-05
18 *879:21 *4255:A2 5.88411e-05
*RES
1 *4526:Q *880:10 4.92 
2 *880:10 *880:14 2.45 
3 *880:14 *4009:B 1.6 
4 *880:14 *4253:A 5.545 
5 *880:10 *4255:A2 6.255 
*END

*D_NET *881 0.000600999
*CONN
*I *4255:B1 I *D sky130_fd_sc_hd__o31a_2
*I *4009:C I *D sky130_fd_sc_hd__or3_2
*I *4527:Q O *D sky130_fd_sc_hd__dfrtp_2
*CAP
1 *4255:B1 0
2 *4009:C 0.000123904
3 *4527:Q 4.05418e-05
4 *881:8 0.000164446
5 *4255:A1 *4009:C 1.16578e-05
6 *4255:A1 *881:8 4.00541e-06
7 *4255:A2 *4009:C 1.73877e-05
8 *4255:A3 *881:8 7.60965e-05
9 *458:12 *4009:C 0
10 *879:10 *4009:C 8.7152e-06
11 *879:21 *4009:C 0.000104176
12 *879:25 *4009:C 1.91597e-05
13 *879:25 *881:8 3.09088e-05
*RES
1 *4527:Q *881:8 3.1 
2 *881:8 *4009:C 7.94 
3 *881:8 *4255:B1 1.6 
*END

*D_NET *882 0.00208081
*CONN
*I *4258:A I *D sky130_fd_sc_hd__xnor2_2
*I *4260:A1 I *D sky130_fd_sc_hd__o31a_2
*I *4011:A I *D sky130_fd_sc_hd__or4_2
*I *4528:Q O *D sky130_fd_sc_hd__dfrtp_2
*CAP
1 *4258:A 0
2 *4260:A1 0.000225175
3 *4011:A 0.00040642
4 *4528:Q 0.000198536
5 *882:19 0.000319491
6 *882:6 0.000699273
7 *4258:B *4260:A1 0
8 *4262:A *4260:A1 1.47347e-05
9 *4262:A *882:19 0
10 *224:23 *4011:A 3.64998e-06
11 *225:20 *4260:A1 4.82863e-05
12 *682:14 *4260:A1 8.77073e-05
13 *682:14 *882:19 7.75325e-05
*RES
1 *4528:Q *882:6 4.465 
2 *882:6 *4011:A 7.24 
3 *882:6 *882:19 4.145 
4 *882:19 *4260:A1 7.83 
5 *882:19 *4258:A 3.6 
*END

*D_NET *883 0.00276204
*CONN
*I *4209:B I *D sky130_fd_sc_hd__and2_2
*I *3999:B I *D sky130_fd_sc_hd__nor2_2
*I *4214:A2 I *D sky130_fd_sc_hd__o31ai_2
*I *4000:B I *D sky130_fd_sc_hd__or4_2
*I *4510:Q O *D sky130_fd_sc_hd__dfrtp_2
*CAP
1 *4209:B 0
2 *3999:B 8.58504e-05
3 *4214:A2 0
4 *4000:B 0.00016986
5 *4510:Q 0
6 *883:34 0.000336282
7 *883:10 0.000603541
8 *883:4 0.000684113
9 *4000:B *4000:C 1.07593e-05
10 *3999:A *3999:B 8.62279e-05
11 *4013:A *4000:B 0.000196747
12 *4013:A *883:10 0.000137054
13 *4173:A1 *883:34 0
14 *4210:A *4000:B 0.000202134
15 *4210:A *883:10 0.000129603
16 *4210:B *883:34 3.86529e-05
17 *4213:A2 *4000:B 4.89395e-05
18 *4215:B *4000:B 7.28465e-06
19 *597:52 *883:10 2.49909e-05
20 *872:10 *883:34 0
*RES
1 *4510:Q *883:4 1.6 
2 *883:4 *883:10 7.88 
3 *883:10 *4000:B 7.395 
4 *883:10 *4214:A2 3.6 
5 *883:4 *883:34 5.465 
6 *883:34 *3999:B 5.49 
7 *883:34 *4209:B 3.6 
*END

*D_NET *884 0.0015717
*CONN
*I *4011:B I *D sky130_fd_sc_hd__or4_2
*I *4260:B1 I *D sky130_fd_sc_hd__o31a_2
*I *4529:Q O *D sky130_fd_sc_hd__dfrtp_2
*CAP
1 *4011:B 0
2 *4260:B1 0.000208443
3 *4529:Q 0.000104696
4 *884:10 0.000313138
5 *4011:C *4260:B1 3.93301e-05
6 *4011:D *4260:B1 0.000368139
7 *4258:B *4260:B1 0.000122331
8 *4261:A1 *884:10 3.45588e-05
9 *4527:CLK *4260:B1 1.34361e-05
10 *224:29 *4260:B1 0.000167709
11 *224:39 *4260:B1 2.30292e-05
12 *225:26 *4260:B1 0.000100575
13 *227:10 *884:10 0
14 *494:60 *4260:B1 3.76596e-05
15 *494:60 *884:10 3.86529e-05
*RES
1 *4529:Q *884:10 5.265 
2 *884:10 *4260:B1 10.485 
3 *884:10 *4011:B 3.6 
*END

*D_NET *885 0.00299077
*CONN
*I *3843:A I *D sky130_fd_sc_hd__inv_2
*I *4012:A I *D sky130_fd_sc_hd__nor2_2
*I *4788:A I *D sky130_fd_sc_hd__dlygate4sd3_1
*I *4530:Q O *D sky130_fd_sc_hd__dfrtp_2
*CAP
1 *3843:A 0.00023046
2 *4012:A 0.00017257
3 *4788:A 2.12116e-05
4 *4530:Q 7.70952e-05
5 *885:19 0.000496766
6 *885:8 0.000192043
7 *4262:A *3843:A 6.65804e-05
8 *4262:A *885:8 4.32126e-05
9 *4262:A *885:19 6.02186e-05
10 *4422:D *4012:A 0.000164874
11 *4529:D *3843:A 4.82863e-05
12 *4529:D *885:8 0
13 *4529:D *885:19 0
14 *4665:A *4012:A 0.000804115
15 *107:24 *3843:A 0.00023468
16 *350:12 *4788:A 4.82863e-05
17 *449:266 *4012:A 0.000206362
18 *494:6 *4012:A 3.74161e-05
19 *494:12 *4012:A 8.65905e-05
*RES
1 *4530:Q *885:8 4.98 
2 *885:8 *4788:A 4.05 
3 *885:8 *885:19 1.89 
4 *885:19 *4012:A 11.31 
5 *885:19 *3843:A 8.535 
*END

*D_NET *886 0.00223783
*CONN
*I *4212:A I *D sky130_fd_sc_hd__xnor2_2
*I *4214:A3 I *D sky130_fd_sc_hd__o31ai_2
*I *4000:C I *D sky130_fd_sc_hd__or4_2
*I *4511:Q O *D sky130_fd_sc_hd__dfrtp_2
*CAP
1 *4212:A 0
2 *4214:A3 4.89175e-05
3 *4000:C 8.2968e-05
4 *4511:Q 0.000323979
5 *886:14 0.000178178
6 *886:12 0.000370271
7 *4000:C *4000:D 0.000192502
8 *886:12 *887:8 4.43394e-05
9 *886:14 *4000:D 0.000193136
10 *4000:A *4000:C 4.77807e-05
11 *4000:B *4000:C 1.07593e-05
12 *4013:A *4214:A3 0.000154987
13 *4013:A *886:14 6.14645e-05
14 *4210:A *4000:C 0.000119251
15 *4210:A *886:14 7.32625e-05
16 *4212:B *886:12 4.28112e-06
17 *4213:A2 *4000:C 0.000116535
18 *4215:B *4214:A3 0.000132827
19 *679:34 *4214:A3 9.12857e-06
20 *679:34 *886:12 7.32598e-05
*RES
1 *4511:Q *886:12 10.1 
2 *886:12 *886:14 1.83 
3 *886:14 *4000:C 4.585 
4 *886:14 *4214:A3 7.49 
5 *886:12 *4212:A 1.6 
*END

*D_NET *887 0.00208133
*CONN
*I *4214:B1 I *D sky130_fd_sc_hd__o31ai_2
*I *4000:D I *D sky130_fd_sc_hd__or4_2
*I *4512:Q O *D sky130_fd_sc_hd__dfrtp_2
*CAP
1 *4214:B1 0.000143335
2 *4000:D 0.000256807
3 *4512:Q 0.000249308
4 *887:8 0.00064945
5 *4000:C *4000:D 0.000192502
6 *4013:A *4000:D 5.01624e-05
7 *4208:A1 *4214:B1 2.69153e-05
8 *4212:B *4000:D 4.66108e-05
9 *4212:B *4214:B1 2.02316e-05
10 *4212:B *887:8 2.98587e-05
11 *872:10 *4214:B1 9.23804e-06
12 *872:14 *4214:B1 4.77769e-05
13 *872:40 *4214:B1 0.000121659
14 *886:12 *887:8 4.43394e-05
15 *886:14 *4000:D 0.000193136
*RES
1 *4512:Q *887:8 7.53 
2 *887:8 *4000:D 8.19 
3 *887:8 *4214:B1 6.465 
*END

*D_NET *888 0.00192006
*CONN
*I *4002:A I *D sky130_fd_sc_hd__or4_2
*I *4001:A I *D sky130_fd_sc_hd__nor2_2
*I *4217:A I *D sky130_fd_sc_hd__and2_2
*I *4222:A1 I *D sky130_fd_sc_hd__o31ai_2
*I *4513:Q O *D sky130_fd_sc_hd__dfrtp_2
*CAP
1 *4002:A 0.000238024
2 *4001:A 0
3 *4217:A 0
4 *4222:A1 0.000150646
5 *4513:Q 0.000294764
6 *888:12 0.000341381
7 *888:8 0.000247476
8 *4002:A *4002:B 7.23602e-05
9 *4002:A *4002:C 4.99619e-05
10 *4222:A3 *4222:A1 0.000198656
11 *4223:B *4002:A 0
12 *4515:D *4002:A 3.68682e-05
13 *4519:RESET_B *4002:A 3.84331e-05
14 *216:42 *4222:A1 1.28996e-05
15 *216:42 *888:12 0.000183653
16 *217:10 *4002:A 1.14953e-05
17 *217:10 *888:8 3.33763e-05
18 *674:79 *4002:A 1.0063e-05
*RES
1 *4513:Q *888:8 2.755 
2 *888:8 *888:12 5.93 
3 *888:12 *4222:A1 6.885 
4 *888:12 *4217:A 3.6 
5 *888:8 *4001:A 1.6 
6 *4513:Q *4002:A 11.115 
*END

*D_NET *889 0.00228389
*CONN
*I *4002:B I *D sky130_fd_sc_hd__or4_2
*I *4220:A I *D sky130_fd_sc_hd__xnor2_2
*I *4222:A2 I *D sky130_fd_sc_hd__o31ai_2
*I *4514:Q O *D sky130_fd_sc_hd__dfrtp_2
*CAP
1 *4002:B 0.000133669
2 *4220:A 0.00022368
3 *4222:A2 0.000159616
4 *4514:Q 0.000105598
5 *889:21 0.000420074
6 *889:8 0.000327939
7 *4220:A *890:8 0.000154698
8 *4002:A *4002:B 7.23602e-05
9 *4222:A3 *4222:A2 4.77769e-05
10 *4514:RESET_B *4002:B 5.20249e-05
11 *4514:RESET_B *4222:A2 9.63404e-05
12 *4514:RESET_B *889:8 1.0063e-05
13 *4514:RESET_B *889:21 0.000111293
14 *4515:CLK *4220:A 0.000112408
15 *4515:D *4002:B 0
16 *4519:RESET_B *4002:B 0.000151456
17 *674:81 *4002:B 0.000104891
*RES
1 *4514:Q *889:8 4.74 
2 *889:8 *4222:A2 6.705 
3 *889:8 *889:21 1.38 
4 *889:21 *4220:A 8.205 
5 *889:21 *4002:B 7.275 
*END

*D_NET *890 0.00304514
*CONN
*I *4002:C I *D sky130_fd_sc_hd__or4_2
*I *4222:B1 I *D sky130_fd_sc_hd__o31ai_2
*I *4515:Q O *D sky130_fd_sc_hd__dfrtp_2
*CAP
1 *4002:C 0.000277583
2 *4222:B1 8.49833e-05
3 *4515:Q 0.000581311
4 *890:8 0.000943877
5 *4002:A *4002:C 4.99619e-05
6 *4218:A *4002:C 2.47547e-05
7 *4218:A *4222:B1 0.00010287
8 *4220:A *890:8 0.000154698
9 *4223:B *4002:C 0.000393079
10 *4223:B *4222:B1 0.000265784
11 *4515:D *4002:C 0.000120655
12 *217:10 *4002:C 3.97492e-05
13 *575:18 *4002:C 0
14 *575:24 *4002:C 0
15 *661:18 *4002:C 5.83121e-06
*RES
1 *4515:Q *890:8 10.26 
2 *890:8 *4222:B1 6.765 
3 *890:8 *4002:C 10.125 
*END

*D_NET *891 0.00335299
*CONN
*I *4230:A1 I *D sky130_fd_sc_hd__o31ai_2
*I *4004:A I *D sky130_fd_sc_hd__or4_2
*I *4003:A I *D sky130_fd_sc_hd__nor2_2
*I *4225:A I *D sky130_fd_sc_hd__and2_2
*I *4516:Q O *D sky130_fd_sc_hd__dfrtp_2
*CAP
1 *4230:A1 4.53428e-05
2 *4004:A 0
3 *4003:A 0.000413698
4 *4225:A 0.000119399
5 *4516:Q 0.000196989
6 *891:42 0.000161345
7 *891:21 0.000590647
8 *891:10 0.000377335
9 *4230:A1 *4004:C 0.000140905
10 *4230:A1 *4600:A 0
11 *4230:A1 *893:8 2.30797e-05
12 *891:42 *4004:C 3.09233e-05
13 *4003:B *4003:A 7.57472e-05
14 *4225:B *4225:A 0.000161005
15 *4229:A1 *4003:A 2.86792e-05
16 *4229:B1 *4003:A 8.61265e-05
17 *4513:RESET_B *891:10 4.40693e-06
18 *4516:RESET_B *891:10 3.52106e-05
19 *4517:D *4003:A 5.00173e-05
20 *219:8 *4003:A 1.08758e-05
21 *661:59 *4003:A 0.000181869
22 *674:53 *4230:A1 0.000129728
23 *674:53 *891:10 0.000139933
24 *674:53 *891:21 0.000108322
25 *674:53 *891:42 0.000241404
*RES
1 *4516:Q *891:10 6.72 
2 *891:10 *4225:A 5.775 
3 *891:10 *891:21 1.38 
4 *891:21 *4003:A 10.08 
5 *891:21 *891:42 2.91 
6 *891:42 *4004:A 3.6 
7 *891:42 *4230:A1 5.49 
*END

*D_NET *892 0.00133953
*CONN
*I *4230:A2 I *D sky130_fd_sc_hd__o31ai_2
*I *4228:A I *D sky130_fd_sc_hd__xnor2_2
*I *4004:B I *D sky130_fd_sc_hd__or4_2
*I *4517:Q O *D sky130_fd_sc_hd__dfrtp_2
*CAP
1 *4230:A2 0.000138373
2 *4228:A 0.000164433
3 *4004:B 0
4 *4517:Q 0.000235432
5 *892:12 0.000261491
6 *4230:A2 *4230:B1 2.75229e-05
7 *892:12 *4600:A 0.000185398
8 *4004:D *4228:A 5.83121e-06
9 *4230:A3 *4230:A2 0
10 *218:33 *4230:A2 2.03356e-05
11 *218:33 *892:12 8.5242e-05
12 *218:35 *892:12 9.78012e-05
13 *674:53 *4230:A2 7.10578e-05
14 *674:53 *892:12 4.66108e-05
*RES
1 *4517:Q *892:12 8.195 
2 *892:12 *4004:B 1.6 
3 *892:12 *4228:A 4.06 
4 *4517:Q *4230:A2 5.735 
*END

*D_NET *893 0.00129575
*CONN
*I *4230:B1 I *D sky130_fd_sc_hd__o31ai_2
*I *4004:C I *D sky130_fd_sc_hd__or4_2
*I *4518:Q O *D sky130_fd_sc_hd__dfrtp_2
*CAP
1 *4230:B1 6.3862e-05
2 *4004:C 0.000148278
3 *4518:Q 0.000123854
4 *893:8 0.000335994
5 *893:8 *4600:A 0
6 *4230:A1 *4004:C 0.000140905
7 *4230:A1 *893:8 2.30797e-05
8 *4230:A2 *4230:B1 2.75229e-05
9 *4230:A3 *4230:B1 0.000124895
10 *4231:B *893:8 0
11 *218:33 *4230:B1 0.000276441
12 *220:12 *4004:C 0
13 *220:12 *893:8 0
14 *891:42 *4004:C 3.09233e-05
*RES
1 *4518:Q *893:8 5.49 
2 *893:8 *4004:C 6.285 
3 *893:8 *4230:B1 6.12 
*END

*D_NET *894 0.00340258
*CONN
*I *4600:A I *D sky130_fd_sc_hd__buf_2
*I *3998:Y O *D sky130_fd_sc_hd__inv_2
*CAP
1 *4600:A 0.000862227
2 *3998:Y 0.000862227
3 *3998:A *4600:A 9.2741e-05
4 *4003:B *4600:A 0
5 *4225:B *4600:A 0.000109449
6 *4230:A1 *4600:A 0
7 *4231:B *4600:A 0
8 *4232:B1 *4600:A 0.000689428
9 *4516:D *4600:A 0.000154931
10 *4518:RESET_B *4600:A 0.000316813
11 *218:35 *4600:A 2.86895e-05
12 *674:53 *4600:A 0.000100682
13 *892:12 *4600:A 0.000185398
14 *893:8 *4600:A 0
*RES
1 *3998:Y *4600:A 26.895 
*END

*D_NET *895 0.000542014
*CONN
*I *4487:D I *D sky130_fd_sc_hd__dfrtp_2
*I *4264:Y O *D sky130_fd_sc_hd__nor2_2
*CAP
1 *4487:D 0.000202859
2 *4264:Y 0.000202859
3 *3998:A *4487:D 0.000136296
*RES
1 *4264:Y *4487:D 10.665 
*END

*D_NET *896 0.000673416
*CONN
*I *4497:D I *D sky130_fd_sc_hd__dfrtp_2
*I *4284:Y O *D sky130_fd_sc_hd__a21oi_2
*CAP
1 *4497:D 0.000269753
2 *4284:Y 0.000269753
3 *4497:D *4827:A 7.67616e-05
4 *496:22 *4497:D 5.71481e-05
*RES
1 *4284:Y *4497:D 11.7 
*END

*D_NET *897 0.00198218
*CONN
*I *4498:D I *D sky130_fd_sc_hd__dfrtp_2
*I *4286:Y O *D sky130_fd_sc_hd__a21oi_2
*CAP
1 *4498:D 0.000604119
2 *4286:Y 0.000604119
3 *4498:D *918:10 0.000148756
4 *4283:B *4498:D 3.64998e-06
5 *4285:A *4498:D 1.87062e-05
6 *4286:A1 *4498:D 0.000159453
7 *4286:A2 *4498:D 0.000171524
8 *4498:RESET_B *4498:D 1.08056e-05
9 *683:38 *4498:D 0.000261049
*RES
1 *4286:Y *4498:D 18.075 
*END

*D_NET *898 0.000678008
*CONN
*I *4499:D I *D sky130_fd_sc_hd__dfrtp_2
*I *4288:Y O *D sky130_fd_sc_hd__a21oi_2
*CAP
1 *4499:D 0.00021522
2 *4288:Y 0.00021522
3 *4499:D *4287:A 8.0259e-05
4 *4499:D *920:32 4.77271e-05
5 *4288:A1 *4499:D 0.0001053
6 *4499:CLK *4499:D 1.01155e-05
7 *4499:RESET_B *4499:D 4.1652e-06
*RES
1 *4288:Y *4499:D 10.605 
*END

*D_NET *899 0.000442837
*CONN
*I *4500:D I *D sky130_fd_sc_hd__dfrtp_2
*I *4290:Y O *D sky130_fd_sc_hd__a21oi_2
*CAP
1 *4500:D 0.000171444
2 *4290:Y 0.000171444
3 *4500:CLK *4500:D 8.70122e-05
4 *207:12 *4500:D 1.29367e-05
*RES
1 *4290:Y *4500:D 5.39 
*END

*D_NET *900 0.00198667
*CONN
*I *4501:D I *D sky130_fd_sc_hd__dfrtp_2
*I *4292:Y O *D sky130_fd_sc_hd__a21oi_2
*CAP
1 *4501:D 0.000885815
2 *4292:Y 0.000885815
3 *4456:CLK *4501:D 4.78678e-05
4 *4456:RESET_B *4501:D 7.95799e-05
5 *4501:RESET_B *4501:D 0
6 *4704:A *4501:D 0
7 *4731:A *4501:D 3.25997e-05
8 *208:24 *4501:D 3.56804e-05
9 *467:12 *4501:D 0
10 *685:8 *4501:D 1.93069e-05
11 *685:21 *4501:D 0
12 *692:10 *4501:D 0
*RES
1 *4292:Y *4501:D 18.645 
*END

*D_NET *901 0.00129494
*CONN
*I *4502:D I *D sky130_fd_sc_hd__dfrtp_2
*I *4294:Y O *D sky130_fd_sc_hd__a21oi_2
*CAP
1 *4502:D 0.000289848
2 *4294:Y 0.000289848
3 *4502:D *4297:A1 0.000153263
4 *4294:A2 *4502:D 1.52352e-05
5 *4294:B1 *4502:D 8.35068e-05
6 *4297:B1 *4502:D 4.66108e-05
7 *4298:A2 *4502:D 0.000112907
8 *209:8 *4502:D 0.000177151
9 *209:32 *4502:D 0.000126569
*RES
1 *4294:Y *4502:D 13.845 
*END

*D_NET *902 0.000371812
*CONN
*I *4503:D I *D sky130_fd_sc_hd__dfrtp_2
*I *4296:Y O *D sky130_fd_sc_hd__a21oi_2
*CAP
1 *4503:D 8.81412e-05
2 *4296:Y 8.81412e-05
3 *4503:D *924:8 4.77757e-05
4 *4296:B1 *4503:D 6.13115e-05
5 *4503:CLK *4503:D 8.64421e-05
*RES
1 *4296:Y *4503:D 5.03 
*END

*D_NET *903 0.00122689
*CONN
*I *4504:D I *D sky130_fd_sc_hd__dfrtp_2
*I *4298:Y O *D sky130_fd_sc_hd__a21oi_2
*CAP
1 *4504:D 0.00038164
2 *4298:Y 0.00038164
3 *4504:D *3992:A 0.000122797
4 *4293:A *4504:D 0
5 *4294:A2 *4504:D 0.000296088
6 *4298:A1 *4504:D 3.96653e-05
7 *208:30 *4504:D 5.062e-06
*RES
1 *4298:Y *4504:D 13.485 
*END

*D_NET *904 0.00144656
*CONN
*I *4505:D I *D sky130_fd_sc_hd__dfrtp_2
*I *4301:Y O *D sky130_fd_sc_hd__a21oi_2
*CAP
1 *4505:D 0.000677225
2 *4301:Y 0.000677225
3 *4301:A1 *4505:D 5.83121e-06
4 *4505:RESET_B *4505:D 4.11729e-05
5 *642:84 *4505:D 3.03684e-05
6 *642:90 *4505:D 1.47347e-05
*RES
1 *4301:Y *4505:D 10.565 
*END

*D_NET *905 0.000734014
*CONN
*I *4506:D I *D sky130_fd_sc_hd__dfrtp_2
*I *4303:Y O *D sky130_fd_sc_hd__a21oi_2
*CAP
1 *4506:D 9.1548e-05
2 *4303:Y 9.1548e-05
3 *4506:D *4300:A 0.000341885
4 *4301:A2 *4506:D 1.91597e-05
5 *4303:A1 *4506:D 4.99619e-05
6 *4303:B1 *4506:D 4.82863e-05
7 *4506:CLK *4506:D 6.83659e-05
8 *211:42 *4506:D 2.32597e-05
*RES
1 *4303:Y *4506:D 6.41 
*END

*D_NET *906 0.00041674
*CONN
*I *4488:D I *D sky130_fd_sc_hd__dfrtp_2
*I *4266:Y O *D sky130_fd_sc_hd__a21oi_2
*CAP
1 *4488:D 6.8008e-05
2 *4266:Y 6.8008e-05
3 *4266:A1 *4488:D 0.000196052
4 *4488:CLK *4488:D 8.46717e-05
*RES
1 *4266:Y *4488:D 5.03 
*END

*D_NET *907 0.000336284
*CONN
*I *4507:D I *D sky130_fd_sc_hd__dfrtp_2
*I *4305:X O *D sky130_fd_sc_hd__mux2_1
*CAP
1 *4507:D 0.000121732
2 *4305:X 0.000121732
3 *4507:D *4299:A 5.52638e-05
4 *4305:A1 *4507:D 3.39064e-05
5 *4306:B *4507:D 3.64998e-06
*RES
1 *4305:X *4507:D 9.12 
*END

*D_NET *908 0.000485616
*CONN
*I *4508:D I *D sky130_fd_sc_hd__dfrtp_2
*I *4306:X O *D sky130_fd_sc_hd__and2_2
*CAP
1 *4508:D 0.000223332
2 *4306:X 0.000223332
3 *4508:CLK *4508:D 3.89528e-05
*RES
1 *4306:X *4508:D 10.155 
*END

*D_NET *909 0.000852974
*CONN
*I *4489:D I *D sky130_fd_sc_hd__dfrtp_2
*I *4268:Y O *D sky130_fd_sc_hd__a21oi_2
*CAP
1 *4489:D 0.000273253
2 *4268:Y 0.000273253
3 *4489:D *4265:B 9.16019e-05
4 *4266:B1 *4489:D 6.13596e-05
5 *4268:A2 *4489:D 0.000124255
6 *619:56 *4489:D 2.92522e-05
*RES
1 *4268:Y *4489:D 12.615 
*END

*D_NET *910 0.000161922
*CONN
*I *4490:D I *D sky130_fd_sc_hd__dfrtp_2
*I *4270:Y O *D sky130_fd_sc_hd__a21oi_2
*CAP
1 *4490:D 5.56994e-05
2 *4270:Y 5.56994e-05
3 *4268:A2 *4490:D 5.05228e-05
*RES
1 *4270:Y *4490:D 8.325 
*END

*D_NET *911 0.000754382
*CONN
*I *4491:D I *D sky130_fd_sc_hd__dfrtp_2
*I *4272:Y O *D sky130_fd_sc_hd__a21oi_2
*CAP
1 *4491:D 0.00026711
2 *4272:Y 0.00026711
3 *4272:A1 *4491:D 0.000134878
4 *4272:B1 *4491:D 8.52845e-05
*RES
1 *4272:Y *4491:D 11.805 
*END

*D_NET *912 0.000972697
*CONN
*I *4492:D I *D sky130_fd_sc_hd__dfrtp_2
*I *4274:Y O *D sky130_fd_sc_hd__a21oi_2
*CAP
1 *4492:D 0.000140712
2 *4274:Y 0.000140712
3 *4272:A1 *4492:D 0.00028458
4 *619:25 *4492:D 1.16854e-05
5 *619:29 *4492:D 8.52883e-05
6 *619:44 *4492:D 0.000309719
*RES
1 *4274:Y *4492:D 11.76 
*END

*D_NET *913 0.00041559
*CONN
*I *4493:D I *D sky130_fd_sc_hd__dfrtp_2
*I *4276:Y O *D sky130_fd_sc_hd__a21oi_2
*CAP
1 *4493:D 0.000118346
2 *4276:Y 0.000118346
3 *3981:B *4493:D 3.72916e-05
4 *4276:B1 *4493:D 0.000141606
5 *488:10 *4493:D 0
*RES
1 *4276:Y *4493:D 9.63 
*END

*D_NET *914 0.000339448
*CONN
*I *4494:D I *D sky130_fd_sc_hd__dfrtp_2
*I *4278:Y O *D sky130_fd_sc_hd__a21oi_2
*CAP
1 *4494:D 0.000149238
2 *4278:Y 0.000149238
3 *4277:B *4494:D 0
4 *4278:A2 *4494:D 4.09723e-05
5 *200:10 *4494:D 0
6 *619:10 *4494:D 0
*RES
1 *4278:Y *4494:D 9.63 
*END

*D_NET *915 0.000469296
*CONN
*I *4495:D I *D sky130_fd_sc_hd__dfrtp_2
*I *4280:Y O *D sky130_fd_sc_hd__a21oi_2
*CAP
1 *4495:D 0.000117822
2 *4280:Y 0.000117822
3 *4282:B1 *4495:D 0.000184721
4 *642:57 *4495:D 4.89295e-05
*RES
1 *4280:Y *4495:D 9.63 
*END

*D_NET *916 0.00114641
*CONN
*I *4496:D I *D sky130_fd_sc_hd__dfrtp_2
*I *4282:Y O *D sky130_fd_sc_hd__a21oi_2
*CAP
1 *4496:D 0.000316442
2 *4282:Y 0.000316442
3 *4282:B1 *4496:D 0.000200664
4 *4495:CLK *4496:D 7.25517e-05
5 *4496:CLK *4496:D 0.000105928
6 *496:24 *4496:D 0.000134379
*RES
1 *4282:Y *4496:D 12.825 
*END

*D_NET *917 0.00394202
*CONN
*I *3978:A I *D sky130_fd_sc_hd__or4_2
*I *3976:A I *D sky130_fd_sc_hd__or2_2
*I *4265:A I *D sky130_fd_sc_hd__nand2_2
*I *4850:A I *D sky130_fd_sc_hd__dlygate4sd3_1
*I *4487:Q O *D sky130_fd_sc_hd__dfrtp_2
*CAP
1 *3978:A 0.000217024
2 *3976:A 0
3 *4265:A 0.000540119
4 *4850:A 3.37585e-05
5 *4487:Q 0.000240139
6 *917:42 0.000405311
7 *917:21 0.000820541
8 *917:10 0.000366032
9 *3978:A *3978:B 6.7979e-05
10 *3978:A *928:28 5.30673e-05
11 *4265:A *4265:B 0.00015352
12 *917:42 *4265:B 5.83121e-06
13 *917:42 *928:28 1.12578e-05
14 *4268:A2 *4265:A 0.000123509
15 *4269:A *917:42 0.000180682
16 *4269:B *917:42 5.16348e-05
17 *4488:RESET_B *917:42 2.30292e-05
18 *4694:A *4265:A 0.000124895
19 *193:10 *917:42 8.40269e-05
20 *194:10 *917:42 0.000136877
21 *466:8 *4265:A 0.000106094
22 *674:10 *4265:A 0.000196694
23 *677:14 *3978:A 0
*RES
1 *4487:Q *917:10 6.72 
2 *917:10 *4850:A 4.05 
3 *917:10 *917:21 1.38 
4 *917:21 *4265:A 11.325 
5 *917:21 *917:42 6.5 
6 *917:42 *3976:A 1.6 
7 *917:42 *3978:A 9.665 
*END

*D_NET *918 0.00234784
*CONN
*I *4827:A I *D sky130_fd_sc_hd__dlygate4sd3_1
*I *3988:B I *D sky130_fd_sc_hd__or4_2
*I *3987:A I *D sky130_fd_sc_hd__or2_2
*I *4497:Q O *D sky130_fd_sc_hd__dfrtp_2
*CAP
1 *4827:A 0.000385697
2 *3988:B 0
3 *3987:A 0.000267303
4 *4497:Q 0.000482407
5 *918:10 0.000364013
6 *4284:A2 *4827:A 0.000115614
7 *4284:B1 *4827:A 5.18317e-06
8 *4497:D *4827:A 7.67616e-05
9 *4497:RESET_B *4827:A 1.15423e-05
10 *4498:D *918:10 0.000148756
11 *4498:RESET_B *4827:A 2.31329e-05
12 *4498:RESET_B *918:10 9.71067e-05
13 *204:16 *3987:A 0.00023701
14 *204:16 *918:10 6.31804e-05
15 *496:22 *4827:A 7.01359e-05
*RES
1 *4497:Q *918:10 8.51 
2 *918:10 *3987:A 5.335 
3 *918:10 *3988:B 1.6 
4 *4497:Q *4827:A 12.48 
*END

*D_NET *919 0.00162718
*CONN
*I *4811:A I *D sky130_fd_sc_hd__dlygate4sd3_1
*I *3988:A I *D sky130_fd_sc_hd__or4_2
*I *4498:Q O *D sky130_fd_sc_hd__dfrtp_2
*CAP
1 *4811:A 0.00020821
2 *3988:A 0.000176153
3 *4498:Q 0
4 *919:6 0.000384362
5 *3988:C *3988:A 0.000236723
6 *4285:A *4811:A 3.64998e-06
7 *4473:D *3988:A 0
8 *4473:D *4811:A 0
9 *204:16 *3988:A 0.000201872
10 *205:10 *3988:A 0.000145156
11 *205:10 *4811:A 6.18754e-05
12 *683:72 *3988:A 0.000209179
*RES
1 *4498:Q *919:6 3.6 
2 *919:6 *3988:A 9.48 
3 *919:6 *4811:A 7.155 
*END

*D_NET *920 0.0037003
*CONN
*I *3989:A I *D sky130_fd_sc_hd__or2_2
*I *4287:A I *D sky130_fd_sc_hd__nand2_2
*I *3991:B I *D sky130_fd_sc_hd__or4_2
*I *4289:A1 I *D sky130_fd_sc_hd__o21ai_2
*I *4499:Q O *D sky130_fd_sc_hd__dfrtp_2
*CAP
1 *3989:A 0.000187582
2 *4287:A 8.501e-05
3 *3991:B 9.45124e-05
4 *4289:A1 8.19151e-05
5 *4499:Q 0.000200669
6 *920:32 0.00064272
7 *920:10 0.000404
8 *920:6 0.000798369
9 *3991:B *3991:A 4.75959e-05
10 *3989:B *3989:A 4.77769e-05
11 *4288:A1 *4287:A 3.79083e-05
12 *4289:A2 *4289:A1 0.000197822
13 *4499:CLK *4287:A 7.03219e-05
14 *4499:D *4287:A 8.0259e-05
15 *4499:D *920:32 4.77271e-05
16 *4499:RESET_B *920:32 0.000154635
17 *630:50 *3991:B 0.000112907
18 *630:50 *920:10 0.000163714
19 *630:52 *920:10 0.000244853
*RES
1 *4499:Q *920:6 3.775 
2 *920:6 *920:10 6.95 
3 *920:10 *4289:A1 5.43 
4 *920:10 *3991:B 5.43 
5 *920:6 *920:32 4.245 
6 *920:32 *4287:A 7.64 
7 *920:32 *3989:A 3.79 
*END

*D_NET *921 0.00264299
*CONN
*I *3990:A I *D sky130_fd_sc_hd__or2_2
*I *4823:A I *D sky130_fd_sc_hd__dlygate4sd3_1
*I *3991:A I *D sky130_fd_sc_hd__or4_2
*I *4500:Q O *D sky130_fd_sc_hd__dfrtp_2
*CAP
1 *3990:A 0.000127058
2 *4823:A 0
3 *3991:A 0.000382542
4 *4500:Q 0
5 *921:12 0.000733255
6 *921:4 0.000477771
7 *3991:A *3991:C 0.000122797
8 *3991:A *4801:A 0.000181261
9 *3990:B *3990:A 4.42148e-05
10 *3990:B *921:12 7.30505e-05
11 *3991:B *3991:A 4.75959e-05
12 *3991:D *3991:A 1.91597e-05
13 *205:49 *3991:A 0.000235335
14 *207:12 *3990:A 2.38055e-05
15 *207:12 *921:12 3.78439e-05
16 *467:16 *3991:A 6.71744e-05
17 *683:10 *921:12 7.01303e-05
*RES
1 *4500:Q *921:4 1.6 
2 *921:4 *921:12 8.845 
3 *921:12 *3991:A 13.58 
4 *921:12 *4823:A 1.6 
5 *921:4 *3990:A 3.445 
*END

*D_NET *922 0.000786564
*CONN
*I *3991:C I *D sky130_fd_sc_hd__or4_2
*I *4801:A I *D sky130_fd_sc_hd__dlygate4sd3_1
*I *4501:Q O *D sky130_fd_sc_hd__dfrtp_2
*CAP
1 *3991:C 2.27939e-05
2 *4801:A 0.000137502
3 *4501:Q 0.000160296
4 *3991:A *3991:C 0.000122797
5 *3991:A *4801:A 0.000181261
6 *3991:D *3991:C 8.52845e-05
7 *3991:D *4801:A 6.13951e-05
8 *467:16 *3991:C 1.52352e-05
*RES
1 *4501:Q *4801:A 9.72 
2 *4501:Q *3991:C 4.34 
*END

*D_NET *923 0.00293539
*CONN
*I *3994:A I *D sky130_fd_sc_hd__or4_2
*I *3992:A I *D sky130_fd_sc_hd__or2_2
*I *4829:A I *D sky130_fd_sc_hd__dlygate4sd3_1
*I *4502:Q O *D sky130_fd_sc_hd__dfrtp_2
*CAP
1 *3994:A 0.000255419
2 *3992:A 0.000210331
3 *4829:A 7.51858e-05
4 *4502:Q 7.51858e-05
5 *923:18 0.00046575
6 *3994:A *3994:B 0.000341782
7 *3994:A *925:10 0.000199245
8 *3992:B *3992:A 0.000101747
9 *3994:D *3994:A 9.07198e-05
10 *4298:A1 *3992:A 0.000124473
11 *4298:A2 *3992:A 4.40028e-05
12 *4502:RESET_B *4829:A 2.49909e-05
13 *4503:RESET_B *3994:A 0.000308976
14 *4504:D *3992:A 0.000122797
15 *211:10 *3994:A 5.73362e-05
16 *211:25 *4829:A 4.66108e-05
17 *685:21 *3992:A 0.000114492
18 *685:31 *3992:A 8.9277e-05
19 *685:31 *3994:A 0.000187071
*RES
1 *4502:Q *4829:A 4.34 
2 *4502:Q *923:18 3.6 
3 *923:18 *3992:A 8.865 
4 *923:18 *3994:A 11.895 
*END

*D_NET *924 0.0030976
*CONN
*I *3994:C I *D sky130_fd_sc_hd__or4_2
*I *4295:A I *D sky130_fd_sc_hd__nand2_2
*I *3993:A I *D sky130_fd_sc_hd__or2_2
*I *4297:A1 I *D sky130_fd_sc_hd__o21ai_2
*I *4503:Q O *D sky130_fd_sc_hd__dfrtp_2
*CAP
1 *3994:C 7.74876e-05
2 *4295:A 1.57356e-05
3 *3993:A 1.77165e-05
4 *4297:A1 0.000245094
5 *4503:Q 0.000569267
6 *924:34 0.000198007
7 *924:23 0.000188429
8 *924:8 0.00088029
9 *3993:B *924:34 4.77719e-05
10 *3994:D *3994:C 2.86975e-05
11 *4296:A2 *3993:A 4.77719e-05
12 *4296:A2 *3994:C 2.86792e-05
13 *4296:A2 *924:34 3.82494e-05
14 *4296:B1 *4297:A1 0.000156344
15 *4297:B1 *4297:A1 9.22251e-05
16 *4298:A2 *4297:A1 4.78564e-05
17 *4502:D *4297:A1 0.000153263
18 *4503:D *924:8 4.77757e-05
19 *209:12 *4297:A1 0.000122797
20 *209:32 *4297:A1 4.9515e-05
21 *209:32 *924:23 4.46271e-05
*RES
1 *4503:Q *924:8 9.57 
2 *924:8 *4297:A1 9.69 
3 *924:8 *924:23 3.125 
4 *924:23 *3993:A 2.05 
5 *924:23 *924:34 2.1 
6 *924:34 *4295:A 1.96 
7 *924:34 *3994:C 3.085 
*END

*D_NET *925 0.00219132
*CONN
*I *3994:B I *D sky130_fd_sc_hd__or4_2
*I *4815:A I *D sky130_fd_sc_hd__dlygate4sd3_1
*I *4504:Q O *D sky130_fd_sc_hd__dfrtp_2
*CAP
1 *3994:B 0.000264188
2 *4815:A 2.6247e-05
3 *4504:Q 0.000351095
4 *925:10 0.000641529
5 *3994:A *3994:B 0.000341782
6 *3994:A *925:10 0.000199245
7 *4294:A2 *4815:A 0.00016031
8 *209:12 *925:10 4.66108e-05
9 *630:6 *4815:A 0.00016031
*RES
1 *4504:Q *925:10 9.555 
2 *925:10 *4815:A 5.085 
3 *925:10 *3994:B 8.745 
*END

*D_NET *926 0.00374503
*CONN
*I *4299:A I *D sky130_fd_sc_hd__or2_2
*I *3995:B I *D sky130_fd_sc_hd__or3_2
*I *4300:A I *D sky130_fd_sc_hd__nand2_2
*I *3996:B I *D sky130_fd_sc_hd__or4_2
*I *4505:Q O *D sky130_fd_sc_hd__dfrtp_2
*CAP
1 *4299:A 0.000177641
2 *3995:B 0.000100472
3 *4300:A 0.000399908
4 *3996:B 9.76844e-05
5 *4505:Q 0
6 *926:34 0.000361537
7 *926:17 0.000542578
8 *926:6 0.000156931
9 *926:17 *927:27 2.97204e-05
10 *926:34 *927:27 4.49585e-05
11 *3996:D *4299:A 7.21296e-06
12 *3996:D *926:34 1.44177e-05
13 *4299:B *4299:A 0.000132356
14 *4301:A2 *4300:A 2.30292e-05
15 *4303:B1 *4300:A 2.76781e-05
16 *4304:B *3995:B 3.1562e-06
17 *4305:A1 *4299:A 0
18 *4505:RESET_B *3996:B 8.6099e-05
19 *4505:RESET_B *926:17 5.92767e-05
20 *4506:CLK *4300:A 8.34281e-06
21 *4506:D *4300:A 0.000341885
22 *4507:D *4299:A 5.52638e-05
23 *4508:CLK *4299:A 0
24 *4621:A *3996:B 0.000205435
25 *211:42 *4300:A 2.01885e-05
26 *213:12 *4299:A 0
27 *402:10 *4299:A 0
28 *468:50 *4299:A 4.31106e-05
29 *468:50 *926:34 0.000114492
30 *468:54 *3995:B 8.23457e-05
31 *642:18 *4300:A 4.66108e-05
32 *642:18 *926:17 0.000137571
33 *642:18 *926:34 2.07184e-05
34 *642:28 *3996:B 0.000359924
35 *642:28 *926:17 4.44927e-05
*RES
1 *4505:Q *926:6 3.6 
2 *926:6 *3996:B 7.785 
3 *926:6 *926:17 2.145 
4 *926:17 *4300:A 9.36 
5 *926:17 *926:34 2.145 
6 *926:34 *3995:B 4.74 
7 *926:34 *4299:A 7.395 
*END

*D_NET *927 0.00388634
*CONN
*I *4834:A I *D sky130_fd_sc_hd__dlygate4sd3_1
*I *3996:A I *D sky130_fd_sc_hd__or4_2
*I *3995:A I *D sky130_fd_sc_hd__or3_2
*I *4506:Q O *D sky130_fd_sc_hd__dfrtp_2
*CAP
1 *4834:A 9.94696e-05
2 *3996:A 0
3 *3995:A 0.000217905
4 *4506:Q 0.000297785
5 *927:27 0.000285321
6 *927:6 0.000701541
7 *4834:A *3996:C 0.000379712
8 *3996:D *3995:A 0.00011379
9 *4304:B *3995:A 1.19928e-05
10 *4305:A1 *4834:A 0.000291576
11 *4305:A1 *927:27 0.000249072
12 *4505:RESET_B *927:27 0.000363667
13 *4506:CLK *3995:A 2.75145e-05
14 *4506:RESET_B *927:27 0.000136182
15 *4703:A *927:27 3.09164e-05
16 *211:42 *3995:A 4.66108e-05
17 *468:37 *3995:A 9.02174e-05
18 *468:37 *927:6 0.000273915
19 *468:50 *3995:A 0.000112123
20 *468:54 *3995:A 8.23457e-05
21 *926:17 *927:27 2.97204e-05
22 *926:34 *927:27 4.49585e-05
*RES
1 *4506:Q *927:6 5.5 
2 *927:6 *3995:A 9.605 
3 *927:6 *927:27 10.735 
4 *927:27 *3996:A 1.6 
5 *927:27 *4834:A 5.62 
*END

*D_NET *928 0.00269731
*CONN
*I *3978:B I *D sky130_fd_sc_hd__or4_2
*I *3976:B I *D sky130_fd_sc_hd__or2_2
*I *4265:B I *D sky130_fd_sc_hd__nand2_2
*I *4488:Q O *D sky130_fd_sc_hd__dfrtp_2
*CAP
1 *3978:B 0.000155825
2 *3976:B 2.08101e-05
3 *4265:B 0.000571289
4 *4488:Q 0.000731722
5 *928:28 0.000337068
6 *3978:B *932:12 2.7881e-05
7 *3978:A *3978:B 6.7979e-05
8 *3978:A *928:28 5.30673e-05
9 *4265:A *4265:B 0.00015352
10 *4266:A1 *4265:B 4.93155e-05
11 *4268:A2 *4265:B 0.000153139
12 *4488:RESET_B *3978:B 0
13 *4488:RESET_B *4265:B 1.13009e-05
14 *4488:RESET_B *928:28 0.000122331
15 *4489:D *4265:B 9.16019e-05
16 *193:10 *4265:B 2.67184e-05
17 *466:8 *4265:B 6.80182e-05
18 *619:56 *4265:B 2.26364e-05
19 *619:58 *4265:B 1.5996e-05
20 *675:48 *3978:B 0
21 *677:14 *3978:B 0
22 *917:42 *4265:B 5.83121e-06
23 *917:42 *928:28 1.12578e-05
*RES
1 *4488:Q *4265:B 15.87 
2 *4488:Q *928:28 3.775 
3 *928:28 *3976:B 1.96 
4 *928:28 *3978:B 8.195 
*END

*D_NET *929 0.00284732
*CONN
*I *4304:A I *D sky130_fd_sc_hd__and2_2
*I *3996:C I *D sky130_fd_sc_hd__or4_2
*I *4507:Q O *D sky130_fd_sc_hd__dfrtp_2
*CAP
1 *4304:A 2.65106e-05
2 *3996:C 0.000345174
3 *4507:Q 0.000230675
4 *929:12 0.000602359
5 *4048:B *3996:C 9.44548e-05
6 *4304:B *3996:C 3.00381e-05
7 *4304:B *929:12 0.000651223
8 *4305:A1 *3996:C 6.90876e-05
9 *4457:CLK *929:12 5.72091e-05
10 *4834:A *3996:C 0.000379712
11 *213:12 *3996:C 4.66108e-05
12 *468:25 *929:12 8.14111e-05
13 *468:37 *929:12 0.000229203
14 *471:51 *929:12 0
15 *685:73 *3996:C 3.64998e-06
*RES
1 *4507:Q *929:12 13.55 
2 *929:12 *3996:C 8.545 
3 *929:12 *4304:A 2.05 
*END

*D_NET *930 0.000712297
*CONN
*I *4778:A I *D sky130_fd_sc_hd__dlygate4sd3_1
*I *3997:A I *D sky130_fd_sc_hd__nor2_2
*I *4508:Q O *D sky130_fd_sc_hd__dfrtp_2
*CAP
1 *4778:A 7.95201e-05
2 *3997:A 0.000192768
3 *4508:Q 8.38602e-05
4 *930:8 0.000356148
5 *4309:A2 *930:8 0
6 *4508:RESET_B *3997:A 0
7 *4508:RESET_B *930:8 0
*RES
1 *4508:Q *930:8 4.98 
2 *930:8 *3997:A 6.45 
3 *930:8 *4778:A 4.74 
*END

*D_NET *931 0.00197019
*CONN
*I *3977:A I *D sky130_fd_sc_hd__or2_2
*I *4828:A I *D sky130_fd_sc_hd__dlygate4sd3_1
*I *3978:D I *D sky130_fd_sc_hd__or4_2
*I *4489:Q O *D sky130_fd_sc_hd__dfrtp_2
*CAP
1 *3977:A 0.00012814
2 *4828:A 0
3 *3978:D 0.00017274
4 *4489:Q 0
5 *931:17 0.000223351
6 *931:4 0.000267951
7 *3978:D *3978:C 8.65905e-05
8 *4267:B *3977:A 4.77719e-05
9 *4270:A2 *931:17 0.000331186
10 *4489:RESET_B *3978:D 0.000272978
11 *193:27 *3977:A 0.000113972
12 *193:27 *931:17 0.000196464
13 *194:10 *3977:A 1.77595e-05
14 *195:10 *3978:D 0.000111285
*RES
1 *4489:Q *931:4 1.6 
2 *931:4 *3978:D 5.86 
3 *931:4 *931:17 5.93 
4 *931:17 *4828:A 3.6 
5 *931:17 *3977:A 6.45 
*END

*D_NET *932 0.0008479
*CONN
*I *3978:C I *D sky130_fd_sc_hd__or4_2
*I *4809:A I *D sky130_fd_sc_hd__dlygate4sd3_1
*I *4490:Q O *D sky130_fd_sc_hd__dfrtp_2
*CAP
1 *3978:C 3.14607e-05
2 *4809:A 0
3 *4490:Q 0.000223617
4 *932:12 0.000255077
5 *3978:B *932:12 2.7881e-05
6 *3978:D *3978:C 8.65905e-05
7 *4490:RESET_B *932:12 3.80606e-05
8 *195:10 *3978:C 0.000122337
9 *675:48 *932:12 6.28765e-05
*RES
1 *4490:Q *932:12 8.81 
2 *932:12 *4809:A 1.6 
3 *932:12 *3978:C 2.74 
*END

*D_NET *933 0.00339865
*CONN
*I *4271:A I *D sky130_fd_sc_hd__nand2_2
*I *3983:B I *D sky130_fd_sc_hd__or4_2
*I *4273:A1 I *D sky130_fd_sc_hd__o21ai_2
*I *3979:A I *D sky130_fd_sc_hd__or2_2
*I *4491:Q O *D sky130_fd_sc_hd__dfrtp_2
*CAP
1 *4271:A 0.000304228
2 *3983:B 9.8497e-05
3 *4273:A1 0.000119593
4 *3979:A 0.000191386
5 *4491:Q 3.62863e-05
6 *933:36 0.000440169
7 *933:12 0.000588206
8 *933:8 0.000350958
9 *3979:A *3980:A 5.83121e-06
10 *3983:B *3983:A 3.64998e-06
11 *4273:A1 *3980:A 5.20744e-05
12 *933:12 *3980:A 2.19336e-05
13 *3979:B *3979:A 0.00013257
14 *3980:B *3979:A 4.2801e-05
15 *4271:B *4271:A 0.000235335
16 *4272:A2 *4271:A 2.68464e-05
17 *4274:A1 *4271:A 2.62303e-05
18 *4274:A1 *933:12 3.42332e-05
19 *4274:A1 *933:36 2.11702e-05
20 *4274:A2 *3983:B 4.80285e-05
21 *4274:A2 *4271:A 1.08129e-05
22 *4274:A2 *933:12 0.000187232
23 *4274:A2 *933:36 3.45117e-05
24 *4491:RESET_B *933:8 2.68464e-05
25 *195:23 *4273:A1 5.16418e-05
26 *197:12 *4273:A1 8.65905e-05
27 *200:10 *4271:A 0.000218795
28 *619:25 *3983:B 2.19562e-06
*RES
1 *4491:Q *933:8 4.05 
2 *933:8 *933:12 7.46 
3 *933:12 *3979:A 4.135 
4 *933:12 *4273:A1 7.7 
5 *933:8 *933:36 0.87 
6 *933:36 *3983:B 4.74 
7 *933:36 *4271:A 10.08 
*END

*D_NET *934 0.00228991
*CONN
*I *3983:A I *D sky130_fd_sc_hd__or4_2
*I *4825:A I *D sky130_fd_sc_hd__dlygate4sd3_1
*I *3980:A I *D sky130_fd_sc_hd__or2_2
*I *4492:Q O *D sky130_fd_sc_hd__dfrtp_2
*CAP
1 *3983:A 6.1745e-05
2 *4825:A 3.06541e-05
3 *3980:A 7.85228e-05
4 *4492:Q 0.00012671
5 *934:21 0.000147921
6 *934:8 0.000260756
7 *3979:A *3980:A 5.83121e-06
8 *3979:B *3980:A 0.000123225
9 *3983:B *3983:A 3.64998e-06
10 *3983:D *3980:A 9.30717e-05
11 *3983:D *3983:A 0.000204456
12 *3983:D *934:21 0.000227536
13 *4273:A1 *3980:A 5.20744e-05
14 *4274:A1 *4825:A 0.000119762
15 *4274:A2 *3980:A 7.23602e-05
16 *4274:A2 *3983:A 0.00017354
17 *4274:A2 *934:21 0.000221366
18 *4491:RESET_B *4825:A 0.000119762
19 *4492:RESET_B *934:8 5.67285e-05
20 *195:47 *3980:A 1.79098e-05
21 *197:12 *3980:A 4.99619e-05
22 *200:10 *3983:A 1.26626e-05
23 *488:32 *934:8 4.80291e-07
24 *619:25 *3983:A 7.28902e-06
25 *933:12 *3980:A 2.19336e-05
*RES
1 *4492:Q *934:8 5.085 
2 *934:8 *3980:A 6.375 
3 *934:8 *934:21 2.655 
4 *934:21 *4825:A 4.74 
5 *934:21 *3983:A 6.13125 
*END

*D_NET *935 0.00245699
*CONN
*I *3981:A I *D sky130_fd_sc_hd__or2_2
*I *4822:A I *D sky130_fd_sc_hd__dlygate4sd3_1
*I *3982:B I *D sky130_fd_sc_hd__or2_2
*I *4493:Q O *D sky130_fd_sc_hd__dfrtp_2
*CAP
1 *3981:A 4.61258e-05
2 *4822:A 0
3 *3982:B 0.000271346
4 *4493:Q 0.000167382
5 *935:25 7.32317e-05
6 *935:10 0.000465834
7 *3982:B *3982:A 0.000442772
8 *935:10 *3982:A 0.000137571
9 *3981:B *3981:A 7.40446e-05
10 *3981:B *935:25 8.40269e-05
11 *4242:B *3982:B 8.23457e-05
12 *4418:RESET_B *935:10 6.09188e-05
13 *4644:A *3981:A 0.0001249
14 *198:8 *3981:A 1.47256e-05
15 *198:8 *935:25 3.03775e-05
16 *457:10 *3982:B 1.44259e-05
17 *488:67 *3982:B 0.000273695
18 *677:14 *3982:B 4.11198e-05
19 *677:14 *935:10 5.21458e-05
*RES
1 *4493:Q *935:10 6.72 
2 *935:10 *3982:B 10.56 
3 *935:10 *935:25 2.795 
4 *935:25 *4822:A 1.6 
5 *935:25 *3981:A 3.085 
*END

*D_NET *936 0.00245753
*CONN
*I *4806:A I *D sky130_fd_sc_hd__dlygate4sd3_1
*I *3982:A I *D sky130_fd_sc_hd__or2_2
*I *4494:Q O *D sky130_fd_sc_hd__dfrtp_2
*CAP
1 *4806:A 0.000194861
2 *3982:A 0.000513913
3 *4494:Q 0
4 *936:6 0.000708774
5 *3982:B *3982:A 0.000442772
6 *4242:B *3982:A 0.000119762
7 *4418:RESET_B *3982:A 0
8 *4644:A *3982:A 8.34426e-05
9 *4666:A *4806:A 0
10 *4695:A *4806:A 0
11 *4701:A *4806:A 5.05521e-05
12 *457:10 *3982:A 0.000119285
13 *642:45 *4806:A 8.65961e-05
14 *677:14 *3982:A 0
15 *677:14 *4806:A 0
16 *935:10 *3982:A 0.000137571
*RES
1 *4494:Q *936:6 3.6 
2 *936:6 *3982:A 15.015 
3 *936:6 *4806:A 7.05 
*END

*D_NET *937 0.00195844
*CONN
*I *3985:A I *D sky130_fd_sc_hd__or2_2
*I *3984:A I *D sky130_fd_sc_hd__or2_2
*I *4820:A I *D sky130_fd_sc_hd__dlygate4sd3_1
*I *4495:Q O *D sky130_fd_sc_hd__dfrtp_2
*CAP
1 *3985:A 0
2 *3984:A 0.000130792
3 *4820:A 0.000163219
4 *4495:Q 6.37928e-05
5 *937:25 0.000195207
6 *937:8 0.000291427
7 *3988:D *3984:A 4.82863e-05
8 *4495:RESET_B *937:8 4.66108e-05
9 *200:21 *3984:A 0.000206817
10 *200:21 *4820:A 0.000230876
11 *200:21 *937:25 0.000109016
12 *201:8 *3984:A 6.65066e-05
13 *203:10 *3984:A 4.82863e-05
14 *642:57 *4820:A 0.000163204
15 *683:72 *4820:A 2.92496e-05
16 *683:72 *937:25 0.000116853
17 *683:84 *937:8 4.82919e-05
*RES
1 *4495:Q *937:8 4.395 
2 *937:8 *4820:A 7.74 
3 *937:8 *937:25 3.83 
4 *937:25 *3984:A 8.9 
5 *937:25 *3985:A 1.6 
*END

*D_NET *938 0.000502965
*CONN
*I *4807:A I *D sky130_fd_sc_hd__dlygate4sd3_1
*I *3985:B I *D sky130_fd_sc_hd__or2_2
*I *4496:Q O *D sky130_fd_sc_hd__dfrtp_2
*CAP
1 *4807:A 7.87245e-05
2 *3985:B 0.000142578
3 *4496:Q 0.000221303
4 *4496:RESET_B *3985:B 2.68464e-05
5 *201:8 *4807:A 3.35139e-05
*RES
1 *4496:Q *3985:B 5.39 
2 *4496:Q *4807:A 8.58 
*END

*D_NET *939 0.0124118
*CONN
*I *4315:B1 I *D sky130_fd_sc_hd__o21a_2
*I *4601:A I *D sky130_fd_sc_hd__buf_2
*I *4343:B1 I *D sky130_fd_sc_hd__o21a_2
*I *4327:B1 I *D sky130_fd_sc_hd__o21a_2
*I *3975:Y O *D sky130_fd_sc_hd__inv_2
*CAP
1 *4315:B1 0.000504399
2 *4601:A 0.0027178
3 *4343:B1 0
4 *4327:B1 0.000160539
5 *3975:Y 0.000676744
6 *939:27 0.0033458
7 *939:6 0.000960886
8 *4315:B1 *4318:A1 0.00021841
9 *4315:B1 *4586:D 0.000120186
10 *4315:B1 *978:8 0
11 *4601:A *4594:D 1.40752e-05
12 *4601:A *4762:A 0.000116165
13 *4601:A *972:8 0.000143055
14 *939:27 *4803:A 0.0001249
15 *939:27 *964:6 0.000237238
16 *3975:A *939:6 2.49909e-05
17 *4328:A *939:27 0.000194812
18 *4328:B *4327:B1 3.26735e-05
19 *4328:B *939:27 0
20 *4343:A2 *4601:A 0.000569563
21 *4348:A *4601:A 0.000349592
22 *4348:B *4601:A 2.0514e-05
23 *4377:B *4601:A 0.000201508
24 *4380:A2 *4601:A 3.45679e-05
25 *4382:A1 *4601:A 1.46828e-05
26 *4382:A3 *4601:A 8.65905e-05
27 *4382:B1 *4601:A 8.65905e-05
28 *4435:D *4601:A 0.000161529
29 *4436:CLK *4601:A 0
30 *4436:D *4601:A 0
31 *4436:RESET_B *4601:A 9.766e-05
32 *4437:CLK *4601:A 0.00023468
33 *4586:RESET_B *4327:B1 0.00038625
34 *4594:CLK *4601:A 1.77665e-05
35 *176:35 *4315:B1 0.000145686
36 *484:12 *939:27 0
37 *489:55 *4601:A 0
38 *648:41 *4327:B1 0.000183253
39 *648:56 *4315:B1 2.68721e-05
40 *715:89 *4601:A 0.000201774
*RES
1 *3975:Y *939:6 3.43 
2 *939:6 *4327:B1 11.06 
3 *939:6 *939:27 14.215 
4 *939:27 *4343:B1 1.6 
5 *939:27 *4601:A 44.57 
6 *3975:Y *4315:B1 16.455 
*END

*D_NET *940 0.000700394
*CONN
*I *4575:D I *D sky130_fd_sc_hd__dfrtp_2
*I *4307:Y O *D sky130_fd_sc_hd__nor2_2
*CAP
1 *4575:D 0.000287922
2 *4307:Y 0.000287922
3 *471:45 *4575:D 0
4 *471:51 *4575:D 0
5 *690:29 *4575:D 0
6 *690:73 *4575:D 0.00012455
*RES
1 *4307:Y *4575:D 12.615 
*END

*D_NET *941 0.000357506
*CONN
*I *4585:D I *D sky130_fd_sc_hd__dfrtp_2
*I *4327:X O *D sky130_fd_sc_hd__o21a_2
*CAP
1 *4585:D 0.000132214
2 *4327:X 0.000132214
3 *472:28 *4585:D 0
4 *648:41 *4585:D 9.30787e-05
*RES
1 *4327:X *4585:D 9.12 
*END

*D_NET *942 0.00114929
*CONN
*I *4586:D I *D sky130_fd_sc_hd__dfrtp_2
*I *4329:Y O *D sky130_fd_sc_hd__nor2_2
*CAP
1 *4586:D 0.0003041
2 *4329:Y 0.0003041
3 *4586:D *978:8 0
4 *4586:D *978:10 0
5 *4315:B1 *4586:D 0.000120186
6 *4329:B *4586:D 8.65961e-05
7 *648:41 *4586:D 0.000137578
8 *648:56 *4586:D 0.000196728
*RES
1 *4329:Y *4586:D 13.5 
*END

*D_NET *943 0.000424395
*CONN
*I *4587:D I *D sky130_fd_sc_hd__dfrtp_2
*I *4331:Y O *D sky130_fd_sc_hd__a21oi_2
*CAP
1 *4587:D 8.93517e-05
2 *4331:Y 8.93517e-05
3 *4587:RESET_B *4587:D 0.000124895
4 *470:64 *4587:D 2.77183e-05
5 *648:30 *4587:D 9.30787e-05
*RES
1 *4331:Y *4587:D 9.465 
*END

*D_NET *944 0.000344734
*CONN
*I *4588:D I *D sky130_fd_sc_hd__dfrtp_2
*I *4333:Y O *D sky130_fd_sc_hd__a21oi_2
*CAP
1 *4588:D 0.000128234
2 *4333:Y 0.000128234
3 *4588:D *4589:D 0
4 *4588:D *966:10 0
5 *648:24 *4588:D 8.8266e-05
*RES
1 *4333:Y *4588:D 9.12 
*END

*D_NET *945 0.000348464
*CONN
*I *4589:D I *D sky130_fd_sc_hd__dfrtp_2
*I *4335:Y O *D sky130_fd_sc_hd__nor2_2
*CAP
1 *4589:D 0.000137441
2 *4335:Y 0.000137441
3 *4337:A2 *4589:D 0
4 *4588:CLK *4589:D 5.83121e-06
5 *4588:D *4589:D 0
6 *484:42 *4589:D 6.77501e-05
*RES
1 *4335:Y *4589:D 9.465 
*END

*D_NET *946 0.000483332
*CONN
*I *4590:D I *D sky130_fd_sc_hd__dfrtp_2
*I *4337:Y O *D sky130_fd_sc_hd__a21oi_2
*CAP
1 *4590:D 0.000153227
2 *4337:Y 0.000153227
3 *4337:A1 *4590:D 7.00889e-06
4 *4337:A2 *4590:D 9.37731e-05
5 *4440:CLK *4590:D 7.60965e-05
6 *484:36 *4590:D 0
*RES
1 *4337:Y *4590:D 9.915 
*END

*D_NET *947 0.00155023
*CONN
*I *4591:D I *D sky130_fd_sc_hd__dfrtp_2
*I *4339:Y O *D sky130_fd_sc_hd__a21oi_2
*CAP
1 *4591:D 0.000503821
2 *4339:Y 0.000503821
3 *4339:A2 *4591:D 0.000114579
4 *4339:B1 *4591:D 0.000341419
5 *4343:A1 *4591:D 0
6 *4343:A2 *4591:D 8.65905e-05
7 *189:38 *4591:D 0
8 *705:52 *4591:D 0
*RES
1 *4339:Y *4591:D 15.585 
*END

*D_NET *948 0.000806752
*CONN
*I *4592:D I *D sky130_fd_sc_hd__dfrtp_2
*I *4341:Y O *D sky130_fd_sc_hd__nor2_2
*CAP
1 *4592:D 0.0002983
2 *4341:Y 0.0002983
3 *4328:A *4592:D 0
4 *4341:A *4592:D 0
5 *4593:CLK *4592:D 0.000156155
6 *484:12 *4592:D 5.39961e-05
*RES
1 *4341:Y *4592:D 12.525 
*END

*D_NET *949 0.000639045
*CONN
*I *4593:D I *D sky130_fd_sc_hd__dfrtp_2
*I *4343:X O *D sky130_fd_sc_hd__o21a_2
*CAP
1 *4593:D 0.000316018
2 *4343:X 0.000316018
3 *4341:A *4593:D 7.00889e-06
4 *4593:CLK *4593:D 0
5 *4593:RESET_B *4593:D 0
6 *484:12 *4593:D 0
7 *705:52 *4593:D 0
*RES
1 *4343:X *4593:D 12.105 
*END

*D_NET *950 0.00060797
*CONN
*I *4594:D I *D sky130_fd_sc_hd__dfrtp_2
*I *4345:Y O *D sky130_fd_sc_hd__nor2_2
*CAP
1 *4594:D 0.000187381
2 *4345:Y 0.000187381
3 *4345:B *4594:D 9.71067e-05
4 *4594:CLK *4594:D 2.65936e-05
5 *4601:A *4594:D 1.40752e-05
6 *485:51 *4594:D 9.5433e-05
*RES
1 *4345:Y *4594:D 10.0837 
*END

*D_NET *951 0.000379985
*CONN
*I *4576:D I *D sky130_fd_sc_hd__dfrtp_2
*I *4309:Y O *D sky130_fd_sc_hd__a21oi_2
*CAP
1 *4576:D 6.45659e-05
2 *4309:Y 6.45659e-05
3 *4313:B1 *4576:D 0.000141606
4 *4576:CLK *4576:D 5.92849e-05
5 *4578:CLK *4576:D 4.99619e-05
*RES
1 *4309:Y *4576:D 9.285 
*END

*D_NET *952 0.0008754
*CONN
*I *4595:D I *D sky130_fd_sc_hd__dfrtp_2
*I *4347:X O *D sky130_fd_sc_hd__mux2_1
*CAP
1 *4595:D 0.000133951
2 *4347:X 0.000133951
3 *4595:D *972:27 0.000143266
4 *3973:D *4595:D 0.000157947
5 *4346:A2 *4595:D 0.000164679
6 *173:19 *4595:D 0.000141606
*RES
1 *4347:X *4595:D 11.07 
*END

*D_NET *953 0.00024642
*CONN
*I *4596:D I *D sky130_fd_sc_hd__dfrtp_2
*I *4348:X O *D sky130_fd_sc_hd__and2_2
*CAP
1 *4596:D 6.00319e-05
2 *4348:X 6.00319e-05
3 *4596:D *3974:A 5.39961e-05
4 *4596:D *4781:A 7.23602e-05
5 *4384:A3 *4596:D 0
6 *4437:D *4596:D 0
*RES
1 *4348:X *4596:D 8.58 
*END

*D_NET *954 0.000481023
*CONN
*I *4577:D I *D sky130_fd_sc_hd__dfrtp_2
*I *4311:Y O *D sky130_fd_sc_hd__a21oi_2
*CAP
1 *4577:D 0.000182165
2 *4311:Y 0.000182165
3 *4311:A2 *4577:D 9.5433e-05
4 *174:14 *4577:D 2.1261e-05
5 *647:43 *4577:D 0
*RES
1 *4311:Y *4577:D 9.85875 
*END

*D_NET *955 0.000759168
*CONN
*I *4578:D I *D sky130_fd_sc_hd__dfrtp_2
*I *4313:Y O *D sky130_fd_sc_hd__a21oi_2
*CAP
1 *4578:D 0.000240099
2 *4313:Y 0.000240099
3 *4311:A2 *4578:D 0.000167709
4 *4313:B1 *4578:D 2.55587e-05
5 *175:6 *4578:D 8.57024e-05
*RES
1 *4313:Y *4578:D 11.76 
*END

*D_NET *956 0.000617865
*CONN
*I *4579:D I *D sky130_fd_sc_hd__dfrtp_2
*I *4315:X O *D sky130_fd_sc_hd__o21a_2
*CAP
1 *4579:D 0.000199161
2 *4315:X 0.000199161
3 *4579:D *4816:A 0
4 *4579:RESET_B *4579:D 9.50342e-06
5 *4669:A *4579:D 8.53113e-06
6 *176:35 *4579:D 0.000201508
*RES
1 *4315:X *4579:D 10.155 
*END

*D_NET *957 0.000368337
*CONN
*I *4580:D I *D sky130_fd_sc_hd__dfrtp_2
*I *4317:Y O *D sky130_fd_sc_hd__nor2_2
*CAP
1 *4580:D 0.000131836
2 *4317:Y 0.000131836
3 *4325:B1 *4580:D 0
4 *178:25 *4580:D 9.5433e-05
5 *472:50 *4580:D 9.23117e-06
*RES
1 *4317:Y *4580:D 9.16875 
*END

*D_NET *958 0.000402873
*CONN
*I *4581:D I *D sky130_fd_sc_hd__dfrtp_2
*I *4319:Y O *D sky130_fd_sc_hd__a21oi_2
*CAP
1 *4581:D 0.000145425
2 *4319:Y 0.000145425
3 *4319:A1 *4581:D 0.000112023
*RES
1 *4319:Y *4581:D 5.735 
*END

*D_NET *959 0.00109357
*CONN
*I *4582:D I *D sky130_fd_sc_hd__dfrtp_2
*I *4321:Y O *D sky130_fd_sc_hd__a21oi_2
*CAP
1 *4582:D 0.00026222
2 *4321:Y 0.00026222
3 *4582:D *982:25 0.000119504
4 *4321:A1 *4582:D 5.05437e-05
5 *4323:A2 *4582:D 0.000296074
6 *4707:A *4582:D 0.000103008
*RES
1 *4321:Y *4582:D 12.795 
*END

*D_NET *960 0.000346955
*CONN
*I *4583:D I *D sky130_fd_sc_hd__dfrtp_2
*I *4323:Y O *D sky130_fd_sc_hd__a21oi_2
*CAP
1 *4583:D 0.000102678
2 *4323:Y 0.000102678
3 *3962:B *4583:D 0.000141599
4 *4841:A *4583:D 0
*RES
1 *4323:Y *4583:D 9.285 
*END

*D_NET *961 0.000970093
*CONN
*I *4584:D I *D sky130_fd_sc_hd__dfrtp_2
*I *4325:Y O *D sky130_fd_sc_hd__a21oi_2
*CAP
1 *4584:D 0.000277677
2 *4325:Y 0.000277677
3 *4325:A1 *4584:D 0.000296088
4 *4325:B1 *4584:D 0
5 *4583:RESET_B *4584:D 0
6 *4587:RESET_B *4584:D 0.000118651
*RES
1 *4325:Y *4584:D 13.14 
*END

*D_NET *962 0.00280187
*CONN
*I *3956:A I *D sky130_fd_sc_hd__or2_2
*I *3958:A I *D sky130_fd_sc_hd__or4_2
*I *4849:A I *D sky130_fd_sc_hd__dlygate4sd3_1
*I *4308:A I *D sky130_fd_sc_hd__nand2_2
*I *4575:Q O *D sky130_fd_sc_hd__dfrtp_2
*CAP
1 *3956:A 0.000106052
2 *3958:A 8.72555e-05
3 *4849:A 5.213e-05
4 *4308:A 0.000318323
5 *4575:Q 0.000180621
6 *962:28 0.000318313
7 *962:10 0.000370453
8 *962:8 0.000305626
9 *3956:A *3958:D 0.000210846
10 *3956:A *4308:B 0
11 *3958:A *3958:C 1.61831e-05
12 *3958:A *3958:D 0.00012657
13 *4308:A *4308:B 8.91775e-05
14 *962:28 *4308:B 0
15 *4307:A *4308:A 0.000201508
16 *4307:B *4308:A 4.99619e-05
17 *4624:A *962:8 0
18 *4707:A *962:8 9.24049e-05
19 *647:14 *3956:A 0
20 *647:18 *3958:A 0.000276441
21 *647:37 *3958:A 0
22 *690:73 *962:8 0
*RES
1 *4575:Q *962:8 7.02 
2 *962:8 *962:10 2 
3 *962:10 *4308:A 7.585 
4 *962:10 *4849:A 2.395 
5 *962:8 *962:28 1.89 
6 *962:28 *3958:A 6.48 
7 *962:28 *3956:A 6.255 
*END

*D_NET *963 0.00118898
*CONN
*I *3965:A I *D sky130_fd_sc_hd__or2_2
*I *4326:A I *D sky130_fd_sc_hd__and2_2
*I *3964:A I *D sky130_fd_sc_hd__nor2_2
*I *4585:Q O *D sky130_fd_sc_hd__dfrtp_2
*CAP
1 *3965:A 0.000133508
2 *4326:A 0
3 *3964:A 0.000147167
4 *4585:Q 0
5 *963:10 0.000394851
6 *963:4 0.000381192
7 *3965:A *3965:B 4.66108e-05
8 *4326:B *3964:A 8.26783e-05
9 *4328:B *963:10 0
10 *181:40 *3964:A 2.97004e-06
11 *484:12 *3964:A 0
12 *484:12 *963:10 0
*RES
1 *4585:Q *963:4 1.6 
2 *963:4 *963:10 5.885 
3 *963:10 *3964:A 6.45 
4 *963:10 *4326:A 3.6 
5 *963:4 *3965:A 3.805 
*END

*D_NET *964 0.00112479
*CONN
*I *4803:A I *D sky130_fd_sc_hd__dlygate4sd3_1
*I *3965:B I *D sky130_fd_sc_hd__or2_2
*I *4586:Q O *D sky130_fd_sc_hd__dfrtp_2
*CAP
1 *4803:A 4.60278e-05
2 *3965:B 0.000122762
3 *4586:Q 9.88365e-05
4 *964:6 0.000267626
5 *3965:A *3965:B 4.66108e-05
6 *484:12 *3965:B 0.000180789
7 *939:27 *4803:A 0.0001249
8 *939:27 *964:6 0.000237238
*RES
1 *4586:Q *964:6 3.775 
2 *964:6 *3965:B 8.195 
3 *964:6 *4803:A 2.74 
*END

*D_NET *965 0.00161058
*CONN
*I *3967:A I *D sky130_fd_sc_hd__or2_2
*I *4819:A I *D sky130_fd_sc_hd__dlygate4sd3_1
*I *3966:A I *D sky130_fd_sc_hd__or3_2
*I *4587:Q O *D sky130_fd_sc_hd__dfrtp_2
*CAP
1 *3967:A 9.48456e-05
2 *4819:A 4.33612e-05
3 *3966:A 0.000120104
4 *4587:Q 0.000231804
5 *965:22 0.000249906
6 *3967:A *3967:B 9.9535e-05
7 *965:22 *3967:B 7.55391e-05
8 *3966:B *3966:A 7.35813e-05
9 *3970:A *4819:A 0.000114024
10 *3970:D *3967:A 0
11 *4330:A2 *4819:A 0.000260278
12 *181:49 *4819:A 0.000161529
13 *184:14 *3966:A 4.92935e-05
14 *184:14 *965:22 3.67779e-05
*RES
1 *4587:Q *3966:A 5.72 
2 *4587:Q *965:22 5.685 
3 *965:22 *4819:A 6.12 
4 *965:22 *3967:A 5.745 
*END

*D_NET *966 0.00239427
*CONN
*I *3967:B I *D sky130_fd_sc_hd__or2_2
*I *4833:A I *D sky130_fd_sc_hd__dlygate4sd3_1
*I *3968:A I *D sky130_fd_sc_hd__or2_2
*I *4588:Q O *D sky130_fd_sc_hd__dfrtp_2
*CAP
1 *3967:B 0.000273569
2 *4833:A 5.12212e-05
3 *3968:A 0.000172479
4 *4588:Q 0.000312316
5 *966:10 0.000361901
6 *966:8 0.000724086
7 *3966:B *3967:B 0
8 *3967:A *3967:B 9.9535e-05
9 *4586:RESET_B *3967:B 0
10 *4586:RESET_B *3968:A 0
11 *4586:RESET_B *966:10 0
12 *4588:D *966:10 0
13 *181:40 *3967:B 0.000187071
14 *648:24 *4833:A 8.65905e-05
15 *648:30 *4833:A 4.99619e-05
16 *965:22 *3967:B 7.55391e-05
*RES
1 *4588:Q *966:8 7.845 
2 *966:8 *966:10 2.145 
3 *966:10 *3968:A 6 
4 *966:10 *4833:A 4.74 
5 *966:8 *3967:B 9.825 
*END

*D_NET *967 0.00267482
*CONN
*I *3969:A I *D sky130_fd_sc_hd__or2_2
*I *4334:A I *D sky130_fd_sc_hd__xor2_2
*I *4336:A1 I *D sky130_fd_sc_hd__o21ai_2
*I *4589:Q O *D sky130_fd_sc_hd__dfrtp_2
*CAP
1 *3969:A 0.000214599
2 *4334:A 0
3 *4336:A1 0.000150139
4 *4589:Q 0.000189815
5 *967:10 0.000221266
6 *967:8 0.000475541
7 *3969:A *3971:A 4.43871e-06
8 *4334:B *4336:A1 0
9 *4336:B1 *4336:A1 7.00889e-06
10 *4337:A2 *3969:A 0.000332744
11 *4337:A2 *4336:A1 0.000120186
12 *4337:A2 *967:10 0.000200648
13 *4589:RESET_B *967:8 4.70393e-05
14 *186:8 *4336:A1 5.4155e-06
15 *189:10 *3969:A 4.82863e-05
16 *484:6 *3969:A 4.82863e-05
17 *484:36 *3969:A 0
18 *648:10 *3969:A 0.000125554
19 *648:18 *3969:A 0.000342254
20 *648:18 *967:10 0.000141599
21 *705:10 *967:10 0
22 *713:12 *4336:A1 0
*RES
1 *4589:Q *967:8 6.465 
2 *967:8 *967:10 2.4 
3 *967:10 *4336:A1 6.39 
4 *967:10 *4334:A 3.6 
5 *967:8 *3969:A 10.83 
*END

*D_NET *968 0.00218628
*CONN
*I *3969:B I *D sky130_fd_sc_hd__or2_2
*I *4812:A I *D sky130_fd_sc_hd__dlygate4sd3_1
*I *4590:Q O *D sky130_fd_sc_hd__dfrtp_2
*CAP
1 *3969:B 0.00034357
2 *4812:A 0.00019536
3 *4590:Q 0
4 *968:6 0.00053893
5 *4591:RESET_B *3969:B 0
6 *4596:RESET_B *3969:B 6.95166e-05
7 *4723:A *3969:B 0.000180682
8 *4723:A *4812:A 0.000110683
9 *4729:A *4812:A 0.000114081
10 *189:10 *3969:B 0.00045545
11 *484:6 *3969:B 0.000124007
12 *705:20 *3969:B 0
13 *705:20 *4812:A 0
14 *713:46 *4812:A 5.4003e-05
*RES
1 *4590:Q *968:6 3.6 
2 *968:6 *4812:A 7.665 
3 *968:6 *3969:B 11.94 
*END

*D_NET *969 0.00130479
*CONN
*I *4805:A I *D sky130_fd_sc_hd__dlygate4sd3_1
*I *3971:A I *D sky130_fd_sc_hd__or2_2
*I *4591:Q O *D sky130_fd_sc_hd__dfrtp_2
*CAP
1 *4805:A 0.000168299
2 *3971:A 0.00021338
3 *4591:Q 0
4 *969:6 0.000381679
5 *3969:A *3971:A 4.43871e-06
6 *3970:D *3971:A 4.60584e-05
7 *4338:A *3971:A 5.72091e-05
8 *4338:A *4805:A 4.06643e-05
9 *4338:B *3971:A 0
10 *4339:B1 *3971:A 0
11 *183:10 *3971:A 0
12 *183:10 *4805:A 0
13 *189:10 *3971:A 8.8266e-05
14 *484:6 *3971:A 0.000163199
15 *484:36 *3971:A 0
16 *648:10 *3971:A 0
17 *705:52 *4805:A 0.000141599
*RES
1 *4591:Q *969:6 3.6 
2 *969:6 *3971:A 8.505 
3 *969:6 *4805:A 7.05 
*END

*D_NET *970 0.00123346
*CONN
*I *4831:A I *D sky130_fd_sc_hd__dlygate4sd3_1
*I *3955:A I *D sky130_fd_sc_hd__or2_2
*I *4342:A1 I *D sky130_fd_sc_hd__o21a_2
*I *4592:Q O *D sky130_fd_sc_hd__dfrtp_2
*CAP
1 *4831:A 2.2943e-05
2 *3955:A 0.000190976
3 *4342:A1 0.000124449
4 *4592:Q 0.000108518
5 *970:8 0.000315424
6 *970:6 0.000131461
7 *3955:A *3955:B 4.94404e-05
8 *4339:A1 *4342:A1 5.10121e-06
9 *4340:A *3955:A 0
10 *4340:A *970:6 3.00381e-05
11 *4342:B1 *3955:A 4.7043e-05
12 *4342:B1 *4342:A1 6.65887e-05
13 *4343:A1 *4342:A1 0
14 *4343:A1 *4831:A 1.47347e-05
15 *4343:A1 *970:6 0.000115474
16 *4343:A2 *4342:A1 1.12643e-05
17 *4593:RESET_B *3955:A 0
18 *4593:RESET_B *4342:A1 0
19 *189:38 *3955:A 0
20 *190:8 *3955:A 0
21 *705:52 *4342:A1 0
*RES
1 *4592:Q *970:6 4.12 
2 *970:6 *970:8 2 
3 *970:8 *4342:A1 5.85375 
4 *970:8 *3955:A 7.275 
5 *970:6 *4831:A 2.05 
*END

*D_NET *971 0.000374933
*CONN
*I *3955:B I *D sky130_fd_sc_hd__or2_2
*I *4824:A I *D sky130_fd_sc_hd__dlygate4sd3_1
*I *4593:Q O *D sky130_fd_sc_hd__dfrtp_2
*CAP
1 *3955:B 8.14964e-05
2 *4824:A 5.65338e-05
3 *4593:Q 0.00013803
4 *3955:A *3955:B 4.94404e-05
5 *4340:A *3955:B 4.94326e-05
*RES
1 *4593:Q *4824:A 3.995 
2 *4593:Q *3955:B 8.775 
*END

*D_NET *972 0.00292104
*CONN
*I *4826:A I *D sky130_fd_sc_hd__dlygate4sd3_1
*I *3973:A I *D sky130_fd_sc_hd__or4_2
*I *4346:A1 I *D sky130_fd_sc_hd__o31a_2
*I *4594:Q O *D sky130_fd_sc_hd__dfrtp_2
*CAP
1 *4826:A 0.000221939
2 *3973:A 2.09808e-05
3 *4346:A1 0.000131169
4 *4594:Q 0.000201507
5 *972:27 0.000586548
6 *972:8 0.000676304
7 *4346:A1 *4346:B1 7.47581e-05
8 *4826:A *3973:B 2.01504e-05
9 *972:27 *3973:B 1.14169e-05
10 *3973:C *972:27 0.000235339
11 *4344:A *4826:A 0.000108859
12 *4344:A *972:27 2.58336e-05
13 *4346:A2 *4346:A1 0.00014186
14 *4346:A2 *972:27 0.000104774
15 *4347:A1 *4346:A1 4.82863e-05
16 *4595:D *972:27 0.000143266
17 *4601:A *972:8 0.000143055
18 *191:8 *4826:A 2.49909e-05
*RES
1 *4594:Q *972:8 7.155 
2 *972:8 *4346:A1 6.885 
3 *972:8 *972:27 9.155 
4 *972:27 *3973:A 1.96 
5 *972:27 *4826:A 5.5 
*END

*D_NET *973 0.00203102
*CONN
*I *3956:B I *D sky130_fd_sc_hd__or2_2
*I *3958:B I *D sky130_fd_sc_hd__or4_2
*I *4308:B I *D sky130_fd_sc_hd__nand2_2
*I *4576:Q O *D sky130_fd_sc_hd__dfrtp_2
*CAP
1 *3956:B 0.000113565
2 *3958:B 0
3 *4308:B 0.00027559
4 *4576:Q 0.00015689
5 *973:12 0.000317802
6 *973:10 0.000312667
7 *4308:B *3958:C 1.43521e-05
8 *4308:B *3958:D 0
9 *973:10 *3958:C 3.05238e-05
10 *973:10 *976:23 9.70699e-05
11 *973:12 *3958:C 4.70343e-05
12 *3956:A *4308:B 0
13 *4307:A *4308:B 8.65961e-05
14 *4307:B *4308:B 4.82919e-05
15 *4308:A *4308:B 8.91775e-05
16 *4576:RESET_B *973:10 6.5265e-05
17 *174:14 *3956:B 0.000108724
18 *690:73 *4308:B 0.000114753
19 *690:73 *973:10 2.68721e-05
20 *690:73 *973:12 6.10941e-05
21 *690:82 *973:10 6.47516e-05
22 *962:28 *4308:B 0
*RES
1 *4576:Q *973:10 7.725 
2 *973:10 *973:12 1.38 
3 *973:12 *4308:B 8.88 
4 *973:12 *3958:B 3.6 
5 *973:10 *3956:B 5.79 
*END

*D_NET *974 0.00298096
*CONN
*I *3973:B I *D sky130_fd_sc_hd__or4_2
*I *4346:B1 I *D sky130_fd_sc_hd__o31a_2
*I *4595:Q O *D sky130_fd_sc_hd__dfrtp_2
*CAP
1 *3973:B 0.000124995
2 *4346:B1 0.000569391
3 *4595:Q 0.00020816
4 *974:8 0.000902546
5 *3974:B *4346:B1 1.92281e-05
6 *4346:A1 *4346:B1 7.47581e-05
7 *4346:A2 *4346:B1 2.03649e-05
8 *4346:A3 *4346:B1 1.9872e-05
9 *4347:A1 *3973:B 0.000179192
10 *4347:A1 *4346:B1 0.000405913
11 *4595:RESET_B *974:8 4.11729e-05
12 *4596:RESET_B *4346:B1 2.97802e-05
13 *4671:A *4346:B1 0.000344076
14 *4826:A *3973:B 2.01504e-05
15 *582:8 *974:8 9.94554e-06
16 *972:27 *3973:B 1.14169e-05
*RES
1 *4595:Q *974:8 5.775 
2 *974:8 *4346:B1 13.68 
3 *974:8 *3973:B 6.195 
*END

*D_NET *975 0.00262872
*CONN
*I *4781:A I *D sky130_fd_sc_hd__dlygate4sd3_1
*I *3974:A I *D sky130_fd_sc_hd__nor2_2
*I *4596:Q O *D sky130_fd_sc_hd__dfrtp_2
*CAP
1 *4781:A 0.000205324
2 *3974:A 0.000381986
3 *4596:Q 0.00046008
4 *975:8 0.00104739
5 *3974:B *3974:A 0.000235238
6 *4347:A1 *975:8 0.000172342
7 *4348:A *4781:A 0
8 *4384:A3 *3974:A 0
9 *4384:A3 *4781:A 0
10 *4595:RESET_B *3974:A 0
11 *4595:RESET_B *4781:A 0
12 *4596:D *3974:A 5.39961e-05
13 *4596:D *4781:A 7.23602e-05
14 *651:16 *3974:A 0
*RES
1 *4596:Q *975:8 8.88 
2 *975:8 *3974:A 10.5 
3 *975:8 *4781:A 7.02 
*END

*D_NET *976 0.00247634
*CONN
*I *4835:A I *D sky130_fd_sc_hd__dlygate4sd3_1
*I *3957:A I *D sky130_fd_sc_hd__or2_2
*I *3958:C I *D sky130_fd_sc_hd__or4_2
*I *4577:Q O *D sky130_fd_sc_hd__dfrtp_2
*CAP
1 *4835:A 1.25806e-05
2 *3957:A 0.000182538
3 *3958:C 0.000129435
4 *4577:Q 0
5 *976:23 0.000441941
6 *976:6 0.000376258
7 *3958:C *3958:D 8.88273e-05
8 *976:23 *3958:D 2.87867e-05
9 *976:23 *4804:A 9.57632e-05
10 *3958:A *3958:C 1.61831e-05
11 *4308:B *3958:C 1.43521e-05
12 *4310:A *3957:A 8.73544e-05
13 *4312:A *976:23 0
14 *4312:B *3957:A 0.000302518
15 *4312:B *4835:A 7.57202e-05
16 *4313:A1 *976:23 0
17 *4313:A2 *3957:A 0.000201503
18 *4313:A2 *4835:A 8.65961e-05
19 *4313:B1 *3957:A 0.000119154
20 *4576:RESET_B *976:23 0
21 *175:6 *3957:A 4.21973e-05
22 *176:10 *976:23 0
23 *973:10 *3958:C 3.05238e-05
24 *973:10 *976:23 9.70699e-05
25 *973:12 *3958:C 4.70343e-05
*RES
1 *4577:Q *976:6 3.6 
2 *976:6 *3958:C 6.81 
3 *976:6 *976:23 7.46 
4 *976:23 *3957:A 7.36 
5 *976:23 *4835:A 2.395 
*END

*D_NET *977 0.00113139
*CONN
*I *4804:A I *D sky130_fd_sc_hd__dlygate4sd3_1
*I *3958:D I *D sky130_fd_sc_hd__or4_2
*I *4578:Q O *D sky130_fd_sc_hd__dfrtp_2
*CAP
1 *4804:A 0.000111487
2 *3958:D 0.000178811
3 *4578:Q 0
4 *977:6 0.000290298
5 *3956:A *3958:D 0.000210846
6 *3958:A *3958:D 0.00012657
7 *3958:C *3958:D 8.88273e-05
8 *4308:B *3958:D 0
9 *647:10 *4804:A 0
10 *647:14 *3958:D 0
11 *647:14 *4804:A 0
12 *976:23 *3958:D 2.87867e-05
13 *976:23 *4804:A 9.57632e-05
*RES
1 *4578:Q *977:6 3.6 
2 *977:6 *3958:D 8.415 
3 *977:6 *4804:A 6.255 
*END

*D_NET *978 0.00265579
*CONN
*I *4318:A1 I *D sky130_fd_sc_hd__o31ai_2
*I *3960:A I *D sky130_fd_sc_hd__or4_2
*I *4314:A I *D sky130_fd_sc_hd__and2_2
*I *3959:A I *D sky130_fd_sc_hd__nor2_2
*I *4579:Q O *D sky130_fd_sc_hd__dfrtp_2
*CAP
1 *4318:A1 0.000308322
2 *3960:A 2.43002e-05
3 *4314:A 0
4 *3959:A 0.00033492
5 *4579:Q 0
6 *978:10 0.000454073
7 *978:8 0.000279861
8 *978:6 0.000444729
9 *3959:A *4316:A 0
10 *3959:A *979:23 0
11 *4318:A1 *4318:A2 0.00022162
12 *978:8 *4318:A2 0
13 *978:8 *979:23 0
14 *978:10 *979:23 0
15 *3959:B *3959:A 4.99619e-05
16 *4315:B1 *4318:A1 0.00021841
17 *4315:B1 *978:8 0
18 *4586:D *978:8 0
19 *4586:D *978:10 0
20 *176:35 *4318:A1 8.58968e-05
21 *178:10 *3960:A 2.75145e-05
22 *472:28 *3959:A 0.000103192
23 *472:41 *3959:A 9.74604e-05
24 *472:41 *978:10 5.53249e-06
25 *648:41 *978:10 0
26 *688:36 *3959:A 0
*RES
1 *4579:Q *978:6 3.6 
2 *978:6 *978:8 2.145 
3 *978:8 *978:10 1.89 
4 *978:10 *3959:A 9.96 
5 *978:10 *4314:A 3.6 
6 *978:8 *3960:A 4.05 
7 *978:6 *4318:A1 10.95 
*END

*D_NET *979 0.00313739
*CONN
*I *4318:A2 I *D sky130_fd_sc_hd__o31ai_2
*I *3960:B I *D sky130_fd_sc_hd__or4_2
*I *4316:A I *D sky130_fd_sc_hd__xnor2_2
*I *4580:Q O *D sky130_fd_sc_hd__dfrtp_2
*CAP
1 *4318:A2 0.000553344
2 *3960:B 0
3 *4316:A 0.000222999
4 *4580:Q 6.58773e-05
5 *979:23 0.00069518
6 *979:8 0.000430712
7 *4318:A2 *4816:A 0
8 *3959:A *4316:A 0
9 *3959:A *979:23 0
10 *3959:B *4316:A 0.000160071
11 *3959:B *979:23 2.03245e-05
12 *4314:B *979:8 4.66108e-05
13 *4315:A1 *4318:A2 2.34423e-05
14 *4315:A2 *979:8 4.0843e-05
15 *4316:B *4316:A 8.65905e-05
16 *4318:A1 *4318:A2 0.00022162
17 *4318:A3 *4318:A2 0
18 *4585:RESET_B *4316:A 5.63701e-05
19 *176:35 *4318:A2 0.00028276
20 *176:35 *979:23 7.23602e-05
21 *176:37 *979:23 0.00015829
22 *978:8 *4318:A2 0
23 *978:8 *979:23 0
24 *978:10 *979:23 0
*RES
1 *4580:Q *979:8 4.74 
2 *979:8 *4316:A 8.025 
3 *979:8 *979:23 2.91 
4 *979:23 *3960:B 3.6 
5 *979:23 *4318:A2 12.9 
*END

*D_NET *980 0.00140558
*CONN
*I *4816:A I *D sky130_fd_sc_hd__dlygate4sd3_1
*I *3960:C I *D sky130_fd_sc_hd__or4_2
*I *4581:Q O *D sky130_fd_sc_hd__dfrtp_2
*CAP
1 *4816:A 0.000328799
2 *3960:C 0.000109355
3 *4581:Q 0.000438154
4 *3960:D *3960:C 4.66108e-05
5 *4315:A2 *4816:A 0.000163185
6 *4318:A2 *4816:A 0
7 *4579:D *4816:A 0
8 *4579:RESET_B *4816:A 0
9 *178:10 *3960:C 0.000269515
10 *178:10 *4816:A 4.99619e-05
*RES
1 *4581:Q *3960:C 5.72 
2 *4581:Q *4816:A 13.11 
*END

*D_NET *981 0.00314398
*CONN
*I *3963:A I *D sky130_fd_sc_hd__or4_2
*I *3961:A I *D sky130_fd_sc_hd__or2_2
*I *4320:A I *D sky130_fd_sc_hd__nand2_2
*I *4322:A1 I *D sky130_fd_sc_hd__o21ai_2
*I *4582:Q O *D sky130_fd_sc_hd__dfrtp_2
*CAP
1 *3963:A 0.000125237
2 *3961:A 0
3 *4320:A 5.68627e-05
4 *4322:A1 0
5 *4582:Q 0.000677304
6 *981:25 0.000118555
7 *981:21 0.000246209
8 *981:10 0.000736583
9 *3963:A *3963:B 6.52265e-05
10 *4320:A *3963:B 1.34594e-05
11 *981:25 *3963:B 9.2741e-05
12 *3963:D *3963:A 7.10578e-05
13 *3963:D *981:25 4.21973e-05
14 *4320:B *4320:A 0.000164874
15 *4320:B *981:25 4.35348e-05
16 *4322:A2 *981:21 7.07801e-05
17 *4323:A2 *981:10 0.000316806
18 *4323:A2 *981:21 2.30797e-05
19 *4325:B1 *981:10 0.000102985
20 *4325:B1 *981:21 6.44134e-05
21 *4582:CLK *981:10 7.23602e-05
22 *4582:RESET_B *981:10 3.97185e-05
*RES
1 *4582:Q *981:10 13.59 
2 *981:10 *4322:A1 3.6 
3 *981:10 *981:21 3.89 
4 *981:21 *981:25 1.845 
5 *981:25 *4320:A 3.085 
6 *981:25 *3961:A 1.6 
7 *981:21 *3963:A 4.24 
*END

*D_NET *982 0.00327409
*CONN
*I *3963:B I *D sky130_fd_sc_hd__or4_2
*I *4322:B1 I *D sky130_fd_sc_hd__o21ai_2
*I *3962:A I *D sky130_fd_sc_hd__or2_2
*I *4583:Q O *D sky130_fd_sc_hd__dfrtp_2
*CAP
1 *3963:B 0.000274274
2 *4322:B1 0
3 *3962:A 0.000116117
4 *4583:Q 0.000310253
5 *982:25 0.000579409
6 *982:8 0.000731505
7 *3962:B *982:25 0.000427312
8 *3963:A *3963:B 6.52265e-05
9 *4320:A *3963:B 1.34594e-05
10 *4322:A2 *3963:B 5.42473e-05
11 *4322:A2 *982:25 4.18603e-06
12 *4323:A1 *3962:A 0.000157678
13 *4323:A1 *982:25 0.000102184
14 *4323:A2 *982:25 6.67262e-05
15 *4324:A *3962:A 0
16 *4324:A *982:25 0
17 *4582:D *982:25 0.000119504
18 *179:8 *3963:B 0.000128353
19 *179:8 *982:25 3.09164e-05
20 *981:25 *3963:B 9.2741e-05
*RES
1 *4583:Q *982:8 7.845 
2 *982:8 *3962:A 6.195 
3 *982:8 *982:25 8.91 
4 *982:25 *4322:B1 3.6 
5 *982:25 *3963:B 8.1 
*END

*D_NET *983 0.00163167
*CONN
*I *3963:C I *D sky130_fd_sc_hd__or4_2
*I *4808:A I *D sky130_fd_sc_hd__dlygate4sd3_1
*I *4584:Q O *D sky130_fd_sc_hd__dfrtp_2
*CAP
1 *3963:C 0.000263369
2 *4808:A 7.95201e-05
3 *4584:Q 0.000288908
4 *983:10 0.000631797
5 *4323:A2 *983:10 5.83121e-06
6 *4325:A1 *3963:C 0
7 *4325:A1 *983:10 0
8 *4325:B1 *3963:C 0.000283278
9 *4325:B1 *983:10 7.89689e-05
10 *181:10 *3963:C 0
11 *688:36 *3963:C 0
*RES
1 *4584:Q *983:10 7.41 
2 *983:10 *4808:A 4.74 
3 *983:10 *3963:C 9.57 
*END

*D_NET *984 0.00329902
*CONN
*I *3948:A_N I *D sky130_fd_sc_hd__and3b_2
*I *3868:A1 I *D sky130_fd_sc_hd__o21a_2
*I *4817:A I *D sky130_fd_sc_hd__dlygate4sd3_1
*I *3937:A I *D sky130_fd_sc_hd__nor2_2
*I *4427:Q O *D sky130_fd_sc_hd__dfrtp_2
*CAP
1 *3948:A_N 1.07938e-05
2 *3868:A1 0.000199462
3 *4817:A 0
4 *3937:A 0.00013941
5 *4427:Q 8.52107e-05
6 *984:36 0.000380233
7 *984:25 0.000169978
8 *984:8 0.00022462
9 *3860:A1 *3937:A 0.00016037
10 *3860:A2 *3868:A1 0.000175374
11 *3948:B *984:36 4.30166e-05
12 *3950:A1 *3937:A 6.52411e-05
13 *4402:CLK *3868:A1 0
14 *4413:D *3868:A1 7.08257e-05
15 *4720:A *984:8 0.000263861
16 *4818:A *3868:A1 0.000111293
17 *4818:A *3948:A_N 3.68999e-05
18 *4818:A *984:36 4.66108e-05
19 *171:10 *984:36 0.000267533
20 *520:12 *984:36 5.9145e-05
21 *520:23 *3948:A_N 2.68526e-05
22 *520:23 *984:36 6.64135e-05
23 *521:10 *984:8 0.000235299
24 *521:18 *3937:A 0.000132821
25 *521:18 *984:8 7.08297e-05
26 *622:6 *984:36 0.000230021
27 *713:12 *3937:A 1.0397e-05
28 *713:12 *984:8 1.65129e-05
*RES
1 *4427:Q *984:8 7.275 
2 *984:8 *3937:A 7.095 
3 *984:8 *984:25 2 
4 *984:25 *4817:A 1.6 
5 *984:25 *984:36 5.055 
6 *984:36 *3868:A1 9.785 
7 *984:36 *3948:A_N 2.05 
*END

*D_NET *985 0.00273088
*CONN
*I *4795:A I *D sky130_fd_sc_hd__dlygate4sd3_1
*I *3840:A I *D sky130_fd_sc_hd__inv_2
*I *3940:A1 I *D sky130_fd_sc_hd__o21ai_2
*I *4428:Q O *D sky130_fd_sc_hd__dfrtp_2
*CAP
1 *4795:A 0.000158924
2 *3840:A 1.65703e-05
3 *3940:A1 0.000208965
4 *4428:Q 0
5 *985:8 0.000929594
6 *985:4 0.000862983
7 *3840:A *3935:A1 6.75724e-05
8 *3940:A1 *3935:A1 9.54469e-05
9 *3940:A1 *4786:A 2.75229e-05
10 *3873:A0 *3940:A1 7.03516e-05
11 *3873:S *3940:A1 4.82919e-05
12 *4367:A2 *4795:A 0
13 *4428:CLK *4795:A 1.04217e-05
14 *4428:CLK *985:8 7.47952e-05
15 *4428:RESET_B *985:8 6.52409e-05
16 *90:45 *3840:A 4.39734e-05
17 *90:45 *3940:A1 5.02217e-05
*RES
1 *4428:Q *985:4 1.6 
2 *985:4 *985:8 10.04 
3 *985:8 *3940:A1 7.605 
4 *985:8 *3840:A 4.47 
5 *985:4 *4795:A 7.775 
*END

*D_NET *986 0.000807508
*CONN
*I *4476:D I *D sky130_fd_sc_hd__dfrtp_2
*I *3876:Y O *D sky130_fd_sc_hd__inv_2
*CAP
1 *4476:D 0.000321699
2 *3876:Y 0.000321699
3 *3876:A *4476:D 0.000118294
4 *4367:B1 *4476:D 2.96334e-05
5 *4476:RESET_B *4476:D 0
6 *115:23 *4476:D 1.61831e-05
*RES
1 *3876:Y *4476:D 11.535 
*END

*D_NET *987 0.00213271
*CONN
*I *3841:A I *D sky130_fd_sc_hd__inv_2
*I *3935:A1 I *D sky130_fd_sc_hd__o21a_2
*I *4786:A I *D sky130_fd_sc_hd__dlygate4sd3_1
*I *4429:Q O *D sky130_fd_sc_hd__dfrtp_2
*CAP
1 *3841:A 0
2 *3935:A1 0.000145151
3 *4786:A 0.000211747
4 *4429:Q 7.0208e-05
5 *987:14 0.000530804
6 *987:8 0.000244113
7 *3840:A *3935:A1 6.75724e-05
8 *3873:A0 *4786:A 1.08758e-05
9 *3873:A1 *3935:A1 0.000185405
10 *3940:A1 *3935:A1 9.54469e-05
11 *3940:A1 *4786:A 2.75229e-05
12 *4476:RESET_B *987:14 0
13 *89:8 *3935:A1 0.000193801
14 *90:10 *987:14 0.00012657
15 *90:45 *3935:A1 1.73877e-05
16 *90:45 *987:14 4.40812e-05
17 *113:8 *4786:A 8.94622e-05
18 *523:10 *987:14 3.67779e-05
19 *523:47 *3935:A1 7.90356e-06
20 *523:47 *987:14 2.7881e-05
21 *707:12 *987:14 0
*RES
1 *4429:Q *987:8 2.755 
2 *987:8 *987:14 5.375 
3 *987:14 *4786:A 7.155 
4 *987:14 *3935:A1 7.83 
5 *987:8 *3841:A 1.6 
*END

*D_NET *988 0.000842516
*CONN
*I *4477:D I *D sky130_fd_sc_hd__dfrtp_2
*I *4076:Y O *D sky130_fd_sc_hd__nor2_2
*CAP
1 *4477:D 0.000172226
2 *4076:Y 0.000172226
3 *4039:C *4477:D 6.5525e-05
4 *4076:B *4477:D 0.00031916
5 *4134:A *4477:D 0
6 *4477:RESET_B *4477:D 7.35729e-05
7 *4568:RESET_B *4477:D 3.98044e-05
*RES
1 *4076:Y *4477:D 12.015 
*END

*D_NET *989 0.00026816
*CONN
*I *4478:D I *D sky130_fd_sc_hd__dfstp_2
*I *4078:X O *D sky130_fd_sc_hd__a21o_2
*CAP
1 *4478:D 0.00013408
2 *4078:X 0.00013408
3 *4078:B1 *4478:D 0
*RES
1 *4078:X *4478:D 9.03 
*END

*D_NET *990 0.000449363
*CONN
*I *4479:D I *D sky130_fd_sc_hd__dfrtp_2
*I *4080:Y O *D sky130_fd_sc_hd__a21oi_2
*CAP
1 *4479:D 0.000106868
2 *4080:Y 0.000106868
3 *4479:D *4770:A 0.000163204
4 *4479:D *998:25 0
5 *4076:B *4479:D 5.13155e-05
6 *4479:CLK *4479:D 2.11084e-05
*RES
1 *4080:Y *4479:D 9.81 
*END

*D_NET *991 0.000401624
*CONN
*I *4480:D I *D sky130_fd_sc_hd__dfrtp_2
*I *4082:Y O *D sky130_fd_sc_hd__a21oi_2
*CAP
1 *4480:D 0.000115181
2 *4082:Y 0.000115181
3 *4480:D *3877:C 2.75229e-05
4 *4081:A *4480:D 4.82919e-05
5 *4480:RESET_B *4480:D 0
6 *272:20 *4480:D 9.54469e-05
*RES
1 *4082:Y *4480:D 9.225 
*END

*D_NET *992 0.000253996
*CONN
*I *4481:D I *D sky130_fd_sc_hd__dfstp_2
*I *4084:Y O *D sky130_fd_sc_hd__nand3_2
*CAP
1 *4481:D 3.41383e-05
2 *4084:Y 3.41383e-05
3 *4481:D *4483:D 0.000120186
4 *271:19 *4481:D 6.55328e-05
*RES
1 *4084:Y *4481:D 8.58 
*END

*D_NET *993 0.00045532
*CONN
*I *4482:D I *D sky130_fd_sc_hd__dfstp_2
*I *4086:Y O *D sky130_fd_sc_hd__o21ai_2
*CAP
1 *4482:D 0.000184261
2 *4086:Y 0.000184261
3 *4085:B1 *4482:D 7.33283e-05
4 *4086:B1 *4482:D 1.34687e-05
*RES
1 *4086:Y *4482:D 9.975 
*END

*D_NET *994 0.00187129
*CONN
*I *4483:D I *D sky130_fd_sc_hd__dfrtp_2
*I *4088:Y O *D sky130_fd_sc_hd__a21oi_2
*CAP
1 *4483:D 0.000325453
2 *4088:Y 0.000325453
3 *4483:D *4797:A 0.000156916
4 *4077:B1 *4483:D 0.000186099
5 *4481:D *4483:D 0.000120186
6 *271:19 *4483:D 8.11772e-05
7 *272:12 *4483:D 0.000676005
*RES
1 *4088:Y *4483:D 16.455 
*END

*D_NET *995 0.00064565
*CONN
*I *4484:D I *D sky130_fd_sc_hd__dfstp_2
*I *4090:X O *D sky130_fd_sc_hd__a21o_2
*CAP
1 *4484:D 0.000257198
2 *4090:X 0.000257198
3 *4089:B *4484:D 7.97834e-05
4 *271:56 *4484:D 5.14703e-05
*RES
1 *4090:X *4484:D 11.7 
*END

*D_NET *996 0.000516522
*CONN
*I *4485:D I *D sky130_fd_sc_hd__dfstp_2
*I *4092:X O *D sky130_fd_sc_hd__a21o_2
*CAP
1 *4485:D 0.000108809
2 *4092:X 0.000108809
3 *4092:B1 *4485:D 8.65961e-05
4 *4725:A *4485:D 4.27235e-05
5 *271:56 *4485:D 4.63605e-05
6 *710:26 *4485:D 0.000123225
*RES
1 *4092:X *4485:D 9.975 
*END

*D_NET *997 0.000415559
*CONN
*I *4486:D I *D sky130_fd_sc_hd__dfrtp_2
*I *4093:X O *D sky130_fd_sc_hd__and3_2
*CAP
1 *4486:D 9.44522e-05
2 *4093:X 9.44522e-05
3 *4486:D *3883:A 0.0001249
4 *4093:C *4486:D 9.47454e-05
5 *4486:CLK *4486:D 7.00889e-06
6 *123:10 *4486:D 0
*RES
1 *4093:X *4486:D 9.465 
*END

*D_NET *998 0.00526991
*CONN
*I *3877:A I *D sky130_fd_sc_hd__or3_2
*I *4079:A1 I *D sky130_fd_sc_hd__o21ai_2
*I *4077:A1 I *D sky130_fd_sc_hd__o21ai_2
*I *3878:A I *D sky130_fd_sc_hd__or4_2
*I *4837:A I *D sky130_fd_sc_hd__dlygate4sd3_1
*I *4770:A I *D sky130_fd_sc_hd__dlygate4sd3_1
*I *4477:Q O *D sky130_fd_sc_hd__dfrtp_2
*CAP
1 *3877:A 4.93025e-05
2 *4079:A1 9.71344e-05
3 *4077:A1 0.000346245
4 *3878:A 2.08467e-05
5 *4837:A 0.000198131
6 *4770:A 0.000503532
7 *4477:Q 9.25238e-05
8 *998:65 0.000323357
9 *998:36 0.000730093
10 *998:25 0.000466773
11 *998:8 0.000678617
12 *3877:A *4079:A2 0
13 *3877:A *999:16 5.4003e-05
14 *3878:A *3878:B 7.00889e-06
15 *4077:A1 *3878:D 4.43871e-06
16 *4079:A1 *4079:A2 2.75145e-05
17 *998:8 *1000:8 0
18 *998:25 *1000:8 0
19 *998:36 *3878:C 0
20 *998:36 *3878:D 0.000105841
21 *998:36 *1000:17 0
22 *998:36 *1001:10 0
23 *4076:B *998:65 0.000123225
24 *4077:B1 *4077:A1 4.99619e-05
25 *4078:A1 *3877:A 3.23391e-05
26 *4078:A1 *4079:A1 8.65905e-05
27 *4078:A1 *998:65 0.00023468
28 *4079:B1 *4079:A1 1.61831e-05
29 *4079:B1 *4837:A 4.82863e-05
30 *4079:B1 *998:65 0.000139265
31 *4080:A1 *3877:A 0.000139238
32 *4080:A2 *4079:A1 8.8266e-05
33 *4082:A1 *998:36 5.72091e-05
34 *4479:CLK *4770:A 7.53903e-05
35 *4479:D *4770:A 0.000163204
36 *4479:D *998:25 0
37 *4479:RESET_B *998:8 0.000166346
38 *4480:RESET_B *4077:A1 0
39 *4480:RESET_B *998:36 0
40 *117:28 *3878:A 2.75145e-05
41 *117:28 *4077:A1 0.000116853
42 *272:12 *4077:A1 0
43 *272:20 *998:36 0
*RES
1 *4477:Q *998:8 5.8725 
2 *998:8 *4770:A 10.1775 
3 *998:8 *998:25 1.2525 
4 *998:25 *4837:A 4.05 
5 *998:25 *998:36 6.48 
6 *998:36 *3878:A 4.05 
7 *998:36 *4077:A1 9.39 
8 *4837:A *998:65 6.205 
9 *998:65 *4079:A1 3.79 
10 *998:65 *3877:A 7.235 
*END

*D_NET *999 0.00281699
*CONN
*I *3878:B I *D sky130_fd_sc_hd__or4_2
*I *4077:A2 I *D sky130_fd_sc_hd__o21ai_2
*I *4078:A2 I *D sky130_fd_sc_hd__a21o_2
*I *3877:B I *D sky130_fd_sc_hd__or3_2
*I *4079:A2 I *D sky130_fd_sc_hd__o21ai_2
*I *4478:Q O *D sky130_fd_sc_hd__dfstp_2
*CAP
1 *3878:B 0.000139094
2 *4077:A2 6.85304e-05
3 *4078:A2 0
4 *3877:B 0
5 *4079:A2 0.000264724
6 *4478:Q 0
7 *999:16 0.000324929
8 *999:12 0.000174559
9 *999:6 0.000387992
10 *999:4 0.000344202
11 *3877:A *4079:A2 0
12 *3877:A *999:16 5.4003e-05
13 *3878:A *3878:B 7.00889e-06
14 *4078:A1 *4079:A2 3.86529e-05
15 *4078:A1 *999:16 0.000185405
16 *4078:B1 *4077:A2 8.26527e-05
17 *4078:B1 *999:12 0.000141606
18 *4079:A1 *4079:A2 2.75145e-05
19 *4080:A1 *4079:A2 0
20 *4080:A1 *999:16 3.84331e-05
21 *4081:B *999:12 1.89685e-05
22 *4081:B *999:16 4.76581e-05
23 *4480:CLK *4077:A2 5.23362e-05
24 *4480:CLK *999:12 5.00356e-05
25 *4480:RESET_B *3878:B 3.45588e-05
26 *4480:RESET_B *999:6 4.67034e-05
27 *116:8 *4079:A2 8.51589e-06
28 *117:28 *3878:B 2.66586e-05
29 *487:16 *4077:A2 0.000179235
30 *487:33 *999:6 2.49909e-05
31 *487:33 *999:12 4.80285e-05
*RES
1 *4478:Q *999:4 1.6 
2 *999:4 *999:6 2.52 
3 *999:6 *999:12 4.685 
4 *999:12 *999:16 4.4 
5 *999:16 *4079:A2 9.17 
6 *999:16 *3877:B 1.6 
7 *999:12 *4078:A2 3.6 
8 *999:6 *4077:A2 8.255 
9 *999:4 *3878:B 4.15 
*END

*D_NET *1000 0.00256743
*CONN
*I *3878:C I *D sky130_fd_sc_hd__or4_2
*I *3877:C I *D sky130_fd_sc_hd__or3_2
*I *4830:A I *D sky130_fd_sc_hd__dlygate4sd3_1
*I *4479:Q O *D sky130_fd_sc_hd__dfrtp_2
*CAP
1 *3878:C 0.000449678
2 *3877:C 0.000562864
3 *4830:A 0
4 *4479:Q 9.6241e-05
5 *1000:17 0.00114083
6 *1000:8 0.000224525
7 *3878:C *3878:D 0
8 *3878:C *1001:10 5.72004e-05
9 *4480:D *3877:C 2.75229e-05
10 *116:8 *3877:C 3.64998e-06
11 *117:28 *3878:C 4.9253e-06
12 *998:8 *1000:8 0
13 *998:25 *1000:8 0
14 *998:36 *3878:C 0
15 *998:36 *1000:17 0
*RES
1 *4479:Q *1000:8 4.98 
2 *1000:8 *4830:A 3.6 
3 *1000:8 *1000:17 2.145 
4 *1000:17 *3877:C 12 
5 *1000:17 *3878:C 10.995 
*END

*D_NET *1001 0.000881401
*CONN
*I *4802:A I *D sky130_fd_sc_hd__dlygate4sd3_1
*I *3878:D I *D sky130_fd_sc_hd__or4_2
*I *4480:Q O *D sky130_fd_sc_hd__dfrtp_2
*CAP
1 *4802:A 5.23473e-05
2 *3878:D 0.000212127
3 *4480:Q 7.74675e-05
4 *1001:10 0.000341941
5 *3878:C *3878:D 0
6 *3878:C *1001:10 5.72004e-05
7 *4077:A1 *3878:D 4.43871e-06
8 *4081:A *3878:D 3.00381e-05
9 *998:36 *3878:D 0.000105841
10 *998:36 *1001:10 0
*RES
1 *4480:Q *1001:10 7.235 
2 *1001:10 *3878:D 9.575 
3 *1001:10 *4802:A 2.395 
*END

*D_NET *1002 0.00136931
*CONN
*I *3880:A I *D sky130_fd_sc_hd__or4_2
*I *4750:A I *D sky130_fd_sc_hd__dlygate4sd3_1
*I *3879:A I *D sky130_fd_sc_hd__or2_2
*I *4481:Q O *D sky130_fd_sc_hd__dfstp_2
*CAP
1 *3880:A 5.84682e-05
2 *4750:A 0.000108295
3 *3879:A 0.000217736
4 *4481:Q 5.84682e-05
5 *1002:6 0.000326032
6 *3880:A *3880:C 3.00381e-05
7 *3880:D *3880:A 4.77807e-05
8 *4083:A *3879:A 0
9 *4087:B1 *3879:A 7.4027e-05
10 *4087:B1 *4750:A 0.000199376
11 *4483:RESET_B *3879:A 5.72091e-05
12 *4483:RESET_B *4750:A 3.15404e-05
13 *119:10 *3880:A 0.000160342
*RES
1 *4481:Q *1002:6 3.6 
2 *1002:6 *3879:A 7.41 
3 *1002:6 *4750:A 6.255 
4 *4481:Q *3880:A 5.045 
*END

*D_NET *1003 0.00256631
*CONN
*I *3880:B I *D sky130_fd_sc_hd__or4_2
*I *4085:A1_N I *D sky130_fd_sc_hd__o2bb2a_2
*I *4087:A1 I *D sky130_fd_sc_hd__o21ai_2
*I *4797:A I *D sky130_fd_sc_hd__dlygate4sd3_1
*I *4482:Q O *D sky130_fd_sc_hd__dfstp_2
*CAP
1 *3880:B 0.000293248
2 *4085:A1_N 0.000328624
3 *4087:A1 0.00010662
4 *4797:A 5.4631e-05
5 *4482:Q 9.27569e-06
6 *1003:35 0.000728492
7 *1003:6 6.39067e-05
8 *3880:D *3880:B 0.000135074
9 *4087:A2 *1003:6 2.88357e-05
10 *4481:SET_B *1003:35 9.12857e-06
11 *4482:SET_B *4085:A1_N 2.65337e-05
12 *4482:SET_B *1003:6 4.77769e-05
13 *4482:SET_B *1003:35 7.58382e-05
14 *4483:D *4797:A 0.000156916
15 *4483:RESET_B *1003:35 0
16 *4657:A *4085:A1_N 0.000204072
17 *119:10 *3880:B 5.54412e-05
18 *119:10 *1003:35 6.29313e-05
19 *271:19 *4797:A 0.000100863
20 *272:12 *4797:A 1.28996e-05
21 *272:12 *1003:35 1.69136e-05
22 *487:73 *4085:A1_N 4.82863e-05
*RES
1 *4482:Q *1003:6 2.05 
2 *1003:6 *4797:A 7.745 
3 *1003:6 *4087:A1 1.6 
4 *4087:A1 *1003:35 8.195 
5 *1003:35 *4085:A1_N 8.0425 
6 *1003:35 *3880:B 6.67 
*END

*D_NET *1004 0.00117916
*CONN
*I *3880:C I *D sky130_fd_sc_hd__or4_2
*I *4810:A I *D sky130_fd_sc_hd__dlygate4sd3_1
*I *4483:Q O *D sky130_fd_sc_hd__dfrtp_2
*CAP
1 *3880:C 0.000148904
2 *4810:A 0
3 *4483:Q 0.000243369
4 *1004:10 0.000392273
5 *3880:A *3880:C 3.00381e-05
6 *4083:A *3880:C 0.000178255
7 *4083:A *1004:10 0.00011852
8 *4083:B *1004:10 3.72916e-05
9 *4084:C *1004:10 5.062e-06
10 *119:10 *3880:C 2.54431e-05
*RES
1 *4483:Q *1004:10 7.155 
2 *1004:10 *4810:A 3.6 
3 *1004:10 *3880:C 6.885 
*END

*D_NET *1005 0.0010316
*CONN
*I *4798:A I *D sky130_fd_sc_hd__dlygate4sd3_1
*I *3882:A I *D sky130_fd_sc_hd__or3_2
*I *3881:A I *D sky130_fd_sc_hd__or2_2
*I *4484:Q O *D sky130_fd_sc_hd__dfstp_2
*CAP
1 *4798:A 0
2 *3882:A 6.84188e-05
3 *3881:A 9.42471e-05
4 *4484:Q 0
5 *1005:17 0.00025374
6 *1005:4 0.000279569
7 *3882:A *4794:A 5.4003e-05
8 *3882:C *3881:A 0
9 *3882:C *3882:A 0.000162325
10 *4090:A1 *1005:17 3.33839e-05
11 *4092:A2 *3881:A 8.591e-05
*RES
1 *4484:Q *1005:4 1.6 
2 *1005:4 *3881:A 7.49 
3 *1005:4 *1005:17 2.865 
4 *1005:17 *3882:A 7.49 
5 *1005:17 *4798:A 1.6 
*END

*D_NET *1006 0.000775261
*CONN
*I *3882:B I *D sky130_fd_sc_hd__or3_2
*I *4794:A I *D sky130_fd_sc_hd__dlygate4sd3_1
*I *4485:Q O *D sky130_fd_sc_hd__dfstp_2
*CAP
1 *3882:B 0
2 *4794:A 0.00020539
3 *4485:Q 0.000140154
4 *1006:6 0.000345544
5 *3882:A *4794:A 5.4003e-05
6 *3882:C *4794:A 1.34361e-05
7 *121:10 *1006:6 1.67341e-05
*RES
1 *4485:Q *1006:6 3.085 
2 *1006:6 *4794:A 9.05 
3 *1006:6 *3882:B 1.6 
*END

*D_NET *1007 0.00216027
*CONN
*I *3884:A I *D sky130_fd_sc_hd__or2_2
*I *4787:A I *D sky130_fd_sc_hd__dlygate4sd3_1
*I *3883:A I *D sky130_fd_sc_hd__nor2_2
*I *4486:Q O *D sky130_fd_sc_hd__dfrtp_2
*CAP
1 *3884:A 0.000158262
2 *4787:A 0
3 *3883:A 0.000438933
4 *4486:Q 0.0002288
5 *1007:19 0.000226324
6 *1007:6 0.000735795
7 *3884:B *3884:A 4.99619e-05
8 *4430:RESET_B *3884:A 8.68387e-05
9 *4430:RESET_B *1007:19 4.70343e-05
10 *4486:CLK *3883:A 1.34594e-05
11 *4486:D *3883:A 0.0001249
12 *4857:A *3884:A 4.99619e-05
13 *123:10 *3884:A 0
14 *123:10 *1007:19 0
*RES
1 *4486:Q *1007:6 4.12 
2 *1007:6 *3883:A 6.805 
3 *1007:6 *1007:19 3.38 
4 *1007:19 *4787:A 3.6 
5 *1007:19 *3884:A 6.9 
*END

*D_NET *1008 0.00225905
*CONN
*I *4396:A1 I *D sky130_fd_sc_hd__a31o_2
*I *4832:A I *D sky130_fd_sc_hd__dlygate4sd3_1
*I *4391:A2 I *D sky130_fd_sc_hd__o21ai_2
*I *4393:D I *D sky130_fd_sc_hd__and4b_2
*I *3885:A I *D sky130_fd_sc_hd__nand3_2
*I *4440:Q O *D sky130_fd_sc_hd__dfrtp_2
*CAP
1 *4396:A1 3.01888e-05
2 *4832:A 0.000104684
3 *4391:A2 4.77109e-05
4 *4393:D 0.000244326
5 *3885:A 0.000177485
6 *4440:Q 4.7524e-05
7 *1008:46 0.0001945
8 *1008:31 0.000306871
9 *1008:6 0.000269803
10 *4396:A1 *4396:A2 1.83847e-05
11 *4832:A *4396:A2 3.03684e-05
12 *1008:46 *4396:B1 9.37731e-05
13 *3886:C *4391:A2 5.83121e-06
14 *4392:A1 *3885:A 0
15 *4392:B1 *3885:A 6.00081e-05
16 *4393:B *1008:31 0.00016063
17 *4393:C *1008:31 2.0514e-05
18 *4394:B1 *4393:D 5.83121e-06
19 *4394:B1 *1008:6 1.91597e-05
20 *4397:B *1008:46 0
21 *4442:RESET_B *3885:A 0.000206116
22 *444:8 *4393:D 6.77501e-05
23 *444:8 *1008:6 4.41506e-05
24 *444:8 *1008:31 1.9415e-05
25 *705:75 *1008:6 8.40213e-05
*RES
1 *4440:Q *1008:6 2.74 
2 *1008:6 *3885:A 9.53 
3 *1008:6 *4393:D 2.74 
4 *4393:D *1008:31 4.81 
5 *1008:31 *4391:A2 2.41 
6 *1008:31 *1008:46 5.125 
7 *1008:46 *4832:A 3.01 
8 *1008:46 *4396:A1 2.05 
*END

*D_NET *1009 0.00287089
*CONN
*I *4785:A I *D sky130_fd_sc_hd__dlygate4sd3_1
*I *4396:A2 I *D sky130_fd_sc_hd__a31o_2
*I *4393:A_N I *D sky130_fd_sc_hd__and4b_2
*I *3885:B I *D sky130_fd_sc_hd__nand3_2
*I *4441:Q O *D sky130_fd_sc_hd__dfrtp_2
*CAP
1 *4785:A 0.000119239
2 *4396:A2 0.000131096
3 *4393:A_N 0
4 *3885:B 0.000227936
5 *4441:Q 0.000226842
6 *1009:12 0.000327349
7 *1009:10 0.000257149
8 *1009:8 0.000372721
9 *3885:B *3885:C 0.000183738
10 *4392:A1 *3885:B 2.75145e-05
11 *4392:A1 *1009:8 1.4389e-05
12 *4392:A1 *1009:12 0
13 *4392:A2 *3885:B 0.000152864
14 *4393:C *3885:B 6.73424e-05
15 *4394:A2 *4785:A 0
16 *4394:A2 *1009:10 0
17 *4394:A2 *1009:12 0
18 *4396:A1 *4396:A2 1.83847e-05
19 *4396:A3 *4396:A2 3.26889e-05
20 *4832:A *4396:A2 3.03684e-05
21 *124:10 *3885:B 7.22354e-05
22 *443:21 *4396:A2 0.000201508
23 *443:21 *1009:10 3.09233e-05
24 *443:21 *1009:12 0.000175207
25 *443:23 *3885:B 0.000170477
26 *443:23 *1009:12 3.09164e-05
*RES
1 *4441:Q *1009:8 6.12 
2 *1009:8 *1009:10 0.615 
3 *1009:10 *1009:12 2.4 
4 *1009:12 *3885:B 9.465 
5 *1009:12 *4393:A_N 3.6 
6 *1009:10 *4396:A2 6.645 
7 *1009:8 *4785:A 5.43 
*END

*D_NET *1010 0.00169169
*CONN
*I *4396:B1 I *D sky130_fd_sc_hd__a31o_2
*I *3885:C I *D sky130_fd_sc_hd__nand3_2
*I *4442:Q O *D sky130_fd_sc_hd__dfrtp_2
*CAP
1 *4396:B1 0.000155362
2 *3885:C 5.45835e-05
3 *4442:Q 4.49489e-05
4 *1010:6 0.000254895
5 *3885:B *3885:C 0.000183738
6 *3886:C *4396:B1 6.28765e-05
7 *4391:A1 *4396:B1 1.01661e-05
8 *4392:A1 *3885:C 1.61461e-05
9 *4392:A2 *3885:C 1.26548e-05
10 *4393:C *3885:C 2.92496e-05
11 *4393:C *4396:B1 0.00014719
12 *4393:C *1010:6 4.66108e-05
13 *4397:B *4396:B1 0
14 *4729:A *4396:B1 0.00015639
15 *4729:A *1010:6 0.000120655
16 *443:21 *4396:B1 7.63204e-05
17 *443:23 *4396:B1 8.52172e-05
18 *446:8 *3885:C 0.000140912
19 *1008:46 *4396:B1 9.37731e-05
*RES
1 *4442:Q *1010:6 2.74 
2 *1010:6 *3885:C 8 
3 *1010:6 *4396:B1 10.505 
*END

*D_NET *1011 0.00108689
*CONN
*I *3886:A I *D sky130_fd_sc_hd__nor3_2
*I *4749:A I *D sky130_fd_sc_hd__dlygate4sd3_1
*I *4443:Q O *D sky130_fd_sc_hd__dfrtp_2
*CAP
1 *3886:A 0.000170912
2 *4749:A 1.65033e-05
3 *4443:Q 8.46592e-05
4 *1011:10 0.000272074
5 *4397:B *3886:A 0.000142029
6 *4397:B *1011:10 5.4256e-05
7 *4399:B1 *4749:A 2.49909e-05
8 *4445:CLK *3886:A 0
9 *449:177 *1011:10 2.11084e-05
10 *712:10 *3886:A 0.000116165
11 *712:10 *1011:10 0.000137578
12 *715:31 *4749:A 4.66108e-05
*RES
1 *4443:Q *1011:10 5.685 
2 *1011:10 *4749:A 4.05 
3 *1011:10 *3886:A 7.785 
*END

*D_NET *1012 0.00167716
*CONN
*I *4371:A I *D sky130_fd_sc_hd__and2_2
*I *3871:A1 I *D sky130_fd_sc_hd__a21o_2
*I *4430:Q O *D sky130_fd_sc_hd__dfrtp_2
*CAP
1 *4371:A 0
2 *3871:A1 0.000377565
3 *4430:Q 0.000215411
4 *1012:12 0.000592976
5 *3871:A1 *3871:B1 3.72916e-05
6 *3884:B *3871:A1 0.000316421
7 *4371:B *3871:A1 1.89685e-05
8 *4430:RESET_B *3871:A1 0
9 *4430:RESET_B *1012:12 0.000118527
*RES
1 *4430:Q *1012:12 9.155 
2 *1012:12 *3871:A1 11.135 
3 *1012:12 *4371:A 1.6 
*END

*D_NET *1013 0.000585338
*CONN
*I *4765:A I *D sky130_fd_sc_hd__dlygate4sd3_1
*I *4373:A I *D sky130_fd_sc_hd__and2_2
*I *4431:Q O *D sky130_fd_sc_hd__dfrtp_2
*CAP
1 *4765:A 9.70509e-05
2 *4373:A 8.23323e-05
3 *4431:Q 8.6752e-05
4 *1013:10 0.000266135
5 *4372:A2 *4373:A 5.30673e-05
6 *710:62 *1013:10 0
*RES
1 *4431:Q *1013:10 6.98 
2 *1013:10 *4373:A 3.085 
3 *1013:10 *4765:A 3.085 
*END

*D_NET *1014 0.000808739
*CONN
*I *4764:A I *D sky130_fd_sc_hd__dlygate4sd3_1
*I *4375:A I *D sky130_fd_sc_hd__and2_2
*I *4432:Q O *D sky130_fd_sc_hd__dfrtp_2
*CAP
1 *4764:A 0.000189325
2 *4375:A 0.000131872
3 *4432:Q 0
4 *1014:4 0.000321197
5 *4374:A2 *4375:A 0
6 *4432:RESET_B *4375:A 0.000166346
*RES
1 *4432:Q *1014:4 1.6 
2 *1014:4 *4375:A 8.285 
3 *1014:4 *4764:A 4.465 
*END

*D_NET *1015 0.000337483
*CONN
*I *4377:A I *D sky130_fd_sc_hd__and2_2
*I *4769:A I *D sky130_fd_sc_hd__dlygate4sd3_1
*I *4433:Q O *D sky130_fd_sc_hd__dfrtp_2
*CAP
1 *4377:A 3.63983e-05
2 *4769:A 0
3 *4433:Q 8.90452e-05
4 *1015:10 0.000125443
5 *4377:B *4377:A 8.65961e-05
6 *4434:CLK *1015:10 0
*RES
1 *4433:Q *1015:10 6.98 
2 *1015:10 *4769:A 1.6 
3 *1015:10 *4377:A 2.395 
*END

*D_NET *1016 0.0028922
*CONN
*I *4766:A I *D sky130_fd_sc_hd__dlygate4sd3_1
*I *4379:A I *D sky130_fd_sc_hd__and2_2
*I *4434:Q O *D sky130_fd_sc_hd__dfrtp_2
*CAP
1 *4766:A 0.000759939
2 *4379:A 0.000200203
3 *4434:Q 0.00011234
4 *1016:6 0.00107248
5 *4379:A *4381:A 8.55971e-05
6 *4377:B *4379:A 0.00038057
7 *4378:A2 *4766:A 1.32843e-05
8 *4434:CLK *4766:A 1.56428e-05
9 *4434:RESET_B *4379:A 0
10 *4434:RESET_B *4766:A 2.56899e-05
11 *4756:A *4379:A 0.000216945
12 *433:25 *4379:A 9.50342e-06
*RES
1 *4434:Q *1016:6 2.74 
2 *1016:6 *4379:A 12.335 
3 *1016:6 *4766:A 10.255 
*END

*D_NET *1017 0.000577873
*CONN
*I *4755:A I *D sky130_fd_sc_hd__dlygate4sd3_1
*I *4381:A I *D sky130_fd_sc_hd__and2_2
*I *4435:Q O *D sky130_fd_sc_hd__dfrtp_2
*CAP
1 *4755:A 5.49126e-05
2 *4381:A 0.000110575
3 *4435:Q 0
4 *1017:6 0.000165488
5 *4379:A *4381:A 8.55971e-05
6 *4382:A3 *4381:A 0
7 *4382:B1 *4381:A 0
8 *4382:B1 *4755:A 0
9 *4756:A *4381:A 3.25831e-05
10 *4756:A *4755:A 0.000120186
11 *650:73 *4381:A 8.53113e-06
*RES
1 *4435:Q *1017:6 3.6 
2 *1017:6 *4381:A 6.255 
3 *1017:6 *4755:A 4.98 
*END

*D_NET *1018 0.000412193
*CONN
*I *4758:A I *D sky130_fd_sc_hd__dlygate4sd3_1
*I *4383:A I *D sky130_fd_sc_hd__and2_2
*I *4436:Q O *D sky130_fd_sc_hd__dfrtp_2
*CAP
1 *4758:A 6.02549e-05
2 *4383:A 0
3 *4436:Q 6.39817e-05
4 *1018:10 0.000124237
5 *4383:B *4758:A 8.49205e-05
6 *4383:B *1018:10 5.20968e-05
7 *4384:B1 *1018:10 2.67022e-05
*RES
1 *4436:Q *1018:10 6.98 
2 *1018:10 *4383:A 1.6 
3 *1018:10 *4758:A 2.74 
*END

*D_NET *1019 0.000742435
*CONN
*I *4762:A I *D sky130_fd_sc_hd__dlygate4sd3_1
*I *4385:A I *D sky130_fd_sc_hd__and2_2
*I *4437:Q O *D sky130_fd_sc_hd__dfrtp_2
*CAP
1 *4762:A 0.000204494
2 *4385:A 5.05585e-05
3 *4437:Q 0.000255052
4 *4436:RESET_B *4762:A 4.38051e-05
5 *4601:A *4762:A 0.000116165
6 *709:76 *4762:A 7.23602e-05
*RES
1 *4437:Q *4385:A 3.995 
2 *4437:Q *4762:A 10.41 
*END

*D_NET *1020 0.00119403
*CONN
*I *4767:A I *D sky130_fd_sc_hd__dlygate4sd3_1
*I *4387:A I *D sky130_fd_sc_hd__and2_2
*I *4438:Q O *D sky130_fd_sc_hd__dfrtp_2
*CAP
1 *4767:A 0.000218535
2 *4387:A 0.000236046
3 *4438:Q 4.85252e-05
4 *1020:6 0.000503106
5 *489:21 *4767:A 0
6 *489:27 *4767:A 9.65676e-05
7 *489:27 *1020:6 1.83756e-05
8 *709:69 *4767:A 7.28749e-05
*RES
1 *4438:Q *1020:6 2.395 
2 *1020:6 *4387:A 9.53 
3 *1020:6 *4767:A 9.92 
*END

*D_NET *1021 0.000459971
*CONN
*I *4768:A I *D sky130_fd_sc_hd__dlygate4sd3_1
*I *4439:Q O *D sky130_fd_sc_hd__dfrtp_2
*CAP
1 *4768:A 0.000117937
2 *4439:Q 0.000117937
3 *4768:A *4380:A1 0.00011852
4 *4389:B2 *4768:A 7.06865e-05
5 *433:14 *4768:A 3.48914e-05
*RES
1 *4439:Q *4768:A 9.375 
*END

*D_NET *1022 0.00654355
*CONN
*I *3871:B1 I *D sky130_fd_sc_hd__a21o_2
*I *3890:A I *D sky130_fd_sc_hd__and2_2
*I *3888:A1 I *D sky130_fd_sc_hd__a32o_2
*I *4368:A1 I *D sky130_fd_sc_hd__a221o_2
*I *4444:Q O *D sky130_fd_sc_hd__dfstp_2
*CAP
1 *3871:B1 0.000493876
2 *3890:A 0
3 *3888:A1 0.000432101
4 *4368:A1 0.000416494
5 *4444:Q 0
6 *1022:31 0.000630976
7 *1022:6 0.000913301
8 *1022:4 0.000791807
9 *3871:B1 *3836:A 0.0001249
10 *3888:A1 *3888:B2 0.000450929
11 *4368:A1 *4398:A_N 8.10847e-05
12 *1022:31 *4779:A 0.000244584
13 *1022:31 *1024:29 4.4073e-05
14 *1022:31 *1024:44 0.000110287
15 *1022:31 *1025:34 0.000183738
16 *3871:A1 *3871:B1 3.72916e-05
17 *3871:A2 *3871:B1 0.000162311
18 *3889:B1 *3871:B1 0
19 *3891:A1 *3871:B1 0
20 *4368:A2 *4368:A1 8.45991e-05
21 *4368:B1 *4368:A1 4.35648e-05
22 *4389:A2_N *3871:B1 0
23 *4486:CLK *3871:B1 0
24 *4640:A *3888:A1 0.00030432
25 *4640:A *1022:31 0.000177494
26 *114:36 *3888:A1 0
27 *114:51 *3888:A1 0
28 *121:32 *3871:B1 0
29 *126:10 *3888:A1 1.83205e-05
30 *126:10 *1022:31 5.15607e-05
31 *456:12 *4368:A1 5.33874e-05
32 *486:8 *3871:B1 0.000247574
33 *486:49 *4368:A1 0.000154624
34 *486:49 *1022:6 0.000240392
35 *486:60 *4368:A1 4.99619e-05
*RES
1 *4444:Q *1022:4 1.6 
2 *1022:4 *1022:6 3.9 
3 *1022:6 *4368:A1 12.41 
4 *1022:6 *1022:31 8.735 
5 *1022:31 *3888:A1 11.175 
6 *1022:31 *3890:A 3.6 
7 *1022:4 *3871:B1 15.32 
*END

*D_NET *1023 0.00450356
*CONN
*I *4380:A1 I *D sky130_fd_sc_hd__a31o_2
*I *4733:A I *D sky130_fd_sc_hd__clkdlybuf4s25_1
*I *4445:Q O *D sky130_fd_sc_hd__dfrtp_2
*CAP
1 *4380:A1 0.000360672
2 *4733:A 0.000173528
3 *4445:Q 0.00019561
4 *1023:8 0.00072981
5 *4380:A1 *4390:A1 6.21553e-05
6 *4733:A *4390:A1 5.23362e-05
7 *4733:A *1024:44 0.000229897
8 *4733:A *1024:57 0.000160658
9 *1023:8 *4370:A 2.49909e-05
10 *1023:8 *1024:68 2.49909e-05
11 *3891:A1 *4733:A 1.34594e-05
12 *3891:B1 *4733:A 0
13 *4370:B *1023:8 4.82919e-05
14 *4377:B *4380:A1 6.18754e-05
15 *4380:A2 *4380:A1 9.50342e-06
16 *4380:A3 *4380:A1 0.000287556
17 *4389:A2_N *4380:A1 0.000317494
18 *4389:A2_N *4733:A 0.000430552
19 *4389:B2 *4380:A1 0.000130974
20 *4768:A *4380:A1 0.00011852
21 *122:8 *4733:A 5.46217e-05
22 *432:10 *4380:A1 0.000500379
23 *433:14 *4380:A1 0.000239313
24 *433:25 *4380:A1 0.000116629
25 *716:22 *4733:A 0.000159747
*RES
1 *4445:Q *1023:8 5.775 
2 *1023:8 *4733:A 10.395 
3 *1023:8 *4380:A1 17.265 
*END

*D_NET *1024 0.00851942
*CONN
*I *4390:A1 I *D sky130_fd_sc_hd__a21oi_2
*I *3836:A I *D sky130_fd_sc_hd__inv_2
*I *4369:A I *D sky130_fd_sc_hd__nor2_2
*I *4370:A I *D sky130_fd_sc_hd__or2_2
*I *3889:B2 I *D sky130_fd_sc_hd__a2bb2o_2
*I *4073:B I *D sky130_fd_sc_hd__or3_2
*I *3888:B2 I *D sky130_fd_sc_hd__a32o_2
*I *4446:Q O *D sky130_fd_sc_hd__dfrtp_2
*CAP
1 *4390:A1 0.000570834
2 *3836:A 7.11531e-05
3 *4369:A 0.000258182
4 *4370:A 2.11528e-05
5 *3889:B2 0.000343531
6 *4073:B 4.43494e-05
7 *3888:B2 0.000300815
8 *4446:Q 0
9 *1024:68 0.000523246
10 *1024:59 0.000215064
11 *1024:57 0.000632556
12 *1024:44 0.000719567
13 *1024:29 0.000670698
14 *1024:4 0.000612849
15 *1024:44 *1025:34 1.08194e-05
16 *3871:B1 *3836:A 0.0001249
17 *3887:A1 *1024:29 2.41307e-05
18 *3887:A2 *3888:B2 6.33828e-05
19 *3888:A1 *3888:B2 0.000450929
20 *3889:B1 *3889:B2 0.000570045
21 *3891:A1 *1024:29 7.09607e-05
22 *3891:A1 *1024:44 4.29789e-05
23 *4074:A *3888:B2 2.76356e-05
24 *4074:A *1024:29 1.56428e-05
25 *4380:A1 *4390:A1 6.21553e-05
26 *4389:A1_N *1024:44 0
27 *4389:A1_N *1024:57 0
28 *4389:A2_N *4369:A 0
29 *4389:A2_N *1024:44 0.000262314
30 *4390:A2 *4390:A1 3.08151e-05
31 *4486:CLK *4369:A 0
32 *4639:A *1024:44 0
33 *4640:A *3888:B2 1.0397e-05
34 *4640:A *1024:29 0.000263558
35 *4642:A *4390:A1 7.66083e-05
36 *4733:A *4390:A1 5.23362e-05
37 *4733:A *1024:44 0.000229897
38 *4733:A *1024:57 0.000160658
39 *114:36 *3888:B2 3.06743e-05
40 *123:37 *3888:B2 0.000224771
41 *270:23 *1024:29 0
42 *431:21 *4390:A1 8.18626e-05
43 *433:14 *4370:A 1.56428e-05
44 *433:14 *4390:A1 0.00010596
45 *433:14 *1024:57 7.5416e-05
46 *443:6 *4390:A1 3.59784e-05
47 *456:12 *4390:A1 0.000160641
48 *490:21 *4369:A 0
49 *490:30 *4369:A 0
50 *716:22 *1024:44 4.9968e-05
51 *1022:31 *1024:29 4.4073e-05
52 *1022:31 *1024:44 0.000110287
53 *1023:8 *4370:A 2.49909e-05
54 *1023:8 *1024:68 2.49909e-05
*RES
1 *4446:Q *1024:4 1.6 
2 *1024:4 *3888:B2 12.455 
3 *1024:4 *1024:29 9.23 
4 *1024:29 *4073:B 4.05 
5 *1024:29 *1024:44 7.8 
6 *1024:44 *3889:B2 9.585 
7 *1024:44 *1024:57 1.89 
8 *1024:57 *1024:59 2 
9 *1024:59 *4370:A 2.05 
10 *1024:59 *1024:68 2.865 
11 *1024:68 *4369:A 9.785 
12 *1024:68 *3836:A 3.085 
13 *1024:57 *4390:A1 11.565 
*END

*D_NET *1025 0.00347807
*CONN
*I *4368:C1 I *D sky130_fd_sc_hd__a221o_2
*I *4398:A_N I *D sky130_fd_sc_hd__and4bb_2
*I *4779:A I *D sky130_fd_sc_hd__dlygate4sd3_1
*I *4073:C I *D sky130_fd_sc_hd__or3_2
*I *4447:Q O *D sky130_fd_sc_hd__dfrtp_2
*CAP
1 *4368:C1 1.43995e-05
2 *4398:A_N 0.000292965
3 *4779:A 0.000107848
4 *4073:C 5.98574e-05
5 *4447:Q 4.00594e-05
6 *1025:34 0.000423862
7 *1025:17 0.000224347
8 *1025:6 9.99168e-05
9 *3891:B1 *4368:C1 5.4155e-06
10 *3891:B1 *4398:A_N 4.66108e-05
11 *3891:B1 *1025:34 3.57349e-05
12 *4073:A *4073:C 4.66108e-05
13 *4073:A *1025:6 1.19928e-05
14 *4368:A1 *4398:A_N 8.10847e-05
15 *4368:A2 *4398:A_N 1.2818e-05
16 *4368:B1 *4398:A_N 1.19928e-05
17 *4398:B_N *4398:A_N 0.000449989
18 *4398:D *4398:A_N 9.53428e-06
19 *4399:B1 *4398:A_N 5.05521e-05
20 *4639:A *4779:A 0.000226081
21 *4639:A *1025:34 0.000278799
22 *4640:A *4779:A 4.66108e-05
23 *126:10 *4779:A 1.22777e-05
24 *715:25 *4398:A_N 5.74791e-05
25 *715:31 *4398:A_N 0.000260318
26 *716:22 *4368:C1 1.90686e-05
27 *716:22 *4398:A_N 1.95481e-05
28 *716:22 *1025:34 4.5254e-05
29 *716:28 *4398:A_N 4.78979e-05
30 *1022:31 *4779:A 0.000244584
31 *1022:31 *1025:34 0.000183738
32 *1024:44 *1025:34 1.08194e-05
*RES
1 *4447:Q *1025:6 2.05 
2 *1025:6 *4073:C 2.665 
3 *1025:6 *1025:17 2 
4 *1025:17 *4779:A 6.96 
5 *1025:17 *1025:34 5.87 
6 *1025:34 *4398:A_N 9.415 
7 *1025:34 *4368:C1 1.96 
*END
