*SPEF "ieee 1481-1999"
*DESIGN "riscv_soc_top"
*DATE "05:44:18 Wednesday September 09, 2026"
*VENDOR "The OpenROAD Project"
*PROGRAM "OpenROAD"
*VERSION "dcf36133a369abc8f3c5e5738cd4d82e4903c0e0"
*DESIGN_FLOW "NAME_SCOPE LOCAL" "PIN_CAP NONE"
*DIVIDER /
*DELIMITER :
*BUS_DELIMITER []
*T_UNIT 1 NS
*C_UNIT 1 PF
*R_UNIT 1 OHM
*L_UNIT 1 HENRY

*NAME_MAP
*3 clk
*4 led[0]
*5 led[1]
*6 led[2]
*7 led[3]
*8 led[4]
*9 net
*10 net85
*11 net86
*12 rst_n
*13 uart_rx
*14 uart_tx
*15 _0000_
*16 _0001_
*17 _0002_
*18 _0003_
*19 _0004_
*20 _0005_
*21 _0006_
*22 _0007_
*23 _0008_
*24 _0009_
*25 _0010_
*26 _0011_
*27 _0012_
*28 _0013_
*29 _0014_
*30 _0015_
*31 _0016_
*32 _0017_
*33 _0018_
*34 _0019_
*35 _0020_
*36 _0021_
*37 _0022_
*38 _0023_
*39 _0024_
*40 _0025_
*41 _0026_
*42 _0027_
*43 _0028_
*44 _0029_
*45 _0030_
*46 _0031_
*47 _0032_
*48 _0033_
*49 _0034_
*50 _0035_
*51 _0036_
*52 _0037_
*53 _0038_
*54 _0039_
*55 _0040_
*56 _0041_
*57 _0042_
*58 _0043_
*59 _0044_
*60 _0045_
*61 _0046_
*62 _0047_
*63 _0048_
*64 _0049_
*65 _0050_
*66 _0051_
*67 _0052_
*68 _0053_
*69 _0054_
*70 _0055_
*71 _0056_
*72 _0057_
*73 _0058_
*74 _0059_
*75 _0060_
*76 _0061_
*77 _0062_
*78 _0063_
*79 _0064_
*80 _0065_
*81 _0066_
*82 _0067_
*83 _0068_
*84 _0069_
*85 _0070_
*86 _0071_
*87 _0072_
*88 _0073_
*89 _0074_
*90 _0075_
*91 _0076_
*92 _0077_
*93 _0078_
*94 _0079_
*95 _0080_
*96 _0081_
*97 _0082_
*98 _0083_
*99 _0084_
*100 _0085_
*101 _0086_
*102 _0087_
*103 _0088_
*104 _0089_
*105 _0090_
*106 _0091_
*107 _0092_
*108 _0093_
*109 _0094_
*110 _0095_
*111 _0096_
*112 _0097_
*113 _0098_
*114 _0099_
*115 _0100_
*116 _0101_
*117 _0102_
*118 _0103_
*119 _0104_
*120 _0105_
*121 _0106_
*122 _0107_
*123 _0108_
*124 _0109_
*125 _0110_
*126 _0111_
*127 _0112_
*128 _0113_
*129 _0114_
*130 _0115_
*131 _0116_
*132 _0117_
*133 _0118_
*134 _0119_
*135 _0120_
*136 _0121_
*137 _0122_
*138 _0123_
*139 _0124_
*140 _0125_
*141 _0126_
*142 _0127_
*143 _0128_
*144 _0129_
*145 _0130_
*146 _0131_
*147 _0132_
*148 _0133_
*149 _0134_
*150 _0135_
*151 _0136_
*152 _0137_
*153 _0138_
*154 _0139_
*155 _0140_
*156 _0141_
*157 _0142_
*158 _0143_
*159 _0144_
*160 _0145_
*161 _0146_
*162 _0147_
*163 _0148_
*164 _0149_
*165 _0150_
*166 _0151_
*167 _0152_
*168 _0153_
*169 _0154_
*170 _0155_
*171 _0156_
*172 _0157_
*173 _0158_
*174 _0159_
*175 _0160_
*176 _0161_
*177 _0162_
*178 _0163_
*179 _0164_
*180 _0165_
*181 _0166_
*182 _0167_
*183 _0168_
*184 _0169_
*185 _0170_
*186 _0171_
*187 _0172_
*188 _0173_
*189 _0174_
*190 _0175_
*191 _0176_
*192 _0177_
*193 _0178_
*194 _0179_
*195 _0180_
*196 _0181_
*197 _0182_
*198 _0183_
*199 _0184_
*200 _0185_
*201 _0186_
*202 _0187_
*203 _0188_
*204 _0189_
*205 _0190_
*206 _0191_
*207 _0192_
*208 _0193_
*209 _0194_
*210 _0195_
*211 _0196_
*212 _0197_
*213 _0198_
*214 _0199_
*215 _0200_
*216 _0201_
*217 _0202_
*218 _0203_
*219 _0204_
*220 _0205_
*221 _0206_
*222 _0207_
*223 _0208_
*224 _0209_
*225 _0210_
*226 _0211_
*227 _0212_
*228 _0213_
*229 _0214_
*230 _0215_
*231 _0216_
*232 _0217_
*233 _0218_
*234 _0219_
*235 _0220_
*236 _0221_
*237 _0222_
*238 _0223_
*239 _0224_
*240 _0225_
*241 _0226_
*242 _0227_
*243 _0228_
*244 _0229_
*245 _0230_
*246 _0231_
*247 _0232_
*248 _0233_
*249 _0234_
*250 _0235_
*251 _0236_
*252 _0237_
*253 _0238_
*254 _0239_
*255 _0240_
*256 _0241_
*257 _0242_
*258 _0243_
*259 _0244_
*260 _0245_
*261 _0246_
*262 _0247_
*263 _0248_
*264 _0249_
*265 _0250_
*266 _0251_
*267 _0252_
*268 _0253_
*269 _0254_
*270 _0255_
*271 _0256_
*272 _0257_
*273 _0258_
*274 _0259_
*275 _0260_
*276 _0261_
*277 _0262_
*278 _0263_
*279 _0264_
*280 _0265_
*281 _0266_
*282 _0267_
*283 _0268_
*284 _0269_
*285 _0270_
*286 _0271_
*287 _0272_
*288 _0273_
*289 _0274_
*290 _0275_
*291 _0276_
*292 _0277_
*293 _0278_
*294 _0279_
*295 _0280_
*296 _0281_
*297 _0282_
*298 _0283_
*299 _0284_
*300 _0285_
*301 _0286_
*302 _0287_
*303 _0288_
*304 _0289_
*305 _0290_
*306 _0291_
*307 _0292_
*308 _0293_
*309 _0294_
*310 _0295_
*311 _0296_
*312 _0297_
*313 _0298_
*314 _0299_
*315 _0300_
*316 _0301_
*317 _0302_
*318 _0303_
*319 _0304_
*320 _0305_
*321 _0306_
*322 _0307_
*323 _0308_
*324 _0309_
*325 _0310_
*326 _0311_
*327 _0312_
*328 _0313_
*329 _0314_
*330 _0315_
*331 _0316_
*332 _0317_
*333 _0318_
*334 _0319_
*335 _0320_
*336 _0321_
*337 _0322_
*338 _0323_
*339 _0324_
*340 _0325_
*341 _0326_
*342 _0327_
*343 _0328_
*344 _0329_
*345 _0330_
*346 _0331_
*347 _0332_
*348 _0333_
*349 _0334_
*350 _0335_
*351 _0336_
*352 _0337_
*353 _0338_
*354 _0339_
*355 _0340_
*356 _0341_
*357 _0342_
*358 _0343_
*359 _0344_
*360 _0345_
*361 _0346_
*362 _0347_
*363 _0348_
*364 _0349_
*365 _0350_
*366 _0351_
*367 _0352_
*368 _0353_
*369 _0354_
*370 _0355_
*371 _0356_
*372 _0357_
*373 _0358_
*374 _0359_
*375 _0360_
*376 _0361_
*377 _0362_
*378 _0363_
*379 _0364_
*380 _0365_
*381 _0366_
*382 _0367_
*383 _0368_
*384 _0369_
*385 _0370_
*386 _0371_
*387 _0372_
*388 _0373_
*389 _0374_
*390 _0375_
*391 _0376_
*392 _0377_
*393 _0378_
*394 _0379_
*395 _0380_
*396 _0381_
*397 _0382_
*398 _0383_
*399 _0384_
*400 _0385_
*401 _0386_
*402 _0387_
*403 _0388_
*404 _0389_
*405 _0390_
*406 _0391_
*407 _0392_
*408 _0393_
*409 _0394_
*410 _0395_
*411 _0396_
*412 _0397_
*413 _0398_
*414 _0399_
*415 _0400_
*416 _0401_
*417 _0402_
*418 _0403_
*419 _0404_
*420 _0405_
*421 _0406_
*422 _0407_
*423 _0408_
*424 _0409_
*425 _0410_
*426 _0411_
*427 _0412_
*428 _0413_
*429 _0414_
*430 _0415_
*431 _0416_
*432 _0417_
*433 _0418_
*434 _0419_
*435 _0420_
*436 _0421_
*437 _0422_
*438 _0423_
*439 _0424_
*440 _0425_
*441 _0426_
*442 _0427_
*443 _0428_
*444 _0429_
*445 _0430_
*446 _0431_
*447 _0432_
*448 _0433_
*449 clknet_0_clk
*450 clknet_4_0_0_clk
*451 clknet_4_10_0_clk
*452 clknet_4_11_0_clk
*453 clknet_4_12_0_clk
*454 clknet_4_13_0_clk
*455 clknet_4_14_0_clk
*456 clknet_4_15_0_clk
*457 clknet_4_1_0_clk
*458 clknet_4_2_0_clk
*459 clknet_4_3_0_clk
*460 clknet_4_4_0_clk
*461 clknet_4_5_0_clk
*462 clknet_4_6_0_clk
*463 clknet_4_7_0_clk
*464 clknet_4_8_0_clk
*465 clknet_4_9_0_clk
*466 clknet_5_0__leaf_clk
*467 clknet_5_10__leaf_clk
*468 clknet_5_11__leaf_clk
*469 clknet_5_12__leaf_clk
*470 clknet_5_13__leaf_clk
*471 clknet_5_14__leaf_clk
*472 clknet_5_15__leaf_clk
*473 clknet_5_16__leaf_clk
*474 clknet_5_17__leaf_clk
*475 clknet_5_18__leaf_clk
*476 clknet_5_19__leaf_clk
*477 clknet_5_1__leaf_clk
*478 clknet_5_20__leaf_clk
*479 clknet_5_21__leaf_clk
*480 clknet_5_22__leaf_clk
*481 clknet_5_23__leaf_clk
*482 clknet_5_24__leaf_clk
*483 clknet_5_25__leaf_clk
*484 clknet_5_26__leaf_clk
*485 clknet_5_27__leaf_clk
*486 clknet_5_28__leaf_clk
*487 clknet_5_29__leaf_clk
*488 clknet_5_2__leaf_clk
*489 clknet_5_30__leaf_clk
*490 clknet_5_31__leaf_clk
*491 clknet_5_3__leaf_clk
*492 clknet_5_4__leaf_clk
*493 clknet_5_5__leaf_clk
*494 clknet_5_6__leaf_clk
*495 clknet_5_7__leaf_clk
*496 clknet_5_8__leaf_clk
*497 clknet_5_9__leaf_clk
*498 coh_fill_notify\[0\]
*499 coh_fill_notify\[1\]
*500 coh_inv_ack\[0\]
*501 coh_inv_ack\[1\]
*502 coh_status\[0\]
*503 coh_status\[10\]
*504 coh_status\[11\]
*505 coh_status\[12\]
*506 coh_status\[13\]
*507 coh_status\[14\]
*508 coh_status\[15\]
*509 coh_status\[1\]
*510 coh_status\[2\]
*511 coh_status\[3\]
*512 coh_status\[4\]
*513 coh_status\[5\]
*514 coh_status\[6\]
*515 coh_status\[7\]
*516 coh_status\[8\]
*517 coh_status\[9\]
*518 coh_write_notify\[0\]
*519 coh_write_notify\[1\]
*520 m_arvalid\[0\]
*521 m_arvalid\[1\]
*522 m_awvalid\[0\]
*523 m_awvalid\[1\]
*524 m_bready\[0\]
*525 m_bready\[1\]
*526 m_rready\[0\]
*527 m_rready\[1\]
*528 m_wvalid\[0\]
*529 m_wvalid\[1\]
*530 net1
*531 net10
*532 net100
*533 net101
*534 net102
*535 net103
*536 net104
*537 net105
*538 net106
*539 net107
*540 net108
*541 net109
*542 net11
*543 net110
*544 net111
*545 net112
*546 net113
*547 net114
*548 net115
*549 net116
*550 net117
*551 net118
*552 net119
*553 net12
*554 net120
*555 net121
*556 net122
*557 net123
*558 net124
*559 net125
*560 net126
*561 net127
*562 net128
*563 net129
*564 net13
*565 net130
*566 net131
*567 net132
*568 net133
*569 net134
*570 net135
*571 net136
*572 net137
*573 net138
*574 net139
*575 net14
*576 net140
*577 net141
*578 net142
*579 net143
*580 net144
*581 net145
*582 net146
*583 net147
*584 net148
*585 net149
*586 net15
*587 net150
*588 net151
*589 net152
*590 net153
*591 net154
*592 net155
*593 net156
*594 net157
*595 net158
*596 net159
*597 net16
*598 net160
*599 net161
*600 net162
*601 net163
*602 net164
*603 net165
*604 net166
*605 net167
*606 net168
*607 net169
*608 net17
*609 net170
*610 net171
*611 net172
*612 net173
*613 net174
*614 net175
*615 net176
*616 net177
*617 net178
*618 net179
*619 net18
*620 net180
*621 net181
*622 net182
*623 net183
*624 net184
*625 net185
*626 net186
*627 net187
*628 net188
*629 net189
*630 net19
*631 net190
*632 net191
*633 net192
*634 net193
*635 net194
*636 net195
*637 net196
*638 net197
*639 net198
*640 net199
*641 net2
*642 net20
*643 net200
*644 net201
*645 net202
*646 net203
*647 net21
*648 net22
*649 net23
*650 net24
*651 net25
*652 net26
*653 net27
*654 net28
*655 net29
*656 net3
*657 net30
*658 net31
*659 net32
*660 net33
*661 net34
*662 net35
*663 net36
*664 net37
*665 net38
*666 net39
*667 net4
*668 net40
*669 net41
*670 net42
*671 net43
*672 net44
*673 net45
*674 net46
*675 net47
*676 net48
*677 net49
*678 net5
*679 net50
*680 net51
*681 net52
*682 net53
*683 net54
*684 net55
*685 net56
*686 net57
*687 net58
*688 net59
*689 net6
*690 net60
*691 net61
*692 net62
*693 net63
*694 net64
*695 net65
*696 net66
*697 net67
*698 net68
*699 net69
*700 net7
*701 net70
*702 net71
*703 net72
*704 net73
*705 net74
*706 net75
*707 net76
*708 net77
*709 net78
*710 net79
*711 net8
*712 net80
*713 net81
*714 net82
*715 net83
*716 net84
*717 net87
*718 net88
*719 net89
*720 net9
*721 net90
*722 net91
*723 net92
*724 net93
*725 net94
*726 net95
*727 net96
*728 net97
*729 net98
*730 net99
*731 per_core\[0\]\.u_core\.rst_n
*732 per_core\[0\]\.u_dcache\.line_valid_reg\[0\]\[0\]
*733 per_core\[0\]\.u_dcache\.line_valid_reg\[1\]\[0\]
*734 per_core\[0\]\.u_dcache\.line_valid_reg\[2\]\[0\]
*735 per_core\[0\]\.u_dcache\.line_valid_reg\[3\]\[0\]
*736 per_core\[1\]\.u_dcache\.line_valid_reg\[0\]\[0\]
*737 per_core\[1\]\.u_dcache\.line_valid_reg\[1\]\[0\]
*738 per_core\[1\]\.u_dcache\.line_valid_reg\[2\]\[0\]
*739 per_core\[1\]\.u_dcache\.line_valid_reg\[3\]\[0\]
*740 rst_sync_n_1
*741 s_bvalid
*742 s_rvalid
*743 u_arb\.pref_d
*744 u_arb\.pref_q
*745 u_arb\.state_q\[0\]
*746 u_arb\.state_q\[2\]
*747 u_coh\.coh_state\[0\]
*748 u_coh\.coh_state\[1\]
*749 u_coh\.coh_state\[2\]
*750 u_coh\.coh_state_next\[0\]
*751 u_coh\.coh_state_next\[1\]
*752 u_coh\.last_served
*753 u_coh\.proc_core_d
*754 u_coh\.proc_core_q
*755 u_coh\.proc_idx_d\[0\]
*756 u_coh\.proc_idx_d\[1\]
*757 u_coh\.proc_idx_q\[0\]
*758 u_coh\.proc_idx_q\[1\]
*759 u_gpio\.led0_active
*760 u_gpio\.led0_cnt_d\[0\]
*761 u_gpio\.led0_cnt_d\[10\]
*762 u_gpio\.led0_cnt_d\[11\]
*763 u_gpio\.led0_cnt_d\[12\]
*764 u_gpio\.led0_cnt_d\[13\]
*765 u_gpio\.led0_cnt_d\[14\]
*766 u_gpio\.led0_cnt_d\[15\]
*767 u_gpio\.led0_cnt_d\[16\]
*768 u_gpio\.led0_cnt_d\[17\]
*769 u_gpio\.led0_cnt_d\[18\]
*770 u_gpio\.led0_cnt_d\[19\]
*771 u_gpio\.led0_cnt_d\[1\]
*772 u_gpio\.led0_cnt_d\[20\]
*773 u_gpio\.led0_cnt_d\[21\]
*774 u_gpio\.led0_cnt_d\[2\]
*775 u_gpio\.led0_cnt_d\[3\]
*776 u_gpio\.led0_cnt_d\[4\]
*777 u_gpio\.led0_cnt_d\[5\]
*778 u_gpio\.led0_cnt_d\[6\]
*779 u_gpio\.led0_cnt_d\[7\]
*780 u_gpio\.led0_cnt_d\[8\]
*781 u_gpio\.led0_cnt_d\[9\]
*782 u_gpio\.led0_cnt_q\[0\]
*783 u_gpio\.led0_cnt_q\[10\]
*784 u_gpio\.led0_cnt_q\[11\]
*785 u_gpio\.led0_cnt_q\[12\]
*786 u_gpio\.led0_cnt_q\[13\]
*787 u_gpio\.led0_cnt_q\[14\]
*788 u_gpio\.led0_cnt_q\[15\]
*789 u_gpio\.led0_cnt_q\[16\]
*790 u_gpio\.led0_cnt_q\[17\]
*791 u_gpio\.led0_cnt_q\[18\]
*792 u_gpio\.led0_cnt_q\[19\]
*793 u_gpio\.led0_cnt_q\[1\]
*794 u_gpio\.led0_cnt_q\[20\]
*795 u_gpio\.led0_cnt_q\[21\]
*796 u_gpio\.led0_cnt_q\[2\]
*797 u_gpio\.led0_cnt_q\[3\]
*798 u_gpio\.led0_cnt_q\[4\]
*799 u_gpio\.led0_cnt_q\[5\]
*800 u_gpio\.led0_cnt_q\[6\]
*801 u_gpio\.led0_cnt_q\[7\]
*802 u_gpio\.led0_cnt_q\[8\]
*803 u_gpio\.led0_cnt_q\[9\]
*804 u_gpio\.led1_active
*805 u_gpio\.led1_cnt_d\[0\]
*806 u_gpio\.led1_cnt_d\[10\]
*807 u_gpio\.led1_cnt_d\[11\]
*808 u_gpio\.led1_cnt_d\[12\]
*809 u_gpio\.led1_cnt_d\[13\]
*810 u_gpio\.led1_cnt_d\[14\]
*811 u_gpio\.led1_cnt_d\[15\]
*812 u_gpio\.led1_cnt_d\[16\]
*813 u_gpio\.led1_cnt_d\[17\]
*814 u_gpio\.led1_cnt_d\[18\]
*815 u_gpio\.led1_cnt_d\[19\]
*816 u_gpio\.led1_cnt_d\[1\]
*817 u_gpio\.led1_cnt_d\[20\]
*818 u_gpio\.led1_cnt_d\[21\]
*819 u_gpio\.led1_cnt_d\[2\]
*820 u_gpio\.led1_cnt_d\[3\]
*821 u_gpio\.led1_cnt_d\[4\]
*822 u_gpio\.led1_cnt_d\[5\]
*823 u_gpio\.led1_cnt_d\[6\]
*824 u_gpio\.led1_cnt_d\[7\]
*825 u_gpio\.led1_cnt_d\[8\]
*826 u_gpio\.led1_cnt_d\[9\]
*827 u_gpio\.led1_cnt_q\[0\]
*828 u_gpio\.led1_cnt_q\[10\]
*829 u_gpio\.led1_cnt_q\[11\]
*830 u_gpio\.led1_cnt_q\[12\]
*831 u_gpio\.led1_cnt_q\[13\]
*832 u_gpio\.led1_cnt_q\[14\]
*833 u_gpio\.led1_cnt_q\[15\]
*834 u_gpio\.led1_cnt_q\[16\]
*835 u_gpio\.led1_cnt_q\[17\]
*836 u_gpio\.led1_cnt_q\[18\]
*837 u_gpio\.led1_cnt_q\[19\]
*838 u_gpio\.led1_cnt_q\[1\]
*839 u_gpio\.led1_cnt_q\[20\]
*840 u_gpio\.led1_cnt_q\[21\]
*841 u_gpio\.led1_cnt_q\[2\]
*842 u_gpio\.led1_cnt_q\[3\]
*843 u_gpio\.led1_cnt_q\[4\]
*844 u_gpio\.led1_cnt_q\[5\]
*845 u_gpio\.led1_cnt_q\[6\]
*846 u_gpio\.led1_cnt_q\[7\]
*847 u_gpio\.led1_cnt_q\[8\]
*848 u_gpio\.led1_cnt_q\[9\]
*849 u_gpio\.led2_active
*850 u_gpio\.led2_cnt_d\[0\]
*851 u_gpio\.led2_cnt_d\[10\]
*852 u_gpio\.led2_cnt_d\[11\]
*853 u_gpio\.led2_cnt_d\[12\]
*854 u_gpio\.led2_cnt_d\[13\]
*855 u_gpio\.led2_cnt_d\[14\]
*856 u_gpio\.led2_cnt_d\[15\]
*857 u_gpio\.led2_cnt_d\[16\]
*858 u_gpio\.led2_cnt_d\[17\]
*859 u_gpio\.led2_cnt_d\[18\]
*860 u_gpio\.led2_cnt_d\[19\]
*861 u_gpio\.led2_cnt_d\[1\]
*862 u_gpio\.led2_cnt_d\[20\]
*863 u_gpio\.led2_cnt_d\[21\]
*864 u_gpio\.led2_cnt_d\[2\]
*865 u_gpio\.led2_cnt_d\[3\]
*866 u_gpio\.led2_cnt_d\[4\]
*867 u_gpio\.led2_cnt_d\[5\]
*868 u_gpio\.led2_cnt_d\[6\]
*869 u_gpio\.led2_cnt_d\[7\]
*870 u_gpio\.led2_cnt_d\[8\]
*871 u_gpio\.led2_cnt_d\[9\]
*872 u_gpio\.led2_cnt_q\[0\]
*873 u_gpio\.led2_cnt_q\[10\]
*874 u_gpio\.led2_cnt_q\[11\]
*875 u_gpio\.led2_cnt_q\[12\]
*876 u_gpio\.led2_cnt_q\[13\]
*877 u_gpio\.led2_cnt_q\[14\]
*878 u_gpio\.led2_cnt_q\[15\]
*879 u_gpio\.led2_cnt_q\[16\]
*880 u_gpio\.led2_cnt_q\[17\]
*881 u_gpio\.led2_cnt_q\[18\]
*882 u_gpio\.led2_cnt_q\[19\]
*883 u_gpio\.led2_cnt_q\[1\]
*884 u_gpio\.led2_cnt_q\[20\]
*885 u_gpio\.led2_cnt_q\[21\]
*886 u_gpio\.led2_cnt_q\[2\]
*887 u_gpio\.led2_cnt_q\[3\]
*888 u_gpio\.led2_cnt_q\[4\]
*889 u_gpio\.led2_cnt_q\[5\]
*890 u_gpio\.led2_cnt_q\[6\]
*891 u_gpio\.led2_cnt_q\[7\]
*892 u_gpio\.led2_cnt_q\[8\]
*893 u_gpio\.led2_cnt_q\[9\]
*894 u_gpio\.led3_active
*895 u_gpio\.led3_cnt_d\[0\]
*896 u_gpio\.led3_cnt_d\[10\]
*897 u_gpio\.led3_cnt_d\[11\]
*898 u_gpio\.led3_cnt_d\[12\]
*899 u_gpio\.led3_cnt_d\[13\]
*900 u_gpio\.led3_cnt_d\[14\]
*901 u_gpio\.led3_cnt_d\[15\]
*902 u_gpio\.led3_cnt_d\[16\]
*903 u_gpio\.led3_cnt_d\[17\]
*904 u_gpio\.led3_cnt_d\[18\]
*905 u_gpio\.led3_cnt_d\[19\]
*906 u_gpio\.led3_cnt_d\[1\]
*907 u_gpio\.led3_cnt_d\[20\]
*908 u_gpio\.led3_cnt_d\[21\]
*909 u_gpio\.led3_cnt_d\[2\]
*910 u_gpio\.led3_cnt_d\[3\]
*911 u_gpio\.led3_cnt_d\[4\]
*912 u_gpio\.led3_cnt_d\[5\]
*913 u_gpio\.led3_cnt_d\[6\]
*914 u_gpio\.led3_cnt_d\[7\]
*915 u_gpio\.led3_cnt_d\[8\]
*916 u_gpio\.led3_cnt_d\[9\]
*917 u_gpio\.led3_cnt_q\[0\]
*918 u_gpio\.led3_cnt_q\[10\]
*919 u_gpio\.led3_cnt_q\[11\]
*920 u_gpio\.led3_cnt_q\[12\]
*921 u_gpio\.led3_cnt_q\[13\]
*922 u_gpio\.led3_cnt_q\[14\]
*923 u_gpio\.led3_cnt_q\[15\]
*924 u_gpio\.led3_cnt_q\[16\]
*925 u_gpio\.led3_cnt_q\[17\]
*926 u_gpio\.led3_cnt_q\[18\]
*927 u_gpio\.led3_cnt_q\[19\]
*928 u_gpio\.led3_cnt_q\[1\]
*929 u_gpio\.led3_cnt_q\[20\]
*930 u_gpio\.led3_cnt_q\[21\]
*931 u_gpio\.led3_cnt_q\[2\]
*932 u_gpio\.led3_cnt_q\[3\]
*933 u_gpio\.led3_cnt_q\[4\]
*934 u_gpio\.led3_cnt_q\[5\]
*935 u_gpio\.led3_cnt_q\[6\]
*936 u_gpio\.led3_cnt_q\[7\]
*937 u_gpio\.led3_cnt_q\[8\]
*938 u_gpio\.led3_cnt_q\[9\]
*939 u_gpio\.led4_active
*940 u_gpio\.led4_cnt_d\[0\]
*941 u_gpio\.led4_cnt_d\[10\]
*942 u_gpio\.led4_cnt_d\[11\]
*943 u_gpio\.led4_cnt_d\[12\]
*944 u_gpio\.led4_cnt_d\[13\]
*945 u_gpio\.led4_cnt_d\[14\]
*946 u_gpio\.led4_cnt_d\[15\]
*947 u_gpio\.led4_cnt_d\[16\]
*948 u_gpio\.led4_cnt_d\[17\]
*949 u_gpio\.led4_cnt_d\[18\]
*950 u_gpio\.led4_cnt_d\[19\]
*951 u_gpio\.led4_cnt_d\[1\]
*952 u_gpio\.led4_cnt_d\[20\]
*953 u_gpio\.led4_cnt_d\[21\]
*954 u_gpio\.led4_cnt_d\[2\]
*955 u_gpio\.led4_cnt_d\[3\]
*956 u_gpio\.led4_cnt_d\[4\]
*957 u_gpio\.led4_cnt_d\[5\]
*958 u_gpio\.led4_cnt_d\[6\]
*959 u_gpio\.led4_cnt_d\[7\]
*960 u_gpio\.led4_cnt_d\[8\]
*961 u_gpio\.led4_cnt_d\[9\]
*962 u_gpio\.led4_cnt_q\[0\]
*963 u_gpio\.led4_cnt_q\[10\]
*964 u_gpio\.led4_cnt_q\[11\]
*965 u_gpio\.led4_cnt_q\[12\]
*966 u_gpio\.led4_cnt_q\[13\]
*967 u_gpio\.led4_cnt_q\[14\]
*968 u_gpio\.led4_cnt_q\[15\]
*969 u_gpio\.led4_cnt_q\[16\]
*970 u_gpio\.led4_cnt_q\[17\]
*971 u_gpio\.led4_cnt_q\[18\]
*972 u_gpio\.led4_cnt_q\[19\]
*973 u_gpio\.led4_cnt_q\[1\]
*974 u_gpio\.led4_cnt_q\[20\]
*975 u_gpio\.led4_cnt_q\[21\]
*976 u_gpio\.led4_cnt_q\[2\]
*977 u_gpio\.led4_cnt_q\[3\]
*978 u_gpio\.led4_cnt_q\[4\]
*979 u_gpio\.led4_cnt_q\[5\]
*980 u_gpio\.led4_cnt_q\[6\]
*981 u_gpio\.led4_cnt_q\[7\]
*982 u_gpio\.led4_cnt_q\[8\]
*983 u_gpio\.led4_cnt_q\[9\]
*984 u_sram\.ar_ready_d
*985 u_sram\.aw_ready_d
*986 u_sram\.u_sram\.we
*987 u_sram\.w_ready_d
*988 u_uart\.tx_baud_cnt_d\[0\]
*989 u_uart\.tx_baud_cnt_d\[1\]
*990 u_uart\.tx_baud_cnt_d\[2\]
*991 u_uart\.tx_baud_cnt_d\[3\]
*992 u_uart\.tx_baud_cnt_d\[4\]
*993 u_uart\.tx_baud_cnt_d\[5\]
*994 u_uart\.tx_baud_cnt_d\[6\]
*995 u_uart\.tx_baud_cnt_d\[7\]
*996 u_uart\.tx_baud_cnt_d\[8\]
*997 u_uart\.tx_baud_cnt_d\[9\]
*998 u_uart\.tx_baud_cnt_q\[0\]
*999 u_uart\.tx_baud_cnt_q\[1\]
*1000 u_uart\.tx_baud_cnt_q\[2\]
*1001 u_uart\.tx_baud_cnt_q\[3\]
*1002 u_uart\.tx_baud_cnt_q\[4\]
*1003 u_uart\.tx_baud_cnt_q\[5\]
*1004 u_uart\.tx_baud_cnt_q\[6\]
*1005 u_uart\.tx_baud_cnt_q\[7\]
*1006 u_uart\.tx_baud_cnt_q\[8\]
*1007 u_uart\.tx_baud_cnt_q\[9\]
*1008 u_uart\.tx_bitcnt_q\[0\]
*1009 u_uart\.tx_bitcnt_q\[1\]
*1010 u_uart\.tx_bitcnt_q\[2\]
*1011 u_uart\.tx_bitcnt_q\[3\]
*1012 u_uart\.tx_shift_q\[0\]
*1013 u_uart\.tx_shift_q\[1\]
*1014 u_uart\.tx_shift_q\[2\]
*1015 u_uart\.tx_shift_q\[3\]
*1016 u_uart\.tx_shift_q\[4\]
*1017 u_uart\.tx_shift_q\[5\]
*1018 u_uart\.tx_shift_q\[6\]
*1019 u_uart\.tx_shift_q\[7\]
*1020 u_uart\.tx_shift_q\[8\]
*1021 u_uart\.tx_shift_q\[9\]
*1022 u_uart\.tx_state_q\[0\]
*1023 u_uart\.tx_state_q\[1\]
*1024 u_uart\.tx_state_q\[2\]
*1025 u_uart\.tx_state_q\[3\]
*1026 FILLER_0_105
*1027 FILLER_0_108
*1028 FILLER_0_111
*1029 FILLER_0_113
*1030 FILLER_0_116
*1031 FILLER_0_12
*1032 FILLER_0_127
*1033 FILLER_0_130
*1034 FILLER_0_133
*1035 FILLER_0_136
*1036 FILLER_0_139
*1037 FILLER_0_141
*1038 FILLER_0_144
*1039 FILLER_0_147
*1040 FILLER_0_15
*1041 FILLER_0_150
*1042 FILLER_0_153
*1043 FILLER_0_156
*1044 FILLER_0_159
*1045 FILLER_0_162
*1046 FILLER_0_165
*1047 FILLER_0_169
*1048 FILLER_0_172
*1049 FILLER_0_175
*1050 FILLER_0_178
*1051 FILLER_0_18
*1052 FILLER_0_181
*1053 FILLER_0_184
*1054 FILLER_0_187
*1055 FILLER_0_190
*1056 FILLER_0_193
*1057 FILLER_0_197
*1058 FILLER_0_200
*1059 FILLER_0_203
*1060 FILLER_0_21
*1061 FILLER_0_220
*1062 FILLER_0_223
*1063 FILLER_0_225
*1064 FILLER_0_228
*1065 FILLER_0_231
*1066 FILLER_0_234
*1067 FILLER_0_237
*1068 FILLER_0_24
*1069 FILLER_0_240
*1070 FILLER_0_243
*1071 FILLER_0_246
*1072 FILLER_0_249
*1073 FILLER_0_253
*1074 FILLER_0_256
*1075 FILLER_0_259
*1076 FILLER_0_262
*1077 FILLER_0_265
*1078 FILLER_0_268
*1079 FILLER_0_27
*1080 FILLER_0_271
*1081 FILLER_0_274
*1082 FILLER_0_277
*1083 FILLER_0_281
*1084 FILLER_0_284
*1085 FILLER_0_287
*1086 FILLER_0_29
*1087 FILLER_0_290
*1088 FILLER_0_299
*1089 FILLER_0_3
*1090 FILLER_0_302
*1091 FILLER_0_305
*1092 FILLER_0_309
*1093 FILLER_0_312
*1094 FILLER_0_315
*1095 FILLER_0_318
*1096 FILLER_0_32
*1097 FILLER_0_41
*1098 FILLER_0_44
*1099 FILLER_0_47
*1100 FILLER_0_50
*1101 FILLER_0_53
*1102 FILLER_0_6
*1103 FILLER_0_62
*1104 FILLER_0_65
*1105 FILLER_0_68
*1106 FILLER_0_71
*1107 FILLER_0_74
*1108 FILLER_0_77
*1109 FILLER_0_80
*1110 FILLER_0_83
*1111 FILLER_0_85
*1112 FILLER_0_88
*1113 FILLER_0_9
*1114 FILLER_0_91
*1115 FILLER_10_12
*1116 FILLER_10_139
*1117 FILLER_10_15
*1118 FILLER_10_161
*1119 FILLER_10_18
*1120 FILLER_10_191
*1121 FILLER_10_194
*1122 FILLER_10_238
*1123 FILLER_10_241
*1124 FILLER_10_244
*1125 FILLER_10_247
*1126 FILLER_10_250
*1127 FILLER_10_26
*1128 FILLER_10_282
*1129 FILLER_10_285
*1130 FILLER_10_29
*1131 FILLER_10_3
*1132 FILLER_10_316
*1133 FILLER_10_319
*1134 FILLER_10_32
*1135 FILLER_10_35
*1136 FILLER_10_38
*1137 FILLER_10_6
*1138 FILLER_10_83
*1139 FILLER_10_85
*1140 FILLER_10_88
*1141 FILLER_10_9
*1142 FILLER_11_111
*1143 FILLER_11_119
*1144 FILLER_11_12
*1145 FILLER_11_122
*1146 FILLER_11_125
*1147 FILLER_11_15
*1148 FILLER_11_162
*1149 FILLER_11_165
*1150 FILLER_11_169
*1151 FILLER_11_172
*1152 FILLER_11_18
*1153 FILLER_11_187
*1154 FILLER_11_190
*1155 FILLER_11_21
*1156 FILLER_11_237
*1157 FILLER_11_24
*1158 FILLER_11_240
*1159 FILLER_11_243
*1160 FILLER_11_27
*1161 FILLER_11_288
*1162 FILLER_11_291
*1163 FILLER_11_3
*1164 FILLER_11_314
*1165 FILLER_11_317
*1166 FILLER_11_32
*1167 FILLER_11_35
*1168 FILLER_11_38
*1169 FILLER_11_41
*1170 FILLER_11_44
*1171 FILLER_11_47
*1172 FILLER_11_6
*1173 FILLER_11_77
*1174 FILLER_11_80
*1175 FILLER_11_83
*1176 FILLER_11_9
*1177 FILLER_12_121
*1178 FILLER_12_124
*1179 FILLER_12_127
*1180 FILLER_12_130
*1181 FILLER_12_141
*1182 FILLER_12_144
*1183 FILLER_12_158
*1184 FILLER_12_161
*1185 FILLER_12_164
*1186 FILLER_12_167
*1187 FILLER_12_170
*1188 FILLER_12_173
*1189 FILLER_12_185
*1190 FILLER_12_195
*1191 FILLER_12_197
*1192 FILLER_12_200
*1193 FILLER_12_203
*1194 FILLER_12_206
*1195 FILLER_12_209
*1196 FILLER_12_233
*1197 FILLER_12_236
*1198 FILLER_12_239
*1199 FILLER_12_242
*1200 FILLER_12_245
*1201 FILLER_12_285
*1202 FILLER_12_29
*1203 FILLER_12_3
*1204 FILLER_12_306
*1205 FILLER_12_315
*1206 FILLER_12_318
*1207 FILLER_12_32
*1208 FILLER_12_35
*1209 FILLER_12_38
*1210 FILLER_12_41
*1211 FILLER_12_44
*1212 FILLER_12_47
*1213 FILLER_12_50
*1214 FILLER_12_56
*1215 FILLER_12_6
*1216 FILLER_12_77
*1217 FILLER_12_80
*1218 FILLER_12_83
*1219 FILLER_12_85
*1220 FILLER_13_113
*1221 FILLER_13_116
*1222 FILLER_13_119
*1223 FILLER_13_12
*1224 FILLER_13_122
*1225 FILLER_13_125
*1226 FILLER_13_128
*1227 FILLER_13_131
*1228 FILLER_13_134
*1229 FILLER_13_137
*1230 FILLER_13_152
*1231 FILLER_13_155
*1232 FILLER_13_158
*1233 FILLER_13_161
*1234 FILLER_13_164
*1235 FILLER_13_167
*1236 FILLER_13_169
*1237 FILLER_13_172
*1238 FILLER_13_19
*1239 FILLER_13_192
*1240 FILLER_13_195
*1241 FILLER_13_198
*1242 FILLER_13_201
*1243 FILLER_13_204
*1244 FILLER_13_207
*1245 FILLER_13_210
*1246 FILLER_13_213
*1247 FILLER_13_216
*1248 FILLER_13_225
*1249 FILLER_13_228
*1250 FILLER_13_231
*1251 FILLER_13_234
*1252 FILLER_13_237
*1253 FILLER_13_240
*1254 FILLER_13_243
*1255 FILLER_13_246
*1256 FILLER_13_249
*1257 FILLER_13_252
*1258 FILLER_13_255
*1259 FILLER_13_281
*1260 FILLER_13_284
*1261 FILLER_13_293
*1262 FILLER_13_296
*1263 FILLER_13_3
*1264 FILLER_13_30
*1265 FILLER_13_316
*1266 FILLER_13_319
*1267 FILLER_13_33
*1268 FILLER_13_36
*1269 FILLER_13_39
*1270 FILLER_13_42
*1271 FILLER_13_45
*1272 FILLER_13_48
*1273 FILLER_13_6
*1274 FILLER_13_73
*1275 FILLER_13_76
*1276 FILLER_13_79
*1277 FILLER_13_82
*1278 FILLER_13_85
*1279 FILLER_13_88
*1280 FILLER_13_9
*1281 FILLER_14_117
*1282 FILLER_14_120
*1283 FILLER_14_123
*1284 FILLER_14_126
*1285 FILLER_14_129
*1286 FILLER_14_132
*1287 FILLER_14_135
*1288 FILLER_14_138
*1289 FILLER_14_146
*1290 FILLER_14_149
*1291 FILLER_14_152
*1292 FILLER_14_155
*1293 FILLER_14_158
*1294 FILLER_14_179
*1295 FILLER_14_182
*1296 FILLER_14_191
*1297 FILLER_14_194
*1298 FILLER_14_197
*1299 FILLER_14_222
*1300 FILLER_14_225
*1301 FILLER_14_228
*1302 FILLER_14_231
*1303 FILLER_14_234
*1304 FILLER_14_237
*1305 FILLER_14_240
*1306 FILLER_14_243
*1307 FILLER_14_246
*1308 FILLER_14_274
*1309 FILLER_14_277
*1310 FILLER_14_280
*1311 FILLER_14_283
*1312 FILLER_14_286
*1313 FILLER_14_289
*1314 FILLER_14_292
*1315 FILLER_14_295
*1316 FILLER_14_298
*1317 FILLER_14_3
*1318 FILLER_14_301
*1319 FILLER_14_304
*1320 FILLER_14_307
*1321 FILLER_14_309
*1322 FILLER_14_312
*1323 FILLER_14_315
*1324 FILLER_14_318
*1325 FILLER_14_54
*1326 FILLER_14_6
*1327 FILLER_14_64
*1328 FILLER_14_67
*1329 FILLER_14_70
*1330 FILLER_14_73
*1331 FILLER_14_76
*1332 FILLER_14_79
*1333 FILLER_14_82
*1334 FILLER_14_85
*1335 FILLER_14_88
*1336 FILLER_14_91
*1337 FILLER_15_111
*1338 FILLER_15_113
*1339 FILLER_15_116
*1340 FILLER_15_119
*1341 FILLER_15_122
*1342 FILLER_15_125
*1343 FILLER_15_128
*1344 FILLER_15_131
*1345 FILLER_15_134
*1346 FILLER_15_156
*1347 FILLER_15_159
*1348 FILLER_15_162
*1349 FILLER_15_165
*1350 FILLER_15_208
*1351 FILLER_15_225
*1352 FILLER_15_228
*1353 FILLER_15_231
*1354 FILLER_15_234
*1355 FILLER_15_237
*1356 FILLER_15_240
*1357 FILLER_15_272
*1358 FILLER_15_275
*1359 FILLER_15_278
*1360 FILLER_15_281
*1361 FILLER_15_284
*1362 FILLER_15_287
*1363 FILLER_15_295
*1364 FILLER_15_3
*1365 FILLER_15_303
*1366 FILLER_15_306
*1367 FILLER_15_309
*1368 FILLER_15_312
*1369 FILLER_15_315
*1370 FILLER_15_318
*1371 FILLER_15_37
*1372 FILLER_15_40
*1373 FILLER_15_57
*1374 FILLER_15_74
*1375 FILLER_15_77
*1376 FILLER_15_80
*1377 FILLER_15_83
*1378 FILLER_15_86
*1379 FILLER_15_89
*1380 FILLER_16_117
*1381 FILLER_16_120
*1382 FILLER_16_123
*1383 FILLER_16_126
*1384 FILLER_16_129
*1385 FILLER_16_154
*1386 FILLER_16_157
*1387 FILLER_16_160
*1388 FILLER_16_163
*1389 FILLER_16_166
*1390 FILLER_16_190
*1391 FILLER_16_193
*1392 FILLER_16_235
*1393 FILLER_16_238
*1394 FILLER_16_266
*1395 FILLER_16_269
*1396 FILLER_16_272
*1397 FILLER_16_275
*1398 FILLER_16_278
*1399 FILLER_16_281
*1400 FILLER_16_3
*1401 FILLER_16_305
*1402 FILLER_16_309
*1403 FILLER_16_312
*1404 FILLER_16_315
*1405 FILLER_16_318
*1406 FILLER_16_44
*1407 FILLER_16_47
*1408 FILLER_16_6
*1409 FILLER_16_77
*1410 FILLER_16_80
*1411 FILLER_16_83
*1412 FILLER_16_85
*1413 FILLER_16_88
*1414 FILLER_17_124
*1415 FILLER_17_127
*1416 FILLER_17_130
*1417 FILLER_17_133
*1418 FILLER_17_164
*1419 FILLER_17_167
*1420 FILLER_17_169
*1421 FILLER_17_172
*1422 FILLER_17_225
*1423 FILLER_17_228
*1424 FILLER_17_231
*1425 FILLER_17_234
*1426 FILLER_17_237
*1427 FILLER_17_271
*1428 FILLER_17_274
*1429 FILLER_17_277
*1430 FILLER_17_281
*1431 FILLER_17_284
*1432 FILLER_17_3
*1433 FILLER_17_318
*1434 FILLER_17_32
*1435 FILLER_17_35
*1436 FILLER_17_38
*1437 FILLER_17_41
*1438 FILLER_17_6
*1439 FILLER_17_78
*1440 FILLER_17_81
*1441 FILLER_17_9
*1442 FILLER_18_106
*1443 FILLER_18_109
*1444 FILLER_18_112
*1445 FILLER_18_12
*1446 FILLER_18_121
*1447 FILLER_18_124
*1448 FILLER_18_141
*1449 FILLER_18_166
*1450 FILLER_18_177
*1451 FILLER_18_180
*1452 FILLER_18_232
*1453 FILLER_18_235
*1454 FILLER_18_238
*1455 FILLER_18_241
*1456 FILLER_18_250
*1457 FILLER_18_253
*1458 FILLER_18_272
*1459 FILLER_18_275
*1460 FILLER_18_278
*1461 FILLER_18_281
*1462 FILLER_18_29
*1463 FILLER_18_3
*1464 FILLER_18_319
*1465 FILLER_18_32
*1466 FILLER_18_35
*1467 FILLER_18_38
*1468 FILLER_18_41
*1469 FILLER_18_44
*1470 FILLER_18_47
*1471 FILLER_18_6
*1472 FILLER_18_70
*1473 FILLER_18_73
*1474 FILLER_18_76
*1475 FILLER_18_79
*1476 FILLER_18_82
*1477 FILLER_18_9
*1478 FILLER_19_113
*1479 FILLER_19_116
*1480 FILLER_19_12
*1481 FILLER_19_124
*1482 FILLER_19_127
*1483 FILLER_19_130
*1484 FILLER_19_133
*1485 FILLER_19_15
*1486 FILLER_19_156
*1487 FILLER_19_159
*1488 FILLER_19_169
*1489 FILLER_19_178
*1490 FILLER_19_181
*1491 FILLER_19_184
*1492 FILLER_19_207
*1493 FILLER_19_210
*1494 FILLER_19_213
*1495 FILLER_19_223
*1496 FILLER_19_225
*1497 FILLER_19_228
*1498 FILLER_19_231
*1499 FILLER_19_234
*1500 FILLER_19_237
*1501 FILLER_19_240
*1502 FILLER_19_263
*1503 FILLER_19_266
*1504 FILLER_19_269
*1505 FILLER_19_272
*1506 FILLER_19_275
*1507 FILLER_19_278
*1508 FILLER_19_28
*1509 FILLER_19_281
*1510 FILLER_19_284
*1511 FILLER_19_287
*1512 FILLER_19_290
*1513 FILLER_19_3
*1514 FILLER_19_31
*1515 FILLER_19_39
*1516 FILLER_19_42
*1517 FILLER_19_45
*1518 FILLER_19_48
*1519 FILLER_19_6
*1520 FILLER_19_76
*1521 FILLER_19_79
*1522 FILLER_19_82
*1523 FILLER_19_85
*1524 FILLER_19_9
*1525 FILLER_1_110
*1526 FILLER_1_113
*1527 FILLER_1_116
*1528 FILLER_1_119
*1529 FILLER_1_12
*1530 FILLER_1_122
*1531 FILLER_1_125
*1532 FILLER_1_128
*1533 FILLER_1_131
*1534 FILLER_1_15
*1535 FILLER_1_155
*1536 FILLER_1_158
*1537 FILLER_1_161
*1538 FILLER_1_164
*1539 FILLER_1_167
*1540 FILLER_1_169
*1541 FILLER_1_172
*1542 FILLER_1_18
*1543 FILLER_1_187
*1544 FILLER_1_190
*1545 FILLER_1_193
*1546 FILLER_1_196
*1547 FILLER_1_202
*1548 FILLER_1_21
*1549 FILLER_1_230
*1550 FILLER_1_233
*1551 FILLER_1_236
*1552 FILLER_1_239
*1553 FILLER_1_24
*1554 FILLER_1_242
*1555 FILLER_1_266
*1556 FILLER_1_269
*1557 FILLER_1_27
*1558 FILLER_1_272
*1559 FILLER_1_275
*1560 FILLER_1_278
*1561 FILLER_1_281
*1562 FILLER_1_284
*1563 FILLER_1_296
*1564 FILLER_1_299
*1565 FILLER_1_3
*1566 FILLER_1_30
*1567 FILLER_1_302
*1568 FILLER_1_305
*1569 FILLER_1_308
*1570 FILLER_1_311
*1571 FILLER_1_314
*1572 FILLER_1_317
*1573 FILLER_1_33
*1574 FILLER_1_36
*1575 FILLER_1_39
*1576 FILLER_1_42
*1577 FILLER_1_45
*1578 FILLER_1_48
*1579 FILLER_1_6
*1580 FILLER_1_67
*1581 FILLER_1_70
*1582 FILLER_1_73
*1583 FILLER_1_76
*1584 FILLER_1_79
*1585 FILLER_1_82
*1586 FILLER_1_85
*1587 FILLER_1_88
*1588 FILLER_1_9
*1589 FILLER_20_118
*1590 FILLER_20_12
*1591 FILLER_20_121
*1592 FILLER_20_124
*1593 FILLER_20_127
*1594 FILLER_20_15
*1595 FILLER_20_161
*1596 FILLER_20_164
*1597 FILLER_20_188
*1598 FILLER_20_191
*1599 FILLER_20_194
*1600 FILLER_20_197
*1601 FILLER_20_200
*1602 FILLER_20_203
*1603 FILLER_20_206
*1604 FILLER_20_209
*1605 FILLER_20_218
*1606 FILLER_20_22
*1607 FILLER_20_227
*1608 FILLER_20_230
*1609 FILLER_20_233
*1610 FILLER_20_236
*1611 FILLER_20_251
*1612 FILLER_20_253
*1613 FILLER_20_266
*1614 FILLER_20_269
*1615 FILLER_20_272
*1616 FILLER_20_279
*1617 FILLER_20_282
*1618 FILLER_20_285
*1619 FILLER_20_3
*1620 FILLER_20_309
*1621 FILLER_20_312
*1622 FILLER_20_315
*1623 FILLER_20_318
*1624 FILLER_20_36
*1625 FILLER_20_44
*1626 FILLER_20_47
*1627 FILLER_20_50
*1628 FILLER_20_6
*1629 FILLER_20_67
*1630 FILLER_20_70
*1631 FILLER_20_73
*1632 FILLER_20_76
*1633 FILLER_20_85
*1634 FILLER_20_9
*1635 FILLER_20_94
*1636 FILLER_20_97
*1637 FILLER_21_104
*1638 FILLER_21_107
*1639 FILLER_21_110
*1640 FILLER_21_113
*1641 FILLER_21_116
*1642 FILLER_21_119
*1643 FILLER_21_12
*1644 FILLER_21_132
*1645 FILLER_21_139
*1646 FILLER_21_165
*1647 FILLER_21_184
*1648 FILLER_21_187
*1649 FILLER_21_190
*1650 FILLER_21_193
*1651 FILLER_21_196
*1652 FILLER_21_199
*1653 FILLER_21_202
*1654 FILLER_21_220
*1655 FILLER_21_223
*1656 FILLER_21_233
*1657 FILLER_21_236
*1658 FILLER_21_266
*1659 FILLER_21_288
*1660 FILLER_21_291
*1661 FILLER_21_294
*1662 FILLER_21_297
*1663 FILLER_21_3
*1664 FILLER_21_306
*1665 FILLER_21_309
*1666 FILLER_21_312
*1667 FILLER_21_315
*1668 FILLER_21_318
*1669 FILLER_21_54
*1670 FILLER_21_57
*1671 FILLER_21_6
*1672 FILLER_21_60
*1673 FILLER_21_63
*1674 FILLER_21_87
*1675 FILLER_21_9
*1676 FILLER_22_126
*1677 FILLER_22_129
*1678 FILLER_22_152
*1679 FILLER_22_155
*1680 FILLER_22_158
*1681 FILLER_22_161
*1682 FILLER_22_183
*1683 FILLER_22_186
*1684 FILLER_22_189
*1685 FILLER_22_192
*1686 FILLER_22_195
*1687 FILLER_22_218
*1688 FILLER_22_240
*1689 FILLER_22_243
*1690 FILLER_22_26
*1691 FILLER_22_261
*1692 FILLER_22_264
*1693 FILLER_22_29
*1694 FILLER_22_298
*1695 FILLER_22_3
*1696 FILLER_22_301
*1697 FILLER_22_304
*1698 FILLER_22_307
*1699 FILLER_22_309
*1700 FILLER_22_312
*1701 FILLER_22_315
*1702 FILLER_22_318
*1703 FILLER_22_59
*1704 FILLER_22_62
*1705 FILLER_23_105
*1706 FILLER_23_108
*1707 FILLER_23_111
*1708 FILLER_23_130
*1709 FILLER_23_145
*1710 FILLER_23_148
*1711 FILLER_23_151
*1712 FILLER_23_154
*1713 FILLER_23_157
*1714 FILLER_23_160
*1715 FILLER_23_163
*1716 FILLER_23_166
*1717 FILLER_23_190
*1718 FILLER_23_221
*1719 FILLER_23_241
*1720 FILLER_23_244
*1721 FILLER_23_268
*1722 FILLER_23_3
*1723 FILLER_23_302
*1724 FILLER_23_305
*1725 FILLER_23_308
*1726 FILLER_23_311
*1727 FILLER_23_314
*1728 FILLER_23_317
*1729 FILLER_23_32
*1730 FILLER_23_57
*1731 FILLER_23_6
*1732 FILLER_23_60
*1733 FILLER_23_9
*1734 FILLER_24_116
*1735 FILLER_24_12
*1736 FILLER_24_135
*1737 FILLER_24_138
*1738 FILLER_24_141
*1739 FILLER_24_144
*1740 FILLER_24_147
*1741 FILLER_24_150
*1742 FILLER_24_153
*1743 FILLER_24_156
*1744 FILLER_24_159
*1745 FILLER_24_162
*1746 FILLER_24_165
*1747 FILLER_24_168
*1748 FILLER_24_187
*1749 FILLER_24_190
*1750 FILLER_24_193
*1751 FILLER_24_197
*1752 FILLER_24_20
*1753 FILLER_24_229
*1754 FILLER_24_23
*1755 FILLER_24_232
*1756 FILLER_24_235
*1757 FILLER_24_238
*1758 FILLER_24_247
*1759 FILLER_24_250
*1760 FILLER_24_253
*1761 FILLER_24_26
*1762 FILLER_24_275
*1763 FILLER_24_286
*1764 FILLER_24_29
*1765 FILLER_24_3
*1766 FILLER_24_309
*1767 FILLER_24_312
*1768 FILLER_24_315
*1769 FILLER_24_318
*1770 FILLER_24_6
*1771 FILLER_24_61
*1772 FILLER_24_9
*1773 FILLER_24_93
*1774 FILLER_25_113
*1775 FILLER_25_116
*1776 FILLER_25_12
*1777 FILLER_25_138
*1778 FILLER_25_146
*1779 FILLER_25_149
*1780 FILLER_25_15
*1781 FILLER_25_152
*1782 FILLER_25_155
*1783 FILLER_25_158
*1784 FILLER_25_161
*1785 FILLER_25_164
*1786 FILLER_25_167
*1787 FILLER_25_178
*1788 FILLER_25_18
*1789 FILLER_25_199
*1790 FILLER_25_202
*1791 FILLER_25_205
*1792 FILLER_25_21
*1793 FILLER_25_222
*1794 FILLER_25_225
*1795 FILLER_25_228
*1796 FILLER_25_231
*1797 FILLER_25_234
*1798 FILLER_25_237
*1799 FILLER_25_240
*1800 FILLER_25_243
*1801 FILLER_25_246
*1802 FILLER_25_28
*1803 FILLER_25_287
*1804 FILLER_25_3
*1805 FILLER_25_31
*1806 FILLER_25_318
*1807 FILLER_25_55
*1808 FILLER_25_57
*1809 FILLER_25_6
*1810 FILLER_25_60
*1811 FILLER_25_63
*1812 FILLER_25_66
*1813 FILLER_25_69
*1814 FILLER_25_9
*1815 FILLER_25_94
*1816 FILLER_25_97
*1817 FILLER_26_100
*1818 FILLER_26_103
*1819 FILLER_26_106
*1820 FILLER_26_116
*1821 FILLER_26_12
*1822 FILLER_26_130
*1823 FILLER_26_149
*1824 FILLER_26_15
*1825 FILLER_26_152
*1826 FILLER_26_155
*1827 FILLER_26_158
*1828 FILLER_26_18
*1829 FILLER_26_181
*1830 FILLER_26_184
*1831 FILLER_26_187
*1832 FILLER_26_190
*1833 FILLER_26_193
*1834 FILLER_26_197
*1835 FILLER_26_200
*1836 FILLER_26_203
*1837 FILLER_26_206
*1838 FILLER_26_209
*1839 FILLER_26_237
*1840 FILLER_26_240
*1841 FILLER_26_243
*1842 FILLER_26_246
*1843 FILLER_26_249
*1844 FILLER_26_253
*1845 FILLER_26_256
*1846 FILLER_26_259
*1847 FILLER_26_26
*1848 FILLER_26_262
*1849 FILLER_26_265
*1850 FILLER_26_268
*1851 FILLER_26_271
*1852 FILLER_26_274
*1853 FILLER_26_277
*1854 FILLER_26_280
*1855 FILLER_26_283
*1856 FILLER_26_29
*1857 FILLER_26_3
*1858 FILLER_26_306
*1859 FILLER_26_317
*1860 FILLER_26_38
*1861 FILLER_26_53
*1862 FILLER_26_56
*1863 FILLER_26_59
*1864 FILLER_26_6
*1865 FILLER_26_62
*1866 FILLER_26_65
*1867 FILLER_26_68
*1868 FILLER_26_85
*1869 FILLER_26_88
*1870 FILLER_26_9
*1871 FILLER_26_91
*1872 FILLER_26_94
*1873 FILLER_26_97
*1874 FILLER_27_102
*1875 FILLER_27_105
*1876 FILLER_27_108
*1877 FILLER_27_111
*1878 FILLER_27_113
*1879 FILLER_27_123
*1880 FILLER_27_126
*1881 FILLER_27_129
*1882 FILLER_27_132
*1883 FILLER_27_135
*1884 FILLER_27_138
*1885 FILLER_27_147
*1886 FILLER_27_150
*1887 FILLER_27_153
*1888 FILLER_27_156
*1889 FILLER_27_159
*1890 FILLER_27_162
*1891 FILLER_27_165
*1892 FILLER_27_169
*1893 FILLER_27_172
*1894 FILLER_27_183
*1895 FILLER_27_186
*1896 FILLER_27_189
*1897 FILLER_27_196
*1898 FILLER_27_199
*1899 FILLER_27_202
*1900 FILLER_27_209
*1901 FILLER_27_212
*1902 FILLER_27_215
*1903 FILLER_27_218
*1904 FILLER_27_221
*1905 FILLER_27_225
*1906 FILLER_27_228
*1907 FILLER_27_231
*1908 FILLER_27_234
*1909 FILLER_27_237
*1910 FILLER_27_240
*1911 FILLER_27_263
*1912 FILLER_27_266
*1913 FILLER_27_269
*1914 FILLER_27_272
*1915 FILLER_27_275
*1916 FILLER_27_278
*1917 FILLER_27_281
*1918 FILLER_27_284
*1919 FILLER_27_287
*1920 FILLER_27_3
*1921 FILLER_27_315
*1922 FILLER_27_318
*1923 FILLER_27_36
*1924 FILLER_27_39
*1925 FILLER_27_42
*1926 FILLER_27_45
*1927 FILLER_27_48
*1928 FILLER_27_51
*1929 FILLER_27_54
*1930 FILLER_27_57
*1931 FILLER_27_6
*1932 FILLER_27_60
*1933 FILLER_27_63
*1934 FILLER_27_66
*1935 FILLER_27_85
*1936 FILLER_27_88
*1937 FILLER_27_9
*1938 FILLER_27_91
*1939 FILLER_27_94
*1940 FILLER_28_113
*1941 FILLER_28_116
*1942 FILLER_28_119
*1943 FILLER_28_122
*1944 FILLER_28_125
*1945 FILLER_28_128
*1946 FILLER_28_131
*1947 FILLER_28_134
*1948 FILLER_28_137
*1949 FILLER_28_156
*1950 FILLER_28_170
*1951 FILLER_28_173
*1952 FILLER_28_197
*1953 FILLER_28_200
*1954 FILLER_28_212
*1955 FILLER_28_215
*1956 FILLER_28_218
*1957 FILLER_28_221
*1958 FILLER_28_253
*1959 FILLER_28_26
*1960 FILLER_28_268
*1961 FILLER_28_271
*1962 FILLER_28_274
*1963 FILLER_28_277
*1964 FILLER_28_280
*1965 FILLER_28_283
*1966 FILLER_28_292
*1967 FILLER_28_3
*1968 FILLER_28_305
*1969 FILLER_28_317
*1970 FILLER_28_34
*1971 FILLER_28_37
*1972 FILLER_28_40
*1973 FILLER_28_43
*1974 FILLER_28_46
*1975 FILLER_28_49
*1976 FILLER_28_52
*1977 FILLER_28_55
*1978 FILLER_28_85
*1979 FILLER_28_88
*1980 FILLER_28_91
*1981 FILLER_28_94
*1982 FILLER_29_113
*1983 FILLER_29_116
*1984 FILLER_29_119
*1985 FILLER_29_182
*1986 FILLER_29_215
*1987 FILLER_29_222
*1988 FILLER_29_246
*1989 FILLER_29_26
*1990 FILLER_29_273
*1991 FILLER_29_276
*1992 FILLER_29_279
*1993 FILLER_29_3
*1994 FILLER_29_309
*1995 FILLER_29_312
*1996 FILLER_29_315
*1997 FILLER_29_318
*1998 FILLER_29_37
*1999 FILLER_29_40
*2000 FILLER_29_43
*2001 FILLER_29_46
*2002 FILLER_29_49
*2003 FILLER_29_52
*2004 FILLER_29_55
*2005 FILLER_29_57
*2006 FILLER_29_6
*2007 FILLER_29_88
*2008 FILLER_29_9
*2009 FILLER_2_119
*2010 FILLER_2_12
*2011 FILLER_2_122
*2012 FILLER_2_125
*2013 FILLER_2_128
*2014 FILLER_2_131
*2015 FILLER_2_15
*2016 FILLER_2_154
*2017 FILLER_2_157
*2018 FILLER_2_160
*2019 FILLER_2_163
*2020 FILLER_2_18
*2021 FILLER_2_191
*2022 FILLER_2_194
*2023 FILLER_2_197
*2024 FILLER_2_207
*2025 FILLER_2_21
*2026 FILLER_2_231
*2027 FILLER_2_234
*2028 FILLER_2_237
*2029 FILLER_2_240
*2030 FILLER_2_243
*2031 FILLER_2_27
*2032 FILLER_2_274
*2033 FILLER_2_277
*2034 FILLER_2_29
*2035 FILLER_2_3
*2036 FILLER_2_302
*2037 FILLER_2_305
*2038 FILLER_2_309
*2039 FILLER_2_312
*2040 FILLER_2_315
*2041 FILLER_2_318
*2042 FILLER_2_32
*2043 FILLER_2_35
*2044 FILLER_2_38
*2045 FILLER_2_41
*2046 FILLER_2_44
*2047 FILLER_2_47
*2048 FILLER_2_6
*2049 FILLER_2_75
*2050 FILLER_2_78
*2051 FILLER_2_81
*2052 FILLER_2_85
*2053 FILLER_2_9
*2054 FILLER_30_116
*2055 FILLER_30_12
*2056 FILLER_30_149
*2057 FILLER_30_15
*2058 FILLER_30_187
*2059 FILLER_30_197
*2060 FILLER_30_200
*2061 FILLER_30_224
*2062 FILLER_30_242
*2063 FILLER_30_253
*2064 FILLER_30_256
*2065 FILLER_30_265
*2066 FILLER_30_274
*2067 FILLER_30_277
*2068 FILLER_30_280
*2069 FILLER_30_283
*2070 FILLER_30_286
*2071 FILLER_30_29
*2072 FILLER_30_296
*2073 FILLER_30_299
*2074 FILLER_30_3
*2075 FILLER_30_302
*2076 FILLER_30_305
*2077 FILLER_30_309
*2078 FILLER_30_312
*2079 FILLER_30_315
*2080 FILLER_30_318
*2081 FILLER_30_32
*2082 FILLER_30_35
*2083 FILLER_30_38
*2084 FILLER_30_41
*2085 FILLER_30_6
*2086 FILLER_30_65
*2087 FILLER_30_85
*2088 FILLER_30_88
*2089 FILLER_30_9
*2090 FILLER_30_91
*2091 FILLER_30_94
*2092 FILLER_31_101
*2093 FILLER_31_113
*2094 FILLER_31_116
*2095 FILLER_31_165
*2096 FILLER_31_211
*2097 FILLER_31_221
*2098 FILLER_31_225
*2099 FILLER_31_235
*2100 FILLER_31_243
*2101 FILLER_31_249
*2102 FILLER_31_273
*2103 FILLER_31_276
*2104 FILLER_31_279
*2105 FILLER_31_281
*2106 FILLER_31_284
*2107 FILLER_31_287
*2108 FILLER_31_290
*2109 FILLER_31_3
*2110 FILLER_31_319
*2111 FILLER_31_34
*2112 FILLER_31_37
*2113 FILLER_31_57
*2114 FILLER_31_6
*2115 FILLER_31_73
*2116 FILLER_31_76
*2117 FILLER_31_79
*2118 FILLER_31_82
*2119 FILLER_31_85
*2120 FILLER_32_110
*2121 FILLER_32_113
*2122 FILLER_32_116
*2123 FILLER_32_119
*2124 FILLER_32_137
*2125 FILLER_32_155
*2126 FILLER_32_158
*2127 FILLER_32_161
*2128 FILLER_32_164
*2129 FILLER_32_182
*2130 FILLER_32_191
*2131 FILLER_32_194
*2132 FILLER_32_197
*2133 FILLER_32_200
*2134 FILLER_32_203
*2135 FILLER_32_206
*2136 FILLER_32_209
*2137 FILLER_32_212
*2138 FILLER_32_215
*2139 FILLER_32_218
*2140 FILLER_32_224
*2141 FILLER_32_227
*2142 FILLER_32_230
*2143 FILLER_32_238
*2144 FILLER_32_241
*2145 FILLER_32_244
*2146 FILLER_32_247
*2147 FILLER_32_250
*2148 FILLER_32_259
*2149 FILLER_32_262
*2150 FILLER_32_265
*2151 FILLER_32_268
*2152 FILLER_32_271
*2153 FILLER_32_274
*2154 FILLER_32_29
*2155 FILLER_32_3
*2156 FILLER_32_309
*2157 FILLER_32_40
*2158 FILLER_32_43
*2159 FILLER_32_6
*2160 FILLER_32_72
*2161 FILLER_32_75
*2162 FILLER_32_78
*2163 FILLER_32_81
*2164 FILLER_32_85
*2165 FILLER_32_89
*2166 FILLER_32_92
*2167 FILLER_33_108
*2168 FILLER_33_111
*2169 FILLER_33_113
*2170 FILLER_33_116
*2171 FILLER_33_119
*2172 FILLER_33_122
*2173 FILLER_33_125
*2174 FILLER_33_128
*2175 FILLER_33_138
*2176 FILLER_33_141
*2177 FILLER_33_144
*2178 FILLER_33_147
*2179 FILLER_33_150
*2180 FILLER_33_153
*2181 FILLER_33_156
*2182 FILLER_33_159
*2183 FILLER_33_162
*2184 FILLER_33_165
*2185 FILLER_33_169
*2186 FILLER_33_200
*2187 FILLER_33_203
*2188 FILLER_33_212
*2189 FILLER_33_215
*2190 FILLER_33_231
*2191 FILLER_33_234
*2192 FILLER_33_24
*2193 FILLER_33_261
*2194 FILLER_33_264
*2195 FILLER_33_267
*2196 FILLER_33_270
*2197 FILLER_33_273
*2198 FILLER_33_290
*2199 FILLER_33_3
*2200 FILLER_33_50
*2201 FILLER_33_53
*2202 FILLER_33_6
*2203 FILLER_33_65
*2204 FILLER_33_76
*2205 FILLER_33_79
*2206 FILLER_33_87
*2207 FILLER_33_90
*2208 FILLER_34_101
*2209 FILLER_34_12
*2210 FILLER_34_124
*2211 FILLER_34_127
*2212 FILLER_34_130
*2213 FILLER_34_133
*2214 FILLER_34_136
*2215 FILLER_34_139
*2216 FILLER_34_148
*2217 FILLER_34_15
*2218 FILLER_34_151
*2219 FILLER_34_154
*2220 FILLER_34_157
*2221 FILLER_34_160
*2222 FILLER_34_197
*2223 FILLER_34_213
*2224 FILLER_34_223
*2225 FILLER_34_24
*2226 FILLER_34_266
*2227 FILLER_34_269
*2228 FILLER_34_27
*2229 FILLER_34_272
*2230 FILLER_34_29
*2231 FILLER_34_3
*2232 FILLER_34_303
*2233 FILLER_34_306
*2234 FILLER_34_309
*2235 FILLER_34_319
*2236 FILLER_34_32
*2237 FILLER_34_35
*2238 FILLER_34_38
*2239 FILLER_34_41
*2240 FILLER_34_44
*2241 FILLER_34_47
*2242 FILLER_34_6
*2243 FILLER_34_83
*2244 FILLER_34_85
*2245 FILLER_34_9
*2246 FILLER_35_103
*2247 FILLER_35_111
*2248 FILLER_35_113
*2249 FILLER_35_116
*2250 FILLER_35_12
*2251 FILLER_35_127
*2252 FILLER_35_130
*2253 FILLER_35_133
*2254 FILLER_35_136
*2255 FILLER_35_15
*2256 FILLER_35_150
*2257 FILLER_35_153
*2258 FILLER_35_156
*2259 FILLER_35_159
*2260 FILLER_35_162
*2261 FILLER_35_169
*2262 FILLER_35_196
*2263 FILLER_35_221
*2264 FILLER_35_233
*2265 FILLER_35_266
*2266 FILLER_35_269
*2267 FILLER_35_272
*2268 FILLER_35_275
*2269 FILLER_35_278
*2270 FILLER_35_28
*2271 FILLER_35_288
*2272 FILLER_35_3
*2273 FILLER_35_305
*2274 FILLER_35_308
*2275 FILLER_35_31
*2276 FILLER_35_311
*2277 FILLER_35_314
*2278 FILLER_35_317
*2279 FILLER_35_34
*2280 FILLER_35_37
*2281 FILLER_35_40
*2282 FILLER_35_6
*2283 FILLER_35_68
*2284 FILLER_35_9
*2285 FILLER_35_90
*2286 FILLER_36_113
*2287 FILLER_36_137
*2288 FILLER_36_162
*2289 FILLER_36_194
*2290 FILLER_36_197
*2291 FILLER_36_242
*2292 FILLER_36_253
*2293 FILLER_36_277
*2294 FILLER_36_285
*2295 FILLER_36_288
*2296 FILLER_36_291
*2297 FILLER_36_297
*2298 FILLER_36_3
*2299 FILLER_36_300
*2300 FILLER_36_303
*2301 FILLER_36_306
*2302 FILLER_36_309
*2303 FILLER_36_312
*2304 FILLER_36_315
*2305 FILLER_36_318
*2306 FILLER_36_34
*2307 FILLER_36_37
*2308 FILLER_36_40
*2309 FILLER_36_43
*2310 FILLER_36_46
*2311 FILLER_36_6
*2312 FILLER_36_80
*2313 FILLER_36_83
*2314 FILLER_36_85
*2315 FILLER_37_109
*2316 FILLER_37_113
*2317 FILLER_37_165
*2318 FILLER_37_169
*2319 FILLER_37_221
*2320 FILLER_37_239
*2321 FILLER_37_242
*2322 FILLER_37_245
*2323 FILLER_37_248
*2324 FILLER_37_251
*2325 FILLER_37_261
*2326 FILLER_37_264
*2327 FILLER_37_267
*2328 FILLER_37_275
*2329 FILLER_37_278
*2330 FILLER_37_281
*2331 FILLER_37_284
*2332 FILLER_37_287
*2333 FILLER_37_290
*2334 FILLER_37_293
*2335 FILLER_37_296
*2336 FILLER_37_3
*2337 FILLER_37_315
*2338 FILLER_37_318
*2339 FILLER_37_42
*2340 FILLER_37_45
*2341 FILLER_37_48
*2342 FILLER_37_83
*2343 FILLER_37_86
*2344 FILLER_38_100
*2345 FILLER_38_110
*2346 FILLER_38_113
*2347 FILLER_38_134
*2348 FILLER_38_149
*2349 FILLER_38_178
*2350 FILLER_38_181
*2351 FILLER_38_184
*2352 FILLER_38_187
*2353 FILLER_38_193
*2354 FILLER_38_197
*2355 FILLER_38_200
*2356 FILLER_38_220
*2357 FILLER_38_223
*2358 FILLER_38_236
*2359 FILLER_38_239
*2360 FILLER_38_242
*2361 FILLER_38_245
*2362 FILLER_38_248
*2363 FILLER_38_251
*2364 FILLER_38_253
*2365 FILLER_38_256
*2366 FILLER_38_269
*2367 FILLER_38_272
*2368 FILLER_38_282
*2369 FILLER_38_285
*2370 FILLER_38_3
*2371 FILLER_38_317
*2372 FILLER_38_37
*2373 FILLER_38_40
*2374 FILLER_38_43
*2375 FILLER_38_46
*2376 FILLER_38_49
*2377 FILLER_38_78
*2378 FILLER_38_81
*2379 FILLER_38_85
*2380 FILLER_38_88
*2381 FILLER_38_91
*2382 FILLER_39_125
*2383 FILLER_39_128
*2384 FILLER_39_137
*2385 FILLER_39_140
*2386 FILLER_39_148
*2387 FILLER_39_157
*2388 FILLER_39_160
*2389 FILLER_39_163
*2390 FILLER_39_166
*2391 FILLER_39_169
*2392 FILLER_39_172
*2393 FILLER_39_175
*2394 FILLER_39_178
*2395 FILLER_39_181
*2396 FILLER_39_184
*2397 FILLER_39_187
*2398 FILLER_39_190
*2399 FILLER_39_193
*2400 FILLER_39_196
*2401 FILLER_39_199
*2402 FILLER_39_202
*2403 FILLER_39_214
*2404 FILLER_39_217
*2405 FILLER_39_220
*2406 FILLER_39_223
*2407 FILLER_39_225
*2408 FILLER_39_228
*2409 FILLER_39_246
*2410 FILLER_39_249
*2411 FILLER_39_252
*2412 FILLER_39_289
*2413 FILLER_39_292
*2414 FILLER_39_3
*2415 FILLER_39_35
*2416 FILLER_39_45
*2417 FILLER_39_48
*2418 FILLER_39_57
*2419 FILLER_39_6
*2420 FILLER_39_60
*2421 FILLER_39_69
*2422 FILLER_39_79
*2423 FILLER_39_82
*2424 FILLER_39_99
*2425 FILLER_3_118
*2426 FILLER_3_12
*2427 FILLER_3_121
*2428 FILLER_3_15
*2429 FILLER_3_165
*2430 FILLER_3_169
*2431 FILLER_3_199
*2432 FILLER_3_236
*2433 FILLER_3_239
*2434 FILLER_3_24
*2435 FILLER_3_242
*2436 FILLER_3_27
*2437 FILLER_3_271
*2438 FILLER_3_274
*2439 FILLER_3_3
*2440 FILLER_3_30
*2441 FILLER_3_311
*2442 FILLER_3_314
*2443 FILLER_3_317
*2444 FILLER_3_33
*2445 FILLER_3_6
*2446 FILLER_3_78
*2447 FILLER_3_81
*2448 FILLER_3_84
*2449 FILLER_3_87
*2450 FILLER_3_9
*2451 FILLER_40_114
*2452 FILLER_40_117
*2453 FILLER_40_120
*2454 FILLER_40_123
*2455 FILLER_40_126
*2456 FILLER_40_129
*2457 FILLER_40_135
*2458 FILLER_40_138
*2459 FILLER_40_141
*2460 FILLER_40_144
*2461 FILLER_40_147
*2462 FILLER_40_150
*2463 FILLER_40_153
*2464 FILLER_40_156
*2465 FILLER_40_159
*2466 FILLER_40_166
*2467 FILLER_40_169
*2468 FILLER_40_172
*2469 FILLER_40_175
*2470 FILLER_40_178
*2471 FILLER_40_187
*2472 FILLER_40_190
*2473 FILLER_40_193
*2474 FILLER_40_197
*2475 FILLER_40_200
*2476 FILLER_40_203
*2477 FILLER_40_206
*2478 FILLER_40_209
*2479 FILLER_40_212
*2480 FILLER_40_215
*2481 FILLER_40_223
*2482 FILLER_40_246
*2483 FILLER_40_249
*2484 FILLER_40_25
*2485 FILLER_40_264
*2486 FILLER_40_287
*2487 FILLER_40_29
*2488 FILLER_40_3
*2489 FILLER_40_309
*2490 FILLER_40_32
*2491 FILLER_40_55
*2492 FILLER_40_58
*2493 FILLER_40_76
*2494 FILLER_40_79
*2495 FILLER_40_82
*2496 FILLER_40_85
*2497 FILLER_40_98
*2498 FILLER_41_113
*2499 FILLER_41_116
*2500 FILLER_41_136
*2501 FILLER_41_139
*2502 FILLER_41_142
*2503 FILLER_41_145
*2504 FILLER_41_169
*2505 FILLER_41_190
*2506 FILLER_41_207
*2507 FILLER_41_210
*2508 FILLER_41_213
*2509 FILLER_41_223
*2510 FILLER_41_233
*2511 FILLER_41_236
*2512 FILLER_41_248
*2513 FILLER_41_261
*2514 FILLER_41_289
*2515 FILLER_41_3
*2516 FILLER_41_316
*2517 FILLER_41_319
*2518 FILLER_41_42
*2519 FILLER_41_45
*2520 FILLER_41_48
*2521 FILLER_41_57
*2522 FILLER_41_79
*2523 FILLER_41_82
*2524 FILLER_42_106
*2525 FILLER_42_109
*2526 FILLER_42_11
*2527 FILLER_42_112
*2528 FILLER_42_136
*2529 FILLER_42_139
*2530 FILLER_42_14
*2531 FILLER_42_141
*2532 FILLER_42_144
*2533 FILLER_42_147
*2534 FILLER_42_17
*2535 FILLER_42_171
*2536 FILLER_42_174
*2537 FILLER_42_205
*2538 FILLER_42_208
*2539 FILLER_42_247
*2540 FILLER_42_250
*2541 FILLER_42_270
*2542 FILLER_42_29
*2543 FILLER_42_292
*2544 FILLER_42_3
*2545 FILLER_42_309
*2546 FILLER_42_312
*2547 FILLER_42_315
*2548 FILLER_42_318
*2549 FILLER_42_32
*2550 FILLER_42_42
*2551 FILLER_42_45
*2552 FILLER_42_48
*2553 FILLER_42_51
*2554 FILLER_42_6
*2555 FILLER_42_79
*2556 FILLER_42_82
*2557 FILLER_43_105
*2558 FILLER_43_108
*2559 FILLER_43_11
*2560 FILLER_43_111
*2561 FILLER_43_113
*2562 FILLER_43_14
*2563 FILLER_43_144
*2564 FILLER_43_175
*2565 FILLER_43_199
*2566 FILLER_43_202
*2567 FILLER_43_241
*2568 FILLER_43_278
*2569 FILLER_43_28
*2570 FILLER_43_281
*2571 FILLER_43_284
*2572 FILLER_43_287
*2573 FILLER_43_291
*2574 FILLER_43_300
*2575 FILLER_43_308
*2576 FILLER_43_311
*2577 FILLER_43_34
*2578 FILLER_43_37
*2579 FILLER_43_40
*2580 FILLER_43_43
*2581 FILLER_43_46
*2582 FILLER_43_78
*2583 FILLER_43_81
*2584 FILLER_43_84
*2585 FILLER_43_87
*2586 FILLER_43_90
*2587 FILLER_43_93
*2588 FILLER_43_96
*2589 FILLER_44_104
*2590 FILLER_44_135
*2591 FILLER_44_138
*2592 FILLER_44_141
*2593 FILLER_44_144
*2594 FILLER_44_147
*2595 FILLER_44_150
*2596 FILLER_44_197
*2597 FILLER_44_200
*2598 FILLER_44_203
*2599 FILLER_44_206
*2600 FILLER_44_243
*2601 FILLER_44_246
*2602 FILLER_44_249
*2603 FILLER_44_253
*2604 FILLER_44_256
*2605 FILLER_44_264
*2606 FILLER_44_286
*2607 FILLER_44_289
*2608 FILLER_44_292
*2609 FILLER_44_295
*2610 FILLER_44_298
*2611 FILLER_44_3
*2612 FILLER_44_306
*2613 FILLER_44_309
*2614 FILLER_44_312
*2615 FILLER_44_315
*2616 FILLER_44_318
*2617 FILLER_44_37
*2618 FILLER_44_40
*2619 FILLER_44_6
*2620 FILLER_44_82
*2621 FILLER_44_85
*2622 FILLER_45_107
*2623 FILLER_45_110
*2624 FILLER_45_113
*2625 FILLER_45_134
*2626 FILLER_45_137
*2627 FILLER_45_140
*2628 FILLER_45_143
*2629 FILLER_45_146
*2630 FILLER_45_149
*2631 FILLER_45_152
*2632 FILLER_45_155
*2633 FILLER_45_158
*2634 FILLER_45_161
*2635 FILLER_45_169
*2636 FILLER_45_172
*2637 FILLER_45_175
*2638 FILLER_45_187
*2639 FILLER_45_209
*2640 FILLER_45_212
*2641 FILLER_45_215
*2642 FILLER_45_223
*2643 FILLER_45_233
*2644 FILLER_45_236
*2645 FILLER_45_239
*2646 FILLER_45_242
*2647 FILLER_45_278
*2648 FILLER_45_286
*2649 FILLER_45_289
*2650 FILLER_45_3
*2651 FILLER_45_313
*2652 FILLER_45_316
*2653 FILLER_45_319
*2654 FILLER_45_35
*2655 FILLER_45_38
*2656 FILLER_45_41
*2657 FILLER_45_44
*2658 FILLER_45_47
*2659 FILLER_45_6
*2660 FILLER_45_78
*2661 FILLER_45_81
*2662 FILLER_45_84
*2663 FILLER_46_111
*2664 FILLER_46_127
*2665 FILLER_46_136
*2666 FILLER_46_139
*2667 FILLER_46_141
*2668 FILLER_46_144
*2669 FILLER_46_147
*2670 FILLER_46_150
*2671 FILLER_46_153
*2672 FILLER_46_156
*2673 FILLER_46_159
*2674 FILLER_46_165
*2675 FILLER_46_168
*2676 FILLER_46_171
*2677 FILLER_46_174
*2678 FILLER_46_177
*2679 FILLER_46_180
*2680 FILLER_46_197
*2681 FILLER_46_200
*2682 FILLER_46_203
*2683 FILLER_46_206
*2684 FILLER_46_22
*2685 FILLER_46_229
*2686 FILLER_46_232
*2687 FILLER_46_235
*2688 FILLER_46_238
*2689 FILLER_46_241
*2690 FILLER_46_244
*2691 FILLER_46_247
*2692 FILLER_46_25
*2693 FILLER_46_250
*2694 FILLER_46_253
*2695 FILLER_46_277
*2696 FILLER_46_280
*2697 FILLER_46_283
*2698 FILLER_46_286
*2699 FILLER_46_289
*2700 FILLER_46_292
*2701 FILLER_46_3
*2702 FILLER_46_317
*2703 FILLER_46_37
*2704 FILLER_46_40
*2705 FILLER_46_43
*2706 FILLER_46_46
*2707 FILLER_46_49
*2708 FILLER_46_52
*2709 FILLER_46_6
*2710 FILLER_46_72
*2711 FILLER_46_75
*2712 FILLER_46_78
*2713 FILLER_46_81
*2714 FILLER_46_85
*2715 FILLER_46_88
*2716 FILLER_47_100
*2717 FILLER_47_109
*2718 FILLER_47_113
*2719 FILLER_47_124
*2720 FILLER_47_127
*2721 FILLER_47_140
*2722 FILLER_47_143
*2723 FILLER_47_146
*2724 FILLER_47_149
*2725 FILLER_47_152
*2726 FILLER_47_167
*2727 FILLER_47_169
*2728 FILLER_47_172
*2729 FILLER_47_175
*2730 FILLER_47_178
*2731 FILLER_47_181
*2732 FILLER_47_203
*2733 FILLER_47_206
*2734 FILLER_47_209
*2735 FILLER_47_212
*2736 FILLER_47_218
*2737 FILLER_47_221
*2738 FILLER_47_225
*2739 FILLER_47_228
*2740 FILLER_47_231
*2741 FILLER_47_234
*2742 FILLER_47_237
*2743 FILLER_47_240
*2744 FILLER_47_269
*2745 FILLER_47_279
*2746 FILLER_47_281
*2747 FILLER_47_284
*2748 FILLER_47_287
*2749 FILLER_47_290
*2750 FILLER_47_3
*2751 FILLER_47_313
*2752 FILLER_47_316
*2753 FILLER_47_319
*2754 FILLER_47_33
*2755 FILLER_47_36
*2756 FILLER_47_39
*2757 FILLER_47_42
*2758 FILLER_47_45
*2759 FILLER_47_48
*2760 FILLER_47_51
*2761 FILLER_47_54
*2762 FILLER_47_63
*2763 FILLER_47_74
*2764 FILLER_47_77
*2765 FILLER_47_80
*2766 FILLER_47_83
*2767 FILLER_47_86
*2768 FILLER_47_97
*2769 FILLER_48_102
*2770 FILLER_48_105
*2771 FILLER_48_108
*2772 FILLER_48_111
*2773 FILLER_48_114
*2774 FILLER_48_117
*2775 FILLER_48_120
*2776 FILLER_48_139
*2777 FILLER_48_141
*2778 FILLER_48_144
*2779 FILLER_48_147
*2780 FILLER_48_176
*2781 FILLER_48_179
*2782 FILLER_48_182
*2783 FILLER_48_193
*2784 FILLER_48_197
*2785 FILLER_48_203
*2786 FILLER_48_234
*2787 FILLER_48_253
*2788 FILLER_48_264
*2789 FILLER_48_267
*2790 FILLER_48_270
*2791 FILLER_48_279
*2792 FILLER_48_282
*2793 FILLER_48_285
*2794 FILLER_48_288
*2795 FILLER_48_29
*2796 FILLER_48_291
*2797 FILLER_48_294
*2798 FILLER_48_3
*2799 FILLER_48_309
*2800 FILLER_48_312
*2801 FILLER_48_315
*2802 FILLER_48_318
*2803 FILLER_48_32
*2804 FILLER_48_35
*2805 FILLER_48_38
*2806 FILLER_48_41
*2807 FILLER_48_44
*2808 FILLER_48_47
*2809 FILLER_48_6
*2810 FILLER_48_71
*2811 FILLER_48_74
*2812 FILLER_48_77
*2813 FILLER_48_80
*2814 FILLER_48_83
*2815 FILLER_48_85
*2816 FILLER_48_9
*2817 FILLER_49_108
*2818 FILLER_49_111
*2819 FILLER_49_113
*2820 FILLER_49_116
*2821 FILLER_49_12
*2822 FILLER_49_146
*2823 FILLER_49_15
*2824 FILLER_49_177
*2825 FILLER_49_18
*2826 FILLER_49_200
*2827 FILLER_49_21
*2828 FILLER_49_225
*2829 FILLER_49_228
*2830 FILLER_49_235
*2831 FILLER_49_24
*2832 FILLER_49_264
*2833 FILLER_49_27
*2834 FILLER_49_273
*2835 FILLER_49_281
*2836 FILLER_49_3
*2837 FILLER_49_30
*2838 FILLER_49_319
*2839 FILLER_49_33
*2840 FILLER_49_36
*2841 FILLER_49_39
*2842 FILLER_49_42
*2843 FILLER_49_45
*2844 FILLER_49_48
*2845 FILLER_49_51
*2846 FILLER_49_54
*2847 FILLER_49_57
*2848 FILLER_49_6
*2849 FILLER_49_60
*2850 FILLER_49_63
*2851 FILLER_49_66
*2852 FILLER_49_69
*2853 FILLER_49_72
*2854 FILLER_49_75
*2855 FILLER_49_78
*2856 FILLER_49_81
*2857 FILLER_49_9
*2858 FILLER_4_119
*2859 FILLER_4_122
*2860 FILLER_4_125
*2861 FILLER_4_157
*2862 FILLER_4_160
*2863 FILLER_4_163
*2864 FILLER_4_166
*2865 FILLER_4_192
*2866 FILLER_4_195
*2867 FILLER_4_197
*2868 FILLER_4_200
*2869 FILLER_4_203
*2870 FILLER_4_206
*2871 FILLER_4_209
*2872 FILLER_4_232
*2873 FILLER_4_235
*2874 FILLER_4_238
*2875 FILLER_4_241
*2876 FILLER_4_244
*2877 FILLER_4_253
*2878 FILLER_4_271
*2879 FILLER_4_274
*2880 FILLER_4_277
*2881 FILLER_4_29
*2882 FILLER_4_3
*2883 FILLER_4_306
*2884 FILLER_4_316
*2885 FILLER_4_319
*2886 FILLER_4_32
*2887 FILLER_4_35
*2888 FILLER_4_38
*2889 FILLER_4_41
*2890 FILLER_4_44
*2891 FILLER_4_47
*2892 FILLER_4_6
*2893 FILLER_4_74
*2894 FILLER_4_77
*2895 FILLER_4_80
*2896 FILLER_4_83
*2897 FILLER_4_85
*2898 FILLER_50_106
*2899 FILLER_50_12
*2900 FILLER_50_137
*2901 FILLER_50_148
*2902 FILLER_50_15
*2903 FILLER_50_18
*2904 FILLER_50_197
*2905 FILLER_50_21
*2906 FILLER_50_24
*2907 FILLER_50_27
*2908 FILLER_50_29
*2909 FILLER_50_3
*2910 FILLER_50_302
*2911 FILLER_50_305
*2912 FILLER_50_309
*2913 FILLER_50_312
*2914 FILLER_50_315
*2915 FILLER_50_318
*2916 FILLER_50_32
*2917 FILLER_50_35
*2918 FILLER_50_38
*2919 FILLER_50_41
*2920 FILLER_50_44
*2921 FILLER_50_47
*2922 FILLER_50_50
*2923 FILLER_50_53
*2924 FILLER_50_56
*2925 FILLER_50_59
*2926 FILLER_50_6
*2927 FILLER_50_62
*2928 FILLER_50_65
*2929 FILLER_50_68
*2930 FILLER_50_71
*2931 FILLER_50_74
*2932 FILLER_50_9
*2933 FILLER_51_101
*2934 FILLER_51_113
*2935 FILLER_51_116
*2936 FILLER_51_12
*2937 FILLER_51_147
*2938 FILLER_51_15
*2939 FILLER_51_150
*2940 FILLER_51_153
*2941 FILLER_51_156
*2942 FILLER_51_162
*2943 FILLER_51_165
*2944 FILLER_51_169
*2945 FILLER_51_172
*2946 FILLER_51_18
*2947 FILLER_51_202
*2948 FILLER_51_21
*2949 FILLER_51_233
*2950 FILLER_51_236
*2951 FILLER_51_24
*2952 FILLER_51_267
*2953 FILLER_51_27
*2954 FILLER_51_270
*2955 FILLER_51_292
*2956 FILLER_51_3
*2957 FILLER_51_30
*2958 FILLER_51_308
*2959 FILLER_51_311
*2960 FILLER_51_314
*2961 FILLER_51_317
*2962 FILLER_51_33
*2963 FILLER_51_36
*2964 FILLER_51_39
*2965 FILLER_51_42
*2966 FILLER_51_45
*2967 FILLER_51_48
*2968 FILLER_51_51
*2969 FILLER_51_54
*2970 FILLER_51_57
*2971 FILLER_51_6
*2972 FILLER_51_60
*2973 FILLER_51_63
*2974 FILLER_51_66
*2975 FILLER_51_69
*2976 FILLER_51_72
*2977 FILLER_51_75
*2978 FILLER_51_78
*2979 FILLER_51_9
*2980 FILLER_52_110
*2981 FILLER_52_113
*2982 FILLER_52_116
*2983 FILLER_52_119
*2984 FILLER_52_12
*2985 FILLER_52_122
*2986 FILLER_52_141
*2987 FILLER_52_144
*2988 FILLER_52_147
*2989 FILLER_52_15
*2990 FILLER_52_150
*2991 FILLER_52_153
*2992 FILLER_52_156
*2993 FILLER_52_159
*2994 FILLER_52_162
*2995 FILLER_52_165
*2996 FILLER_52_168
*2997 FILLER_52_171
*2998 FILLER_52_18
*2999 FILLER_52_197
*3000 FILLER_52_204
*3001 FILLER_52_207
*3002 FILLER_52_21
*3003 FILLER_52_210
*3004 FILLER_52_221
*3005 FILLER_52_224
*3006 FILLER_52_227
*3007 FILLER_52_230
*3008 FILLER_52_233
*3009 FILLER_52_236
*3010 FILLER_52_239
*3011 FILLER_52_24
*3012 FILLER_52_242
*3013 FILLER_52_245
*3014 FILLER_52_248
*3015 FILLER_52_251
*3016 FILLER_52_253
*3017 FILLER_52_260
*3018 FILLER_52_269
*3019 FILLER_52_27
*3020 FILLER_52_29
*3021 FILLER_52_3
*3022 FILLER_52_300
*3023 FILLER_52_303
*3024 FILLER_52_306
*3025 FILLER_52_309
*3026 FILLER_52_312
*3027 FILLER_52_315
*3028 FILLER_52_318
*3029 FILLER_52_32
*3030 FILLER_52_35
*3031 FILLER_52_38
*3032 FILLER_52_41
*3033 FILLER_52_44
*3034 FILLER_52_47
*3035 FILLER_52_50
*3036 FILLER_52_53
*3037 FILLER_52_56
*3038 FILLER_52_59
*3039 FILLER_52_6
*3040 FILLER_52_62
*3041 FILLER_52_65
*3042 FILLER_52_68
*3043 FILLER_52_71
*3044 FILLER_52_74
*3045 FILLER_52_77
*3046 FILLER_52_80
*3047 FILLER_52_83
*3048 FILLER_52_9
*3049 FILLER_53_101
*3050 FILLER_53_104
*3051 FILLER_53_107
*3052 FILLER_53_110
*3053 FILLER_53_113
*3054 FILLER_53_116
*3055 FILLER_53_12
*3056 FILLER_53_122
*3057 FILLER_53_125
*3058 FILLER_53_128
*3059 FILLER_53_138
*3060 FILLER_53_141
*3061 FILLER_53_144
*3062 FILLER_53_147
*3063 FILLER_53_15
*3064 FILLER_53_150
*3065 FILLER_53_153
*3066 FILLER_53_156
*3067 FILLER_53_159
*3068 FILLER_53_162
*3069 FILLER_53_165
*3070 FILLER_53_169
*3071 FILLER_53_172
*3072 FILLER_53_175
*3073 FILLER_53_178
*3074 FILLER_53_18
*3075 FILLER_53_181
*3076 FILLER_53_184
*3077 FILLER_53_187
*3078 FILLER_53_190
*3079 FILLER_53_193
*3080 FILLER_53_197
*3081 FILLER_53_200
*3082 FILLER_53_203
*3083 FILLER_53_208
*3084 FILLER_53_21
*3085 FILLER_53_211
*3086 FILLER_53_214
*3087 FILLER_53_217
*3088 FILLER_53_220
*3089 FILLER_53_223
*3090 FILLER_53_225
*3091 FILLER_53_228
*3092 FILLER_53_231
*3093 FILLER_53_234
*3094 FILLER_53_237
*3095 FILLER_53_24
*3096 FILLER_53_240
*3097 FILLER_53_243
*3098 FILLER_53_246
*3099 FILLER_53_249
*3100 FILLER_53_253
*3101 FILLER_53_256
*3102 FILLER_53_259
*3103 FILLER_53_262
*3104 FILLER_53_265
*3105 FILLER_53_268
*3106 FILLER_53_27
*3107 FILLER_53_271
*3108 FILLER_53_281
*3109 FILLER_53_284
*3110 FILLER_53_287
*3111 FILLER_53_29
*3112 FILLER_53_290
*3113 FILLER_53_299
*3114 FILLER_53_3
*3115 FILLER_53_302
*3116 FILLER_53_305
*3117 FILLER_53_309
*3118 FILLER_53_312
*3119 FILLER_53_315
*3120 FILLER_53_318
*3121 FILLER_53_32
*3122 FILLER_53_36
*3123 FILLER_53_39
*3124 FILLER_53_42
*3125 FILLER_53_45
*3126 FILLER_53_48
*3127 FILLER_53_51
*3128 FILLER_53_54
*3129 FILLER_53_57
*3130 FILLER_53_6
*3131 FILLER_53_60
*3132 FILLER_53_63
*3133 FILLER_53_66
*3134 FILLER_53_69
*3135 FILLER_53_72
*3136 FILLER_53_75
*3137 FILLER_53_78
*3138 FILLER_53_81
*3139 FILLER_53_85
*3140 FILLER_53_88
*3141 FILLER_53_9
*3142 FILLER_53_95
*3143 FILLER_53_98
*3144 FILLER_5_113
*3145 FILLER_5_116
*3146 FILLER_5_119
*3147 FILLER_5_12
*3148 FILLER_5_122
*3149 FILLER_5_125
*3150 FILLER_5_128
*3151 FILLER_5_152
*3152 FILLER_5_155
*3153 FILLER_5_158
*3154 FILLER_5_161
*3155 FILLER_5_164
*3156 FILLER_5_167
*3157 FILLER_5_169
*3158 FILLER_5_193
*3159 FILLER_5_196
*3160 FILLER_5_199
*3161 FILLER_5_202
*3162 FILLER_5_205
*3163 FILLER_5_231
*3164 FILLER_5_234
*3165 FILLER_5_237
*3166 FILLER_5_240
*3167 FILLER_5_243
*3168 FILLER_5_246
*3169 FILLER_5_25
*3170 FILLER_5_265
*3171 FILLER_5_268
*3172 FILLER_5_271
*3173 FILLER_5_274
*3174 FILLER_5_277
*3175 FILLER_5_28
*3176 FILLER_5_281
*3177 FILLER_5_284
*3178 FILLER_5_287
*3179 FILLER_5_295
*3180 FILLER_5_298
*3181 FILLER_5_3
*3182 FILLER_5_31
*3183 FILLER_5_34
*3184 FILLER_5_37
*3185 FILLER_5_40
*3186 FILLER_5_43
*3187 FILLER_5_46
*3188 FILLER_5_57
*3189 FILLER_5_6
*3190 FILLER_5_65
*3191 FILLER_5_68
*3192 FILLER_5_71
*3193 FILLER_5_74
*3194 FILLER_5_77
*3195 FILLER_5_80
*3196 FILLER_5_83
*3197 FILLER_5_9
*3198 FILLER_6_107
*3199 FILLER_6_110
*3200 FILLER_6_113
*3201 FILLER_6_116
*3202 FILLER_6_119
*3203 FILLER_6_122
*3204 FILLER_6_125
*3205 FILLER_6_128
*3206 FILLER_6_131
*3207 FILLER_6_134
*3208 FILLER_6_137
*3209 FILLER_6_146
*3210 FILLER_6_149
*3211 FILLER_6_152
*3212 FILLER_6_155
*3213 FILLER_6_158
*3214 FILLER_6_161
*3215 FILLER_6_164
*3216 FILLER_6_167
*3217 FILLER_6_170
*3218 FILLER_6_173
*3219 FILLER_6_192
*3220 FILLER_6_195
*3221 FILLER_6_197
*3222 FILLER_6_200
*3223 FILLER_6_203
*3224 FILLER_6_206
*3225 FILLER_6_209
*3226 FILLER_6_212
*3227 FILLER_6_215
*3228 FILLER_6_229
*3229 FILLER_6_232
*3230 FILLER_6_235
*3231 FILLER_6_238
*3232 FILLER_6_24
*3233 FILLER_6_241
*3234 FILLER_6_244
*3235 FILLER_6_247
*3236 FILLER_6_250
*3237 FILLER_6_27
*3238 FILLER_6_282
*3239 FILLER_6_285
*3240 FILLER_6_288
*3241 FILLER_6_29
*3242 FILLER_6_291
*3243 FILLER_6_294
*3244 FILLER_6_297
*3245 FILLER_6_3
*3246 FILLER_6_305
*3247 FILLER_6_309
*3248 FILLER_6_312
*3249 FILLER_6_315
*3250 FILLER_6_318
*3251 FILLER_6_32
*3252 FILLER_6_35
*3253 FILLER_6_38
*3254 FILLER_6_41
*3255 FILLER_6_44
*3256 FILLER_6_47
*3257 FILLER_6_50
*3258 FILLER_6_53
*3259 FILLER_6_6
*3260 FILLER_6_60
*3261 FILLER_6_63
*3262 FILLER_6_66
*3263 FILLER_6_69
*3264 FILLER_6_72
*3265 FILLER_6_75
*3266 FILLER_6_78
*3267 FILLER_6_81
*3268 FILLER_6_85
*3269 FILLER_6_9
*3270 FILLER_7_113
*3271 FILLER_7_116
*3272 FILLER_7_119
*3273 FILLER_7_12
*3274 FILLER_7_122
*3275 FILLER_7_125
*3276 FILLER_7_128
*3277 FILLER_7_131
*3278 FILLER_7_155
*3279 FILLER_7_158
*3280 FILLER_7_161
*3281 FILLER_7_164
*3282 FILLER_7_167
*3283 FILLER_7_169
*3284 FILLER_7_172
*3285 FILLER_7_175
*3286 FILLER_7_183
*3287 FILLER_7_186
*3288 FILLER_7_189
*3289 FILLER_7_192
*3290 FILLER_7_195
*3291 FILLER_7_198
*3292 FILLER_7_201
*3293 FILLER_7_204
*3294 FILLER_7_222
*3295 FILLER_7_231
*3296 FILLER_7_234
*3297 FILLER_7_237
*3298 FILLER_7_240
*3299 FILLER_7_243
*3300 FILLER_7_246
*3301 FILLER_7_249
*3302 FILLER_7_276
*3303 FILLER_7_279
*3304 FILLER_7_281
*3305 FILLER_7_284
*3306 FILLER_7_287
*3307 FILLER_7_290
*3308 FILLER_7_293
*3309 FILLER_7_296
*3310 FILLER_7_299
*3311 FILLER_7_3
*3312 FILLER_7_307
*3313 FILLER_7_310
*3314 FILLER_7_313
*3315 FILLER_7_316
*3316 FILLER_7_319
*3317 FILLER_7_34
*3318 FILLER_7_37
*3319 FILLER_7_40
*3320 FILLER_7_43
*3321 FILLER_7_46
*3322 FILLER_7_49
*3323 FILLER_7_52
*3324 FILLER_7_55
*3325 FILLER_7_6
*3326 FILLER_7_64
*3327 FILLER_7_67
*3328 FILLER_7_70
*3329 FILLER_7_73
*3330 FILLER_7_76
*3331 FILLER_7_79
*3332 FILLER_7_82
*3333 FILLER_7_85
*3334 FILLER_7_88
*3335 FILLER_7_9
*3336 FILLER_7_91
*3337 FILLER_8_118
*3338 FILLER_8_121
*3339 FILLER_8_141
*3340 FILLER_8_144
*3341 FILLER_8_153
*3342 FILLER_8_156
*3343 FILLER_8_159
*3344 FILLER_8_162
*3345 FILLER_8_165
*3346 FILLER_8_168
*3347 FILLER_8_171
*3348 FILLER_8_174
*3349 FILLER_8_188
*3350 FILLER_8_191
*3351 FILLER_8_194
*3352 FILLER_8_197
*3353 FILLER_8_200
*3354 FILLER_8_203
*3355 FILLER_8_213
*3356 FILLER_8_234
*3357 FILLER_8_237
*3358 FILLER_8_240
*3359 FILLER_8_243
*3360 FILLER_8_274
*3361 FILLER_8_277
*3362 FILLER_8_280
*3363 FILLER_8_283
*3364 FILLER_8_286
*3365 FILLER_8_289
*3366 FILLER_8_292
*3367 FILLER_8_3
*3368 FILLER_8_304
*3369 FILLER_8_307
*3370 FILLER_8_309
*3371 FILLER_8_312
*3372 FILLER_8_315
*3373 FILLER_8_318
*3374 FILLER_8_39
*3375 FILLER_8_42
*3376 FILLER_8_6
*3377 FILLER_8_69
*3378 FILLER_8_72
*3379 FILLER_8_75
*3380 FILLER_8_78
*3381 FILLER_8_81
*3382 FILLER_8_85
*3383 FILLER_8_88
*3384 FILLER_9_113
*3385 FILLER_9_116
*3386 FILLER_9_119
*3387 FILLER_9_122
*3388 FILLER_9_125
*3389 FILLER_9_128
*3390 FILLER_9_131
*3391 FILLER_9_160
*3392 FILLER_9_163
*3393 FILLER_9_166
*3394 FILLER_9_169
*3395 FILLER_9_191
*3396 FILLER_9_194
*3397 FILLER_9_197
*3398 FILLER_9_200
*3399 FILLER_9_239
*3400 FILLER_9_242
*3401 FILLER_9_273
*3402 FILLER_9_279
*3403 FILLER_9_281
*3404 FILLER_9_284
*3405 FILLER_9_3
*3406 FILLER_9_312
*3407 FILLER_9_315
*3408 FILLER_9_318
*3409 FILLER_9_39
*3410 FILLER_9_46
*3411 FILLER_9_6
*3412 FILLER_9_78
*3413 FILLER_9_81
*3414 FILLER_9_84
*3415 FILLER_9_87
*3416 FILLER_9_9
*3417 FILLER_9_90
*3418 PHY_EDGE_ROW_0_Left_54
*3419 PHY_EDGE_ROW_0_Right_0
*3420 PHY_EDGE_ROW_10_Left_64
*3421 PHY_EDGE_ROW_10_Right_10
*3422 PHY_EDGE_ROW_11_Left_65
*3423 PHY_EDGE_ROW_11_Right_11
*3424 PHY_EDGE_ROW_12_Left_66
*3425 PHY_EDGE_ROW_12_Right_12
*3426 PHY_EDGE_ROW_13_Left_67
*3427 PHY_EDGE_ROW_13_Right_13
*3428 PHY_EDGE_ROW_14_Left_68
*3429 PHY_EDGE_ROW_14_Right_14
*3430 PHY_EDGE_ROW_15_Left_69
*3431 PHY_EDGE_ROW_15_Right_15
*3432 PHY_EDGE_ROW_16_Left_70
*3433 PHY_EDGE_ROW_16_Right_16
*3434 PHY_EDGE_ROW_17_Left_71
*3435 PHY_EDGE_ROW_17_Right_17
*3436 PHY_EDGE_ROW_18_Left_72
*3437 PHY_EDGE_ROW_18_Right_18
*3438 PHY_EDGE_ROW_19_Left_73
*3439 PHY_EDGE_ROW_19_Right_19
*3440 PHY_EDGE_ROW_1_Left_55
*3441 PHY_EDGE_ROW_1_Right_1
*3442 PHY_EDGE_ROW_20_Left_74
*3443 PHY_EDGE_ROW_20_Right_20
*3444 PHY_EDGE_ROW_21_Left_75
*3445 PHY_EDGE_ROW_21_Right_21
*3446 PHY_EDGE_ROW_22_Left_76
*3447 PHY_EDGE_ROW_22_Right_22
*3448 PHY_EDGE_ROW_23_Left_77
*3449 PHY_EDGE_ROW_23_Right_23
*3450 PHY_EDGE_ROW_24_Left_78
*3451 PHY_EDGE_ROW_24_Right_24
*3452 PHY_EDGE_ROW_25_Left_79
*3453 PHY_EDGE_ROW_25_Right_25
*3454 PHY_EDGE_ROW_26_Left_80
*3455 PHY_EDGE_ROW_26_Right_26
*3456 PHY_EDGE_ROW_27_Left_81
*3457 PHY_EDGE_ROW_27_Right_27
*3458 PHY_EDGE_ROW_28_Left_82
*3459 PHY_EDGE_ROW_28_Right_28
*3460 PHY_EDGE_ROW_29_Left_83
*3461 PHY_EDGE_ROW_29_Right_29
*3462 PHY_EDGE_ROW_2_Left_56
*3463 PHY_EDGE_ROW_2_Right_2
*3464 PHY_EDGE_ROW_30_Left_84
*3465 PHY_EDGE_ROW_30_Right_30
*3466 PHY_EDGE_ROW_31_Left_85
*3467 PHY_EDGE_ROW_31_Right_31
*3468 PHY_EDGE_ROW_32_Left_86
*3469 PHY_EDGE_ROW_32_Right_32
*3470 PHY_EDGE_ROW_33_Left_87
*3471 PHY_EDGE_ROW_33_Right_33
*3472 PHY_EDGE_ROW_34_Left_88
*3473 PHY_EDGE_ROW_34_Right_34
*3474 PHY_EDGE_ROW_35_Left_89
*3475 PHY_EDGE_ROW_35_Right_35
*3476 PHY_EDGE_ROW_36_Left_90
*3477 PHY_EDGE_ROW_36_Right_36
*3478 PHY_EDGE_ROW_37_Left_91
*3479 PHY_EDGE_ROW_37_Right_37
*3480 PHY_EDGE_ROW_38_Left_92
*3481 PHY_EDGE_ROW_38_Right_38
*3482 PHY_EDGE_ROW_39_Left_93
*3483 PHY_EDGE_ROW_39_Right_39
*3484 PHY_EDGE_ROW_3_Left_57
*3485 PHY_EDGE_ROW_3_Right_3
*3486 PHY_EDGE_ROW_40_Left_94
*3487 PHY_EDGE_ROW_40_Right_40
*3488 PHY_EDGE_ROW_41_Left_95
*3489 PHY_EDGE_ROW_41_Right_41
*3490 PHY_EDGE_ROW_42_Left_96
*3491 PHY_EDGE_ROW_42_Right_42
*3492 PHY_EDGE_ROW_43_Left_97
*3493 PHY_EDGE_ROW_43_Right_43
*3494 PHY_EDGE_ROW_44_Left_98
*3495 PHY_EDGE_ROW_44_Right_44
*3496 PHY_EDGE_ROW_45_Left_99
*3497 PHY_EDGE_ROW_45_Right_45
*3498 PHY_EDGE_ROW_46_Left_100
*3499 PHY_EDGE_ROW_46_Right_46
*3500 PHY_EDGE_ROW_47_Left_101
*3501 PHY_EDGE_ROW_47_Right_47
*3502 PHY_EDGE_ROW_48_Left_102
*3503 PHY_EDGE_ROW_48_Right_48
*3504 PHY_EDGE_ROW_49_Left_103
*3505 PHY_EDGE_ROW_49_Right_49
*3506 PHY_EDGE_ROW_4_Left_58
*3507 PHY_EDGE_ROW_4_Right_4
*3508 PHY_EDGE_ROW_50_Left_104
*3509 PHY_EDGE_ROW_50_Right_50
*3510 PHY_EDGE_ROW_51_Left_105
*3511 PHY_EDGE_ROW_51_Right_51
*3512 PHY_EDGE_ROW_52_Left_106
*3513 PHY_EDGE_ROW_52_Right_52
*3514 PHY_EDGE_ROW_53_Left_107
*3515 PHY_EDGE_ROW_53_Right_53
*3516 PHY_EDGE_ROW_5_Left_59
*3517 PHY_EDGE_ROW_5_Right_5
*3518 PHY_EDGE_ROW_6_Left_60
*3519 PHY_EDGE_ROW_6_Right_6
*3520 PHY_EDGE_ROW_7_Left_61
*3521 PHY_EDGE_ROW_7_Right_7
*3522 PHY_EDGE_ROW_8_Left_62
*3523 PHY_EDGE_ROW_8_Right_8
*3524 PHY_EDGE_ROW_9_Left_63
*3525 PHY_EDGE_ROW_9_Right_9
*3526 TAP_TAPCELL_ROW_0_108
*3527 TAP_TAPCELL_ROW_0_109
*3528 TAP_TAPCELL_ROW_0_110
*3529 TAP_TAPCELL_ROW_0_111
*3530 TAP_TAPCELL_ROW_0_112
*3531 TAP_TAPCELL_ROW_0_113
*3532 TAP_TAPCELL_ROW_0_114
*3533 TAP_TAPCELL_ROW_0_115
*3534 TAP_TAPCELL_ROW_0_116
*3535 TAP_TAPCELL_ROW_0_117
*3536 TAP_TAPCELL_ROW_0_118
*3537 TAP_TAPCELL_ROW_10_168
*3538 TAP_TAPCELL_ROW_10_169
*3539 TAP_TAPCELL_ROW_10_170
*3540 TAP_TAPCELL_ROW_10_171
*3541 TAP_TAPCELL_ROW_10_172
*3542 TAP_TAPCELL_ROW_10_173
*3543 TAP_TAPCELL_ROW_11_174
*3544 TAP_TAPCELL_ROW_11_175
*3545 TAP_TAPCELL_ROW_11_176
*3546 TAP_TAPCELL_ROW_11_177
*3547 TAP_TAPCELL_ROW_11_178
*3548 TAP_TAPCELL_ROW_12_179
*3549 TAP_TAPCELL_ROW_12_180
*3550 TAP_TAPCELL_ROW_12_181
*3551 TAP_TAPCELL_ROW_12_182
*3552 TAP_TAPCELL_ROW_12_183
*3553 TAP_TAPCELL_ROW_12_184
*3554 TAP_TAPCELL_ROW_13_185
*3555 TAP_TAPCELL_ROW_13_186
*3556 TAP_TAPCELL_ROW_13_187
*3557 TAP_TAPCELL_ROW_13_188
*3558 TAP_TAPCELL_ROW_13_189
*3559 TAP_TAPCELL_ROW_14_190
*3560 TAP_TAPCELL_ROW_14_191
*3561 TAP_TAPCELL_ROW_14_192
*3562 TAP_TAPCELL_ROW_14_193
*3563 TAP_TAPCELL_ROW_14_194
*3564 TAP_TAPCELL_ROW_14_195
*3565 TAP_TAPCELL_ROW_15_196
*3566 TAP_TAPCELL_ROW_15_197
*3567 TAP_TAPCELL_ROW_15_198
*3568 TAP_TAPCELL_ROW_15_199
*3569 TAP_TAPCELL_ROW_15_200
*3570 TAP_TAPCELL_ROW_16_201
*3571 TAP_TAPCELL_ROW_16_202
*3572 TAP_TAPCELL_ROW_16_203
*3573 TAP_TAPCELL_ROW_16_204
*3574 TAP_TAPCELL_ROW_16_205
*3575 TAP_TAPCELL_ROW_16_206
*3576 TAP_TAPCELL_ROW_17_207
*3577 TAP_TAPCELL_ROW_17_208
*3578 TAP_TAPCELL_ROW_17_209
*3579 TAP_TAPCELL_ROW_17_210
*3580 TAP_TAPCELL_ROW_17_211
*3581 TAP_TAPCELL_ROW_18_212
*3582 TAP_TAPCELL_ROW_18_213
*3583 TAP_TAPCELL_ROW_18_214
*3584 TAP_TAPCELL_ROW_18_215
*3585 TAP_TAPCELL_ROW_18_216
*3586 TAP_TAPCELL_ROW_18_217
*3587 TAP_TAPCELL_ROW_19_218
*3588 TAP_TAPCELL_ROW_19_219
*3589 TAP_TAPCELL_ROW_19_220
*3590 TAP_TAPCELL_ROW_19_221
*3591 TAP_TAPCELL_ROW_19_222
*3592 TAP_TAPCELL_ROW_1_119
*3593 TAP_TAPCELL_ROW_1_120
*3594 TAP_TAPCELL_ROW_1_121
*3595 TAP_TAPCELL_ROW_1_122
*3596 TAP_TAPCELL_ROW_1_123
*3597 TAP_TAPCELL_ROW_20_223
*3598 TAP_TAPCELL_ROW_20_224
*3599 TAP_TAPCELL_ROW_20_225
*3600 TAP_TAPCELL_ROW_20_226
*3601 TAP_TAPCELL_ROW_20_227
*3602 TAP_TAPCELL_ROW_20_228
*3603 TAP_TAPCELL_ROW_21_229
*3604 TAP_TAPCELL_ROW_21_230
*3605 TAP_TAPCELL_ROW_21_231
*3606 TAP_TAPCELL_ROW_21_232
*3607 TAP_TAPCELL_ROW_21_233
*3608 TAP_TAPCELL_ROW_22_234
*3609 TAP_TAPCELL_ROW_22_235
*3610 TAP_TAPCELL_ROW_22_236
*3611 TAP_TAPCELL_ROW_22_237
*3612 TAP_TAPCELL_ROW_22_238
*3613 TAP_TAPCELL_ROW_22_239
*3614 TAP_TAPCELL_ROW_23_240
*3615 TAP_TAPCELL_ROW_23_241
*3616 TAP_TAPCELL_ROW_23_242
*3617 TAP_TAPCELL_ROW_23_243
*3618 TAP_TAPCELL_ROW_23_244
*3619 TAP_TAPCELL_ROW_24_245
*3620 TAP_TAPCELL_ROW_24_246
*3621 TAP_TAPCELL_ROW_24_247
*3622 TAP_TAPCELL_ROW_24_248
*3623 TAP_TAPCELL_ROW_24_249
*3624 TAP_TAPCELL_ROW_24_250
*3625 TAP_TAPCELL_ROW_25_251
*3626 TAP_TAPCELL_ROW_25_252
*3627 TAP_TAPCELL_ROW_25_253
*3628 TAP_TAPCELL_ROW_25_254
*3629 TAP_TAPCELL_ROW_25_255
*3630 TAP_TAPCELL_ROW_26_256
*3631 TAP_TAPCELL_ROW_26_257
*3632 TAP_TAPCELL_ROW_26_258
*3633 TAP_TAPCELL_ROW_26_259
*3634 TAP_TAPCELL_ROW_26_260
*3635 TAP_TAPCELL_ROW_26_261
*3636 TAP_TAPCELL_ROW_27_262
*3637 TAP_TAPCELL_ROW_27_263
*3638 TAP_TAPCELL_ROW_27_264
*3639 TAP_TAPCELL_ROW_27_265
*3640 TAP_TAPCELL_ROW_27_266
*3641 TAP_TAPCELL_ROW_28_267
*3642 TAP_TAPCELL_ROW_28_268
*3643 TAP_TAPCELL_ROW_28_269
*3644 TAP_TAPCELL_ROW_28_270
*3645 TAP_TAPCELL_ROW_28_271
*3646 TAP_TAPCELL_ROW_28_272
*3647 TAP_TAPCELL_ROW_29_273
*3648 TAP_TAPCELL_ROW_29_274
*3649 TAP_TAPCELL_ROW_29_275
*3650 TAP_TAPCELL_ROW_29_276
*3651 TAP_TAPCELL_ROW_29_277
*3652 TAP_TAPCELL_ROW_2_124
*3653 TAP_TAPCELL_ROW_2_125
*3654 TAP_TAPCELL_ROW_2_126
*3655 TAP_TAPCELL_ROW_2_127
*3656 TAP_TAPCELL_ROW_2_128
*3657 TAP_TAPCELL_ROW_2_129
*3658 TAP_TAPCELL_ROW_30_278
*3659 TAP_TAPCELL_ROW_30_279
*3660 TAP_TAPCELL_ROW_30_280
*3661 TAP_TAPCELL_ROW_30_281
*3662 TAP_TAPCELL_ROW_30_282
*3663 TAP_TAPCELL_ROW_30_283
*3664 TAP_TAPCELL_ROW_31_284
*3665 TAP_TAPCELL_ROW_31_285
*3666 TAP_TAPCELL_ROW_31_286
*3667 TAP_TAPCELL_ROW_31_287
*3668 TAP_TAPCELL_ROW_31_288
*3669 TAP_TAPCELL_ROW_32_289
*3670 TAP_TAPCELL_ROW_32_290
*3671 TAP_TAPCELL_ROW_32_291
*3672 TAP_TAPCELL_ROW_32_292
*3673 TAP_TAPCELL_ROW_32_293
*3674 TAP_TAPCELL_ROW_32_294
*3675 TAP_TAPCELL_ROW_33_295
*3676 TAP_TAPCELL_ROW_33_296
*3677 TAP_TAPCELL_ROW_33_297
*3678 TAP_TAPCELL_ROW_33_298
*3679 TAP_TAPCELL_ROW_33_299
*3680 TAP_TAPCELL_ROW_34_300
*3681 TAP_TAPCELL_ROW_34_301
*3682 TAP_TAPCELL_ROW_34_302
*3683 TAP_TAPCELL_ROW_34_303
*3684 TAP_TAPCELL_ROW_34_304
*3685 TAP_TAPCELL_ROW_34_305
*3686 TAP_TAPCELL_ROW_35_306
*3687 TAP_TAPCELL_ROW_35_307
*3688 TAP_TAPCELL_ROW_35_308
*3689 TAP_TAPCELL_ROW_35_309
*3690 TAP_TAPCELL_ROW_35_310
*3691 TAP_TAPCELL_ROW_36_311
*3692 TAP_TAPCELL_ROW_36_312
*3693 TAP_TAPCELL_ROW_36_313
*3694 TAP_TAPCELL_ROW_36_314
*3695 TAP_TAPCELL_ROW_36_315
*3696 TAP_TAPCELL_ROW_36_316
*3697 TAP_TAPCELL_ROW_37_317
*3698 TAP_TAPCELL_ROW_37_318
*3699 TAP_TAPCELL_ROW_37_319
*3700 TAP_TAPCELL_ROW_37_320
*3701 TAP_TAPCELL_ROW_37_321
*3702 TAP_TAPCELL_ROW_38_322
*3703 TAP_TAPCELL_ROW_38_323
*3704 TAP_TAPCELL_ROW_38_324
*3705 TAP_TAPCELL_ROW_38_325
*3706 TAP_TAPCELL_ROW_38_326
*3707 TAP_TAPCELL_ROW_38_327
*3708 TAP_TAPCELL_ROW_39_328
*3709 TAP_TAPCELL_ROW_39_329
*3710 TAP_TAPCELL_ROW_39_330
*3711 TAP_TAPCELL_ROW_39_331
*3712 TAP_TAPCELL_ROW_39_332
*3713 TAP_TAPCELL_ROW_3_130
*3714 TAP_TAPCELL_ROW_3_131
*3715 TAP_TAPCELL_ROW_3_132
*3716 TAP_TAPCELL_ROW_3_133
*3717 TAP_TAPCELL_ROW_3_134
*3718 TAP_TAPCELL_ROW_40_333
*3719 TAP_TAPCELL_ROW_40_334
*3720 TAP_TAPCELL_ROW_40_335
*3721 TAP_TAPCELL_ROW_40_336
*3722 TAP_TAPCELL_ROW_40_337
*3723 TAP_TAPCELL_ROW_40_338
*3724 TAP_TAPCELL_ROW_41_339
*3725 TAP_TAPCELL_ROW_41_340
*3726 TAP_TAPCELL_ROW_41_341
*3727 TAP_TAPCELL_ROW_41_342
*3728 TAP_TAPCELL_ROW_41_343
*3729 TAP_TAPCELL_ROW_42_344
*3730 TAP_TAPCELL_ROW_42_345
*3731 TAP_TAPCELL_ROW_42_346
*3732 TAP_TAPCELL_ROW_42_347
*3733 TAP_TAPCELL_ROW_42_348
*3734 TAP_TAPCELL_ROW_42_349
*3735 TAP_TAPCELL_ROW_43_350
*3736 TAP_TAPCELL_ROW_43_351
*3737 TAP_TAPCELL_ROW_43_352
*3738 TAP_TAPCELL_ROW_43_353
*3739 TAP_TAPCELL_ROW_43_354
*3740 TAP_TAPCELL_ROW_44_355
*3741 TAP_TAPCELL_ROW_44_356
*3742 TAP_TAPCELL_ROW_44_357
*3743 TAP_TAPCELL_ROW_44_358
*3744 TAP_TAPCELL_ROW_44_359
*3745 TAP_TAPCELL_ROW_44_360
*3746 TAP_TAPCELL_ROW_45_361
*3747 TAP_TAPCELL_ROW_45_362
*3748 TAP_TAPCELL_ROW_45_363
*3749 TAP_TAPCELL_ROW_45_364
*3750 TAP_TAPCELL_ROW_45_365
*3751 TAP_TAPCELL_ROW_46_366
*3752 TAP_TAPCELL_ROW_46_367
*3753 TAP_TAPCELL_ROW_46_368
*3754 TAP_TAPCELL_ROW_46_369
*3755 TAP_TAPCELL_ROW_46_370
*3756 TAP_TAPCELL_ROW_46_371
*3757 TAP_TAPCELL_ROW_47_372
*3758 TAP_TAPCELL_ROW_47_373
*3759 TAP_TAPCELL_ROW_47_374
*3760 TAP_TAPCELL_ROW_47_375
*3761 TAP_TAPCELL_ROW_47_376
*3762 TAP_TAPCELL_ROW_48_377
*3763 TAP_TAPCELL_ROW_48_378
*3764 TAP_TAPCELL_ROW_48_379
*3765 TAP_TAPCELL_ROW_48_380
*3766 TAP_TAPCELL_ROW_48_381
*3767 TAP_TAPCELL_ROW_48_382
*3768 TAP_TAPCELL_ROW_49_383
*3769 TAP_TAPCELL_ROW_49_384
*3770 TAP_TAPCELL_ROW_49_385
*3771 TAP_TAPCELL_ROW_49_386
*3772 TAP_TAPCELL_ROW_49_387
*3773 TAP_TAPCELL_ROW_4_135
*3774 TAP_TAPCELL_ROW_4_136
*3775 TAP_TAPCELL_ROW_4_137
*3776 TAP_TAPCELL_ROW_4_138
*3777 TAP_TAPCELL_ROW_4_139
*3778 TAP_TAPCELL_ROW_4_140
*3779 TAP_TAPCELL_ROW_50_388
*3780 TAP_TAPCELL_ROW_50_389
*3781 TAP_TAPCELL_ROW_50_390
*3782 TAP_TAPCELL_ROW_50_391
*3783 TAP_TAPCELL_ROW_50_392
*3784 TAP_TAPCELL_ROW_50_393
*3785 TAP_TAPCELL_ROW_51_394
*3786 TAP_TAPCELL_ROW_51_395
*3787 TAP_TAPCELL_ROW_51_396
*3788 TAP_TAPCELL_ROW_51_397
*3789 TAP_TAPCELL_ROW_51_398
*3790 TAP_TAPCELL_ROW_52_399
*3791 TAP_TAPCELL_ROW_52_400
*3792 TAP_TAPCELL_ROW_52_401
*3793 TAP_TAPCELL_ROW_52_402
*3794 TAP_TAPCELL_ROW_52_403
*3795 TAP_TAPCELL_ROW_52_404
*3796 TAP_TAPCELL_ROW_53_405
*3797 TAP_TAPCELL_ROW_53_406
*3798 TAP_TAPCELL_ROW_53_407
*3799 TAP_TAPCELL_ROW_53_408
*3800 TAP_TAPCELL_ROW_53_409
*3801 TAP_TAPCELL_ROW_53_410
*3802 TAP_TAPCELL_ROW_53_411
*3803 TAP_TAPCELL_ROW_53_412
*3804 TAP_TAPCELL_ROW_53_413
*3805 TAP_TAPCELL_ROW_53_414
*3806 TAP_TAPCELL_ROW_53_415
*3807 TAP_TAPCELL_ROW_5_141
*3808 TAP_TAPCELL_ROW_5_142
*3809 TAP_TAPCELL_ROW_5_143
*3810 TAP_TAPCELL_ROW_5_144
*3811 TAP_TAPCELL_ROW_5_145
*3812 TAP_TAPCELL_ROW_6_146
*3813 TAP_TAPCELL_ROW_6_147
*3814 TAP_TAPCELL_ROW_6_148
*3815 TAP_TAPCELL_ROW_6_149
*3816 TAP_TAPCELL_ROW_6_150
*3817 TAP_TAPCELL_ROW_6_151
*3818 TAP_TAPCELL_ROW_7_152
*3819 TAP_TAPCELL_ROW_7_153
*3820 TAP_TAPCELL_ROW_7_154
*3821 TAP_TAPCELL_ROW_7_155
*3822 TAP_TAPCELL_ROW_7_156
*3823 TAP_TAPCELL_ROW_8_157
*3824 TAP_TAPCELL_ROW_8_158
*3825 TAP_TAPCELL_ROW_8_159
*3826 TAP_TAPCELL_ROW_8_160
*3827 TAP_TAPCELL_ROW_8_161
*3828 TAP_TAPCELL_ROW_8_162
*3829 TAP_TAPCELL_ROW_9_163
*3830 TAP_TAPCELL_ROW_9_164
*3831 TAP_TAPCELL_ROW_9_165
*3832 TAP_TAPCELL_ROW_9_166
*3833 TAP_TAPCELL_ROW_9_167
*3834 _0435_
*3835 _0436_
*3836 _0437_
*3837 _0438_
*3838 _0439_
*3839 _0440_
*3840 _0441_
*3841 _0442_
*3842 _0443_
*3843 _0444_
*3844 _0445_
*3845 _0446_
*3846 _0447_
*3847 _0448_
*3848 _0449_
*3849 _0450_
*3850 _0451_
*3851 _0452_
*3852 _0453_
*3853 _0454_
*3854 _0455_
*3855 _0456_
*3856 _0457_
*3857 _0458_
*3858 _0459_
*3859 _0460_
*3860 _0461_
*3861 _0462_
*3862 _0463_
*3863 _0464_
*3864 _0465_
*3865 _0466_
*3866 _0467_
*3867 _0468_
*3868 _0469_
*3869 _0470_
*3870 _0471_
*3871 _0472_
*3872 _0473_
*3873 _0474_
*3874 _0475_
*3875 _0476_
*3876 _0477_
*3877 _0478_
*3878 _0479_
*3879 _0480_
*3880 _0481_
*3881 _0482_
*3882 _0483_
*3883 _0484_
*3884 _0485_
*3885 _0486_
*3886 _0487_
*3887 _0488_
*3888 _0489_
*3889 _0490_
*3890 _0491_
*3891 _0492_
*3892 _0493_
*3893 _0494_
*3894 _0495_
*3895 _0496_
*3896 _0497_
*3897 _0498_
*3898 _0499_
*3899 _0500_
*3900 _0501_
*3901 _0502_
*3902 _0503_
*3903 _0504_
*3904 _0505_
*3905 _0506_
*3906 _0507_
*3907 _0508_
*3908 _0509_
*3909 _0510_
*3910 _0511_
*3911 _0512_
*3912 _0513_
*3913 _0514_
*3914 _0515_
*3915 _0516_
*3916 _0517_
*3917 _0518_
*3918 _0519_
*3919 _0520_
*3920 _0521_
*3921 _0522_
*3922 _0523_
*3923 _0524_
*3924 _0525_
*3925 _0526_
*3926 _0527_
*3927 _0528_
*3928 _0529_
*3929 _0530_
*3930 _0531_
*3931 _0532_
*3932 _0533_
*3933 _0534_
*3934 _0535_
*3935 _0536_
*3936 _0537_
*3937 _0538_
*3938 _0539_
*3939 _0540_
*3940 _0541_
*3941 _0542_
*3942 _0543_
*3943 _0544_
*3944 _0545_
*3945 _0546_
*3946 _0547_
*3947 _0548_
*3948 _0549_
*3949 _0550_
*3950 _0551_
*3951 _0552_
*3952 _0553_
*3953 _0554_
*3954 _0555_
*3955 _0556_
*3956 _0557_
*3957 _0558_
*3958 _0559_
*3959 _0560_
*3960 _0561_
*3961 _0562_
*3962 _0563_
*3963 _0564_
*3964 _0565_
*3965 _0566_
*3966 _0567_
*3967 _0568_
*3968 _0569_
*3969 _0570_
*3970 _0571_
*3971 _0572_
*3972 _0573_
*3973 _0574_
*3974 _0575_
*3975 _0576_
*3976 _0577_
*3977 _0578_
*3978 _0579_
*3979 _0580_
*3980 _0581_
*3981 _0582_
*3982 _0583_
*3983 _0584_
*3984 _0585_
*3985 _0586_
*3986 _0587_
*3987 _0588_
*3988 _0589_
*3989 _0590_
*3990 _0591_
*3991 _0592_
*3992 _0593_
*3993 _0594_
*3994 _0595_
*3995 _0596_
*3996 _0597_
*3997 _0598_
*3998 _0599_
*3999 _0600_
*4000 _0601_
*4001 _0602_
*4002 _0603_
*4003 _0604_
*4004 _0605_
*4005 _0606_
*4006 _0607_
*4007 _0608_
*4008 _0609_
*4009 _0610_
*4010 _0611_
*4011 _0612_
*4012 _0613_
*4013 _0614_
*4014 _0615_
*4015 _0616_
*4016 _0617_
*4017 _0618_
*4018 _0619_
*4019 _0620_
*4020 _0621_
*4021 _0622_
*4022 _0623_
*4023 _0624_
*4024 _0625_
*4025 _0626_
*4026 _0627_
*4027 _0628_
*4028 _0629_
*4029 _0630_
*4030 _0631_
*4031 _0632_
*4032 _0633_
*4033 _0634_
*4034 _0635_
*4035 _0636_
*4036 _0637_
*4037 _0638_
*4038 _0639_
*4039 _0640_
*4040 _0641_
*4041 _0642_
*4042 _0643_
*4043 _0644_
*4044 _0645_
*4045 _0646_
*4046 _0647_
*4047 _0648_
*4048 _0649_
*4049 _0650_
*4050 _0651_
*4051 _0652_
*4052 _0653_
*4053 _0654_
*4054 _0655_
*4055 _0656_
*4056 _0657_
*4057 _0658_
*4058 _0659_
*4059 _0660_
*4060 _0661_
*4061 _0662_
*4062 _0663_
*4063 _0664_
*4064 _0665_
*4065 _0666_
*4066 _0667_
*4067 _0668_
*4068 _0669_
*4069 _0670_
*4070 _0671_
*4071 _0672_
*4072 _0673_
*4073 _0674_
*4074 _0675_
*4075 _0676_
*4076 _0677_
*4077 _0678_
*4078 _0679_
*4079 _0680_
*4080 _0681_
*4081 _0682_
*4082 _0683_
*4083 _0684_
*4084 _0685_
*4085 _0686_
*4086 _0687_
*4087 _0688_
*4088 _0689_
*4089 _0690_
*4090 _0691_
*4091 _0692_
*4092 _0693_
*4093 _0694_
*4094 _0695_
*4095 _0696_
*4096 _0697_
*4097 _0698_
*4098 _0699_
*4099 _0700_
*4100 _0701_
*4101 _0702_
*4102 _0703_
*4103 _0704_
*4104 _0705_
*4105 _0706_
*4106 _0707_
*4107 _0708_
*4108 _0709_
*4109 _0710_
*4110 _0711_
*4111 _0712_
*4112 _0713_
*4113 _0714_
*4114 _0715_
*4115 _0716_
*4116 _0717_
*4117 _0718_
*4118 _0719_
*4119 _0720_
*4120 _0721_
*4121 _0722_
*4122 _0723_
*4123 _0724_
*4124 _0725_
*4125 _0726_
*4126 _0727_
*4127 _0728_
*4128 _0729_
*4129 _0730_
*4130 _0731_
*4131 _0732_
*4132 _0733_
*4133 _0734_
*4134 _0735_
*4135 _0736_
*4136 _0737_
*4137 _0738_
*4138 _0739_
*4139 _0740_
*4140 _0741_
*4141 _0742_
*4142 _0743_
*4143 _0744_
*4144 _0745_
*4145 _0746_
*4146 _0747_
*4147 _0748_
*4148 _0749_
*4149 _0750_
*4150 _0751_
*4151 _0752_
*4152 _0753_
*4153 _0754_
*4154 _0755_
*4155 _0756_
*4156 _0757_
*4157 _0758_
*4158 _0759_
*4159 _0760_
*4160 _0761_
*4161 _0762_
*4162 _0763_
*4163 _0764_
*4164 _0765_
*4165 _0766_
*4166 _0767_
*4167 _0768_
*4168 _0769_
*4169 _0770_
*4170 _0771_
*4171 _0772_
*4172 _0773_
*4173 _0774_
*4174 _0775_
*4175 _0776_
*4176 _0777_
*4177 _0778_
*4178 _0779_
*4179 _0780_
*4180 _0781_
*4181 _0782_
*4182 _0783_
*4183 _0784_
*4184 _0785_
*4185 _0786_
*4186 _0787_
*4187 _0788_
*4188 _0789_
*4189 _0790_
*4190 _0791_
*4191 _0792_
*4192 _0793_
*4193 _0794_
*4194 _0795_
*4195 _0796_
*4196 _0797_
*4197 _0798_
*4198 _0799_
*4199 _0800_
*4200 _0801_
*4201 _0802_
*4202 _0803_
*4203 _0804_
*4204 _0805_
*4205 _0806_
*4206 _0807_
*4207 _0808_
*4208 _0809_
*4209 _0810_
*4210 _0811_
*4211 _0812_
*4212 _0813_
*4213 _0814_
*4214 _0815_
*4215 _0816_
*4216 _0817_
*4217 _0818_
*4218 _0819_
*4219 _0820_
*4220 _0821_
*4221 _0822_
*4222 _0823_
*4223 _0824_
*4224 _0825_
*4225 _0826_
*4226 _0827_
*4227 _0828_
*4228 _0829_
*4229 _0830_
*4230 _0831_
*4231 _0832_
*4232 _0833_
*4233 _0834_
*4234 _0835_
*4235 _0836_
*4236 _0837_
*4237 _0838_
*4238 _0839_
*4239 _0840_
*4240 _0841_
*4241 _0842_
*4242 _0843_
*4243 _0844_
*4244 _0845_
*4245 _0846_
*4246 _0847_
*4247 _0848_
*4248 _0849_
*4249 _0850_
*4250 _0851_
*4251 _0852_
*4252 _0853_
*4253 _0854_
*4254 _0855_
*4255 _0856_
*4256 _0857_
*4257 _0858_
*4258 _0859_
*4259 _0860_
*4260 _0861_
*4261 _0862_
*4262 _0863_
*4263 _0864_
*4264 _0865_
*4265 _0866_
*4266 _0867_
*4267 _0868_
*4268 _0869_
*4269 _0870_
*4270 _0871_
*4271 _0872_
*4272 _0873_
*4273 _0874_
*4274 _0875_
*4275 _0876_
*4276 _0877_
*4277 _0878_
*4278 _0879_
*4279 _0880_
*4280 _0881_
*4281 _0882_
*4282 _0883_
*4283 _0884_
*4284 _0885_
*4285 _0886_
*4286 _0887_
*4287 _0888_
*4288 _0889_
*4289 _0890_
*4290 _0891_
*4291 _0892_
*4292 _0893_
*4293 _0894_
*4294 _0895_
*4295 _0896_
*4296 _0897_
*4297 _0898_
*4298 _0899_
*4299 _0900_
*4300 _0901_
*4301 _0902_
*4302 _0903_
*4303 _0904_
*4304 _0905_
*4305 _0906_
*4306 _0907_
*4307 _0908_
*4308 _0909_
*4309 _0910_
*4310 _0911_
*4311 _0912_
*4312 _0913_
*4313 _0914_
*4314 _0915_
*4315 _0916_
*4316 _0917_
*4317 _0918_
*4318 _0919_
*4319 _0920_
*4320 _0921_
*4321 _0922_
*4322 _0923_
*4323 _0924_
*4324 _0925_
*4325 _0926_
*4326 _0927_
*4327 _0928_
*4328 _0929_
*4329 _0930_
*4330 _0931_
*4331 _0932_
*4332 _0933_
*4333 _0934_
*4334 _0935_
*4335 _0936_
*4336 _0937_
*4337 _0938_
*4338 _0939_
*4339 _0940_
*4340 _0941_
*4341 _0942_
*4342 _0943_
*4343 _0944_
*4344 _0945_
*4345 _0946_
*4346 _0947_
*4347 _0948_
*4348 _0949_
*4349 _0950_
*4350 _0951_
*4351 _0952_
*4352 _0953_
*4353 _0954_
*4354 _0955_
*4355 _0956_
*4356 _0957_
*4357 _0958_
*4358 _0959_
*4359 _0960_
*4360 _0961_
*4361 _0962_
*4362 _0963_
*4363 _0964_
*4364 _0965_
*4365 _0966_
*4366 _0967_
*4367 _0968_
*4368 _0969_
*4369 _0970_
*4370 _0971_
*4371 _0972_
*4372 _0973_
*4373 _0974_
*4374 _0975_
*4375 _0976_
*4376 _0977_
*4377 _0978_
*4378 _0979_
*4379 _0980_
*4380 _0981_
*4381 _0982_
*4382 _0983_
*4383 _0984_
*4384 _0985_
*4385 _0986_
*4386 _0987_
*4387 _0988_
*4388 _0989_
*4389 _0990_
*4390 _0991_
*4391 _0992_
*4392 _0993_
*4393 _0994_
*4394 _0995_
*4395 _0996_
*4396 _0997_
*4397 _0998_
*4398 _0999_
*4399 _1000_
*4400 _1001_
*4401 _1002_
*4402 _1003_
*4403 _1004_
*4404 _1005_
*4405 _1006_
*4406 _1007_
*4407 _1008_
*4408 _1009_
*4409 _1010_
*4410 _1011_
*4411 _1012_
*4412 _1013_
*4413 _1014_
*4414 _1015_
*4415 _1016_
*4416 _1017_
*4417 _1018_
*4418 _1019_
*4419 _1020_
*4420 _1021_
*4421 _1022_
*4422 _1023_
*4423 _1024_
*4424 _1025_
*4425 _1026_
*4426 _1027_
*4427 _1028_
*4428 _1029_
*4429 _1030_
*4430 _1031_
*4431 _1032_
*4432 _1033_
*4433 _1034_
*4434 _1035_
*4435 _1036_
*4436 _1037_
*4437 _1038_
*4438 _1039_
*4439 _1040_
*4440 _1041_
*4441 _1042_
*4442 _1043_
*4443 _1044_
*4444 _1045_
*4445 _1046_
*4446 _1047_
*4447 _1048_
*4448 _1049_
*4449 _1050_
*4450 _1051_
*4451 _1052_
*4452 _1053_
*4453 _1054_
*4454 _1055_
*4455 _1055__87
*4456 _1056_
*4457 _1057_
*4458 _1058_
*4459 _1059_
*4460 _1060_
*4461 _1061_
*4462 _1062_
*4463 _1063_
*4464 _1064_
*4465 _1065_
*4466 _1066_
*4467 _1067_
*4468 _1068_
*4469 _1069_
*4470 _1070_
*4471 _1071_
*4472 _1072_
*4473 _1073_
*4474 _1074_
*4475 _1075_
*4476 _1076_
*4477 _1077_
*4478 _1078_
*4479 _1079_
*4480 _1080_
*4481 _1081_
*4482 _1082_
*4483 _1083_
*4484 _1084_
*4485 _1085_
*4486 _1086_
*4487 _1087_
*4488 _1088_
*4489 _1089_
*4490 _1090_
*4491 _1091_
*4492 _1092_
*4493 _1093_
*4494 _1094_
*4495 _1095_
*4496 _1096_
*4497 _1097_
*4498 _1098_
*4499 _1099_
*4500 _1100_
*4501 _1101_
*4502 _1102_
*4503 _1103_
*4504 _1104_
*4505 _1105_
*4506 _1106_
*4507 _1107_
*4508 _1108_
*4509 _1109_
*4510 _1110_
*4511 _1111_
*4512 _1112_
*4513 _1113_
*4514 _1114_
*4515 _1115_
*4516 _1116_
*4517 _1117_
*4518 _1118_
*4519 _1119_
*4520 _1120_
*4521 _1121_
*4522 _1122_
*4523 _1123_
*4524 _1124_
*4525 _1125_
*4526 _1126_
*4527 _1127_
*4528 _1128_
*4529 _1129_
*4530 _1130_
*4531 _1131_
*4532 _1132_
*4533 _1133_
*4534 _1134_
*4535 _1135_
*4536 _1136_
*4537 _1137_
*4538 _1138_
*4539 _1139_
*4540 _1140_
*4541 _1141_
*4542 _1142_
*4543 _1143_
*4544 _1144_
*4545 _1145_
*4546 _1146_
*4547 _1147_
*4548 _1148_
*4549 _1149_
*4550 _1150_
*4551 _1151_
*4552 _1152_
*4553 _1153_
*4554 _1154_
*4555 _1155_
*4556 _1156_
*4557 _1157_
*4558 _1158_
*4559 _1159_
*4560 _1160_
*4561 _1161_
*4562 _1162_
*4563 _1163_
*4564 _1164_
*4565 _1165_
*4566 _1166_
*4567 _1167_
*4568 _1168_
*4569 _1169_
*4570 _1170_
*4571 _1171_
*4572 _1172_
*4573 _1173_
*4574 _1174_
*4575 _1175_
*4576 _1176_
*4577 _1177_
*4578 _1178_
*4579 _1179_
*4580 _1180_
*4581 _1181_
*4582 _1182_
*4583 _1183_
*4584 _1184_
*4585 _1185_
*4586 _1186_
*4587 _1187_
*4588 _1188_
*4589 _1189_
*4590 _1190_
*4591 _1191_
*4592 _1192_
*4593 _1193_
*4594 _1194_
*4595 _1195_
*4596 _1196_
*4597 _1201_
*4598 _1202_
*4599 _1203_
*4600 _1204_
*4601 _1205_
*4602 clkbuf_0_clk
*4603 clkbuf_4_0_0_clk
*4604 clkbuf_4_10_0_clk
*4605 clkbuf_4_11_0_clk
*4606 clkbuf_4_12_0_clk
*4607 clkbuf_4_13_0_clk
*4608 clkbuf_4_14_0_clk
*4609 clkbuf_4_15_0_clk
*4610 clkbuf_4_1_0_clk
*4611 clkbuf_4_2_0_clk
*4612 clkbuf_4_3_0_clk
*4613 clkbuf_4_4_0_clk
*4614 clkbuf_4_5_0_clk
*4615 clkbuf_4_6_0_clk
*4616 clkbuf_4_7_0_clk
*4617 clkbuf_4_8_0_clk
*4618 clkbuf_4_9_0_clk
*4619 clkbuf_5_0__f_clk
*4620 clkbuf_5_10__f_clk
*4621 clkbuf_5_11__f_clk
*4622 clkbuf_5_12__f_clk
*4623 clkbuf_5_13__f_clk
*4624 clkbuf_5_14__f_clk
*4625 clkbuf_5_15__f_clk
*4626 clkbuf_5_16__f_clk
*4627 clkbuf_5_17__f_clk
*4628 clkbuf_5_18__f_clk
*4629 clkbuf_5_19__f_clk
*4630 clkbuf_5_1__f_clk
*4631 clkbuf_5_20__f_clk
*4632 clkbuf_5_21__f_clk
*4633 clkbuf_5_22__f_clk
*4634 clkbuf_5_23__f_clk
*4635 clkbuf_5_24__f_clk
*4636 clkbuf_5_25__f_clk
*4637 clkbuf_5_26__f_clk
*4638 clkbuf_5_27__f_clk
*4639 clkbuf_5_28__f_clk
*4640 clkbuf_5_29__f_clk
*4641 clkbuf_5_2__f_clk
*4642 clkbuf_5_30__f_clk
*4643 clkbuf_5_31__f_clk
*4644 clkbuf_5_3__f_clk
*4645 clkbuf_5_4__f_clk
*4646 clkbuf_5_5__f_clk
*4647 clkbuf_5_6__f_clk
*4648 clkbuf_5_7__f_clk
*4649 clkbuf_5_8__f_clk
*4650 clkbuf_5_9__f_clk
*4651 clkload0
*4652 clkload1
*4653 clkload2
*4654 clkload3
*4655 clkload4
*4656 clkload5
*4657 clkload6
*4658 fanout10
*4659 fanout11
*4660 fanout12
*4661 fanout13
*4662 fanout14
*4663 fanout15
*4664 fanout16
*4665 fanout17
*4666 fanout18
*4667 fanout19
*4668 fanout20
*4669 fanout21
*4670 fanout22
*4671 fanout23
*4672 fanout24
*4673 fanout25
*4674 fanout26
*4675 fanout27
*4676 fanout28
*4677 fanout29
*4678 fanout30
*4679 fanout31
*4680 fanout32
*4681 fanout33
*4682 fanout34
*4683 fanout35
*4684 fanout36
*4685 fanout37
*4686 fanout38
*4687 fanout39
*4688 fanout40
*4689 fanout41
*4690 fanout42
*4691 fanout43
*4692 fanout44
*4693 fanout45
*4694 fanout46
*4695 fanout47
*4696 fanout48
*4697 fanout49
*4698 fanout50
*4699 fanout51
*4700 fanout52
*4701 fanout53
*4702 fanout54
*4703 fanout55
*4704 fanout56
*4705 fanout57
*4706 fanout58
*4707 fanout59
*4708 fanout60
*4709 fanout61
*4710 fanout62
*4711 fanout63
*4712 fanout64
*4713 fanout65
*4714 fanout66
*4715 fanout67
*4716 fanout68
*4717 fanout69
*4718 fanout70
*4719 fanout71
*4720 fanout72
*4721 fanout73
*4722 fanout74
*4723 fanout75
*4724 fanout76
*4725 fanout77
*4726 fanout78
*4727 fanout79
*4728 fanout8
*4729 fanout80
*4730 fanout81
*4731 fanout82
*4732 fanout83
*4733 fanout84
*4734 fanout9
*4735 hold100
*4736 hold101
*4737 hold102
*4738 hold103
*4739 hold104
*4740 hold105
*4741 hold106
*4742 hold107
*4743 hold108
*4744 hold109
*4745 hold110
*4746 hold111
*4747 hold112
*4748 hold113
*4749 hold114
*4750 hold115
*4751 hold116
*4752 hold117
*4753 hold118
*4754 hold119
*4755 hold120
*4756 hold121
*4757 hold122
*4758 hold123
*4759 hold124
*4760 hold125
*4761 hold126
*4762 hold127
*4763 hold128
*4764 hold129
*4765 hold130
*4766 hold131
*4767 hold132
*4768 hold133
*4769 hold134
*4770 hold135
*4771 hold136
*4772 hold137
*4773 hold138
*4774 hold139
*4775 hold140
*4776 hold141
*4777 hold142
*4778 hold143
*4779 hold144
*4780 hold145
*4781 hold146
*4782 hold147
*4783 hold148
*4784 hold149
*4785 hold150
*4786 hold151
*4787 hold152
*4788 hold153
*4789 hold154
*4790 hold155
*4791 hold156
*4792 hold157
*4793 hold158
*4794 hold159
*4795 hold160
*4796 hold161
*4797 hold162
*4798 hold163
*4799 hold164
*4800 hold165
*4801 hold166
*4802 hold167
*4803 hold168
*4804 hold169
*4805 hold170
*4806 hold171
*4807 hold172
*4808 hold173
*4809 hold174
*4810 hold175
*4811 hold176
*4812 hold177
*4813 hold178
*4814 hold179
*4815 hold180
*4816 hold181
*4817 hold182
*4818 hold183
*4819 hold184
*4820 hold185
*4821 hold186
*4822 hold187
*4823 hold188
*4824 hold189
*4825 hold190
*4826 hold191
*4827 hold192
*4828 hold193
*4829 hold194
*4830 hold195
*4831 hold196
*4832 hold197
*4833 hold198
*4834 hold199
*4835 hold200
*4836 hold201
*4837 hold202
*4838 hold203
*4839 hold88
*4840 hold89
*4841 hold90
*4842 hold91
*4843 hold92
*4844 hold93
*4845 hold94
*4846 hold95
*4847 hold96
*4848 hold97
*4849 hold98
*4850 hold99
*4851 input1
*4852 output2
*4853 output3
*4854 output4
*4855 output5
*4856 output6
*4857 output7
*4858 riscv_soc_top
*4859 riscv_soc_top_85
*4860 riscv_soc_top_86

*PORTS
clk I
led[0] O
led[1] O
led[2] O
led[3] O
led[4] O
led[5] O
led[6] O
led[7] O
rst_n I
uart_rx I
uart_tx O

*D_NET *3 0.0173107
*CONN
*P clk I
*I *4602:A I *D sky130_fd_sc_hd__clkbuf_16
*CAP
1 clk 0.00455521
2 *4602:A 0
3 *3:22 0.000264003
4 *3:20 0.001325
5 *3:14 0.00294971
6 *3:8 0.00644392
7 *3:8 *619:75 0.000100139
8 *3:14 *3918:A 5.18006e-05
9 *3:14 *3942:C 3.88964e-06
10 *3:14 *4255:A2 0
11 *3:14 *106:8 6.9282e-05
12 *3:14 *107:73 0.000555064
13 *3:14 *152:24 1.31416e-05
14 *3:14 *380:8 0
15 *3:14 *427:10 0.000243292
16 *3:14 *449:246 0
17 *3:14 *459:8 0.000287426
18 *3:14 *553:67 0
19 *3:14 *599:10 0.00013959
20 *3:14 *669:60 8.86057e-06
21 *3:14 *747:25 0.000133301
22 *3:14 *747:40 0
23 *3:14 *748:23 1.04265e-05
24 *3:14 *843:52 0
25 *3:20 *3917:B1 9.74473e-05
26 *3:20 *751:10 5.92299e-05
27 *3:22 *163:14 0
*RES
1 clk *3:8 19.6928 
2 *3:8 *3:14 39.1396 
3 *3:14 *3:20 45.8671 
4 *3:20 *3:22 4.72286 
5 *3:22 *4602:A 38 
*END

*D_NET *4 0.00166676
*CONN
*P led[0] O
*I *4852:X O *D sky130_fd_sc_hd__clkdlybuf4s25_1
*CAP
1 led[0] 0.000524138
2 *4852:X 0.000294549
3 *4:8 0.000818687
4 *4:8 *4852:A 2.93845e-05
*RES
1 *4852:X *4:8 41.9564 
2 *4:8 led[0] 11.7243 
*END

*D_NET *5 0.00172136
*CONN
*P led[1] O
*I *4853:X O *D sky130_fd_sc_hd__clkdlybuf4s25_1
*CAP
1 led[1] 0.000546742
2 *4853:X 0.000299267
3 *5:8 0.000846009
4 *5:8 *4853:A 2.93431e-05
*RES
1 *4853:X *5:8 41.9564 
2 *5:8 led[1] 11.7243 
*END

*D_NET *6 0.00165541
*CONN
*P led[2] O
*I *4854:X O *D sky130_fd_sc_hd__clkdlybuf4s25_1
*CAP
1 led[2] 0.000524138
2 *4854:X 0.000303568
3 *6:8 0.000827706
*RES
1 *4854:X *6:8 41.9564 
2 *6:8 led[2] 11.7243 
*END

*D_NET *7 0.00165541
*CONN
*P led[3] O
*I *4855:X O *D sky130_fd_sc_hd__clkdlybuf4s25_1
*CAP
1 led[3] 0.000524138
2 *4855:X 0.000303568
3 *7:8 0.000827706
*RES
1 *4855:X *7:8 41.9564 
2 *7:8 led[3] 11.7243 
*END

*D_NET *8 0.00182273
*CONN
*P led[4] O
*I *4856:X O *D sky130_fd_sc_hd__clkdlybuf4s25_1
*CAP
1 led[4] 0.000605192
2 *4856:X 0.000306174
3 *8:8 0.000911366
*RES
1 *4856:X *8:8 41.9564 
2 *8:8 led[4] 13.5834 
*END

*D_NET *9 0.0013907
*CONN
*P led[5] O
*I *4858:LO O *D sky130_fd_sc_hd__conb_1
*CAP
1 led[5] 0.000656606
2 *4858:LO 3.87435e-05
3 *9:8 0.00069535
*RES
1 *4858:LO *9:8 38.6214 
2 *9:8 led[5] 14.2877 
*END

*D_NET *10 0.0013476
*CONN
*P led[6] O
*I *4859:LO O *D sky130_fd_sc_hd__conb_1
*CAP
1 led[6] 0.000636012
2 *4859:LO 3.77894e-05
3 *10:8 0.000673802
*RES
1 *4859:LO *10:8 38.6214 
2 *10:8 led[6] 14.2877 
*END

*D_NET *11 0.0013476
*CONN
*P led[7] O
*I *4860:LO O *D sky130_fd_sc_hd__conb_1
*CAP
1 led[7] 0.000636012
2 *4860:LO 3.77894e-05
3 *11:8 0.000673802
*RES
1 *4860:LO *11:8 38.6214 
2 *11:8 led[7] 14.2877 
*END

*D_NET *12 0.00101002
*CONN
*P rst_n I
*I *4851:A I *D sky130_fd_sc_hd__clkdlybuf4s25_1
*CAP
1 rst_n 0.000505011
2 *4851:A 0
3 *12:13 0.000505011
*RES
1 rst_n *12:13 31.5302 
2 *12:13 *4851:A 23 
*END

*D_NET *14 0.000887012
*CONN
*P uart_tx O
*I *4857:X O *D sky130_fd_sc_hd__clkdlybuf4s25_1
*CAP
1 uart_tx 0.000443506
2 *4857:X 0.000443506
3 uart_tx *4430:RESET_B 0
*RES
1 *4857:X uart_tx 49.0503 
*END

*D_NET *15 0.000303327
*CONN
*I *4409:D I *D sky130_fd_sc_hd__dfrtp_2
*I *3870:X O *D sky130_fd_sc_hd__o211a_2
*CAP
1 *4409:D 9.43214e-05
2 *3870:X 9.43214e-05
3 *4409:D *3870:A2 5.50106e-05
4 *4409:D *4409:CLK 1.94812e-05
5 *4409:D *107:111 6.17437e-06
6 *4409:D *747:78 3.40181e-05
*RES
1 *3870:X *4409:D 48.0507 
*END

*D_NET *16 0.000248214
*CONN
*I *4775:A I *D sky130_fd_sc_hd__dlygate4sd3_1
*I *3868:X O *D sky130_fd_sc_hd__o21a_2
*CAP
1 *4775:A 0
2 *3868:X 0.000124107
3 *16:8 0.000124107
*RES
1 *3868:X *16:8 39.9057 
2 *16:8 *4775:A 38 
*END

*D_NET *17 0.00611649
*CONN
*I *4415:D I *D sky130_fd_sc_hd__dfrtp_2
*I *3921:B1 I *D sky130_fd_sc_hd__a31oi_2
*I *3867:X O *D sky130_fd_sc_hd__and3_2
*CAP
1 *4415:D 5.145e-05
2 *3921:B1 0
3 *3867:X 0.000686463
4 *17:16 0.000569615
5 *17:10 0.000684794
6 *17:8 0.000750193
7 *17:8 *3867:C 0.000909787
8 *17:8 *3938:B2 2.02872e-05
9 *17:10 *664:27 0.000157299
10 *17:10 *713:12 8.26569e-05
11 *17:16 *3920:A 6.48142e-05
12 *17:16 *3921:A1 0.000135547
13 *17:16 *3921:A2 1.89075e-05
14 *17:16 *3925:A3 0.000137651
15 *17:16 *154:6 6.17437e-06
16 *17:16 *525:26 0.000138718
17 *17:16 *664:27 0.000435004
18 *17:16 *664:33 0.000344365
19 *17:16 *703:90 0.000243596
20 *17:16 *713:12 0.000428329
21 *17:16 *741:14 0.000250839
*RES
1 *3867:X *17:8 48.6264 
2 *17:8 *17:10 2.25786 
3 *17:10 *17:16 33.27 
4 *17:16 *3921:B1 23 
5 *17:10 *4415:D 38.6214 
*END

*D_NET *18 0.00203319
*CONN
*I *4401:D I *D sky130_fd_sc_hd__dfrtp_2
*I *3863:X O *D sky130_fd_sc_hd__o21ba_2
*CAP
1 *4401:D 0.000320805
2 *3863:X 0.00044044
3 *18:8 0.000761245
4 *4401:D *4531:RESET_B 0
5 *4401:D *449:222 0.000120781
6 *4401:D *475:8 0
7 *4401:D *475:58 1.83667e-05
8 *4401:D *475:65 0
9 *4401:D *519:10 0
10 *18:8 *449:226 3.98818e-05
11 *18:8 *449:296 3.12591e-05
12 *18:8 *519:14 6.9805e-05
13 *18:8 *519:20 0.000230604
*RES
1 *3863:X *18:8 44.815 
2 *18:8 *4401:D 44.7529 
*END

*D_NET *19 0.00142833
*CONN
*I *4818:A I *D sky130_fd_sc_hd__dlygate4sd3_1
*I *3860:X O *D sky130_fd_sc_hd__o21a_2
*CAP
1 *4818:A 5.14586e-05
2 *3860:X 0.000308242
3 *19:10 0.000359701
4 *4818:A *3948:A_N 4.3198e-05
5 *4818:A *3948:B 0.000138607
6 *4818:A *520:23 1.34914e-05
7 *4818:A *984:36 5.3304e-05
8 *19:10 *528:57 0.000324716
9 *19:10 *984:42 0.000135616
*RES
1 *3860:X *19:10 43.3857 
2 *19:10 *4818:A 39.5743 
*END

*D_NET *20 0.00229437
*CONN
*I *3925:B1 I *D sky130_fd_sc_hd__a31oi_2
*I *4407:D I *D sky130_fd_sc_hd__dfrtp_2
*I *3859:X O *D sky130_fd_sc_hd__and3_2
*CAP
1 *3925:B1 0
2 *4407:D 0.000138251
3 *3859:X 7.97775e-05
4 *20:21 0.000547203
5 *20:6 0.000765231
6 *4407:D *482:27 5.12328e-05
7 *20:6 *482:27 3.7122e-06
8 *20:21 *3925:A2 0
9 *20:21 *4410:RESET_B 0.000130695
10 *20:21 *105:8 3.56433e-05
11 *20:21 *449:13 0
12 *20:21 *449:222 0.00010763
13 *20:21 *696:63 0.000434994
*RES
1 *3859:X *20:6 24.0979 
2 *20:6 *4407:D 25.0714 
3 *20:6 *20:21 43.1743 
4 *20:21 *3925:B1 23 
*END

*D_NET *21 0.00167335
*CONN
*I *4414:D I *D sky130_fd_sc_hd__dfrtp_2
*I *3945:X O *D sky130_fd_sc_hd__a32o_2
*CAP
1 *4414:D 0
2 *3945:X 0.000560514
3 *21:10 0.000560514
4 *21:10 *3945:A1 5.60335e-05
5 *21:10 *111:73 6.65155e-05
6 *21:10 *449:222 0
7 *21:10 *583:16 0.000429772
8 *21:10 *664:51 0
*RES
1 *3945:X *21:10 47.7771 
2 *21:10 *4414:D 38 
*END

*D_NET *22 0.00197592
*CONN
*I *4408:D I *D sky130_fd_sc_hd__dfrtp_2
*I *3952:X O *D sky130_fd_sc_hd__a21o_2
*CAP
1 *4408:D 0
2 *3952:X 0.000429046
3 *22:10 0.000429046
4 *22:10 *3868:B1 0.000271408
5 *22:10 *3952:A1 1.41077e-05
6 *22:10 *3952:B1 0.000102389
7 *22:10 *100:14 7.09002e-05
8 *22:10 *101:8 0.000109362
9 *22:10 *172:14 2.93747e-05
10 *22:10 *483:14 9.43771e-06
11 *22:10 *483:21 4.07693e-05
12 *22:10 *520:29 0.000109603
13 *22:10 *574:8 0.00036048
*RES
1 *3952:X *22:10 49.2479 
2 *22:10 *4408:D 38 
*END

*D_NET *23 0.00079668
*CONN
*I *4410:D I *D sky130_fd_sc_hd__dfrtp_2
*I *3950:X O *D sky130_fd_sc_hd__a32o_2
*CAP
1 *4410:D 0.000145998
2 *3950:X 6.50467e-05
3 *23:8 0.000211045
4 *4410:D *88:24 0.000168985
5 *23:8 *3925:A2 0.000138727
6 *23:8 *4410:RESET_B 6.68793e-05
*RES
1 *3950:X *23:8 39.9057 
2 *23:8 *4410:D 41.48 
*END

*D_NET *24 0.00246688
*CONN
*I *4411:D I *D sky130_fd_sc_hd__dfrtp_2
*I *3949:X O *D sky130_fd_sc_hd__a21o_2
*CAP
1 *4411:D 0.00020379
2 *3949:X 0.000413308
3 *24:10 0.000617098
4 *4411:D *4411:CLK 9.8672e-05
5 *4411:D *541:10 3.60434e-06
6 *24:10 *4427:CLK 0.000190742
7 *24:10 *165:33 1.794e-05
8 *24:10 *449:27 3.46302e-05
9 *24:10 *482:69 0.000368415
10 *24:10 *521:78 1.61983e-05
11 *24:10 *622:16 0.000502483
*RES
1 *3949:X *24:10 49.1029 
2 *24:10 *4411:D 40.5945 
*END

*D_NET *25 0.000459091
*CONN
*I *4814:A I *D sky130_fd_sc_hd__dlygate4sd3_1
*I *3947:X O *D sky130_fd_sc_hd__a32o_2
*CAP
1 *4814:A 5.145e-05
2 *3947:X 9.54035e-05
3 *25:8 0.000146853
4 *25:8 *89:23 0
5 *25:8 *617:8 0.000165384
*RES
1 *3947:X *25:8 40.2579 
2 *25:8 *4814:A 38.6214 
*END

*D_NET *26 0.00160529
*CONN
*I *4406:D I *D sky130_fd_sc_hd__dfrtp_2
*I *3934:X O *D sky130_fd_sc_hd__a32o_2
*CAP
1 *4406:D 8.83217e-05
2 *3934:X 0.000189694
3 *26:8 0.000278016
4 *4406:D *167:33 9.76261e-05
5 *4406:D *518:38 5.41288e-05
6 *26:8 *107:128 5.44006e-05
7 *26:8 *111:73 0.000141879
8 *26:8 *163:14 0.000567669
9 *26:8 *169:10 0.000133553
*RES
1 *3934:X *26:8 45.54 
2 *26:8 *4406:D 40.0507 
*END

*D_NET *27 0.000949956
*CONN
*I *4752:A I *D sky130_fd_sc_hd__dlygate4sd3_1
*I *3941:Y O *D sky130_fd_sc_hd__nand2_2
*CAP
1 *4752:A 0
2 *3941:Y 0.00025151
3 *27:10 0.00025151
4 *27:10 *4400:CLK 6.93449e-05
5 *27:10 *4404:CLK 3.22879e-05
6 *27:10 *100:14 0
7 *27:10 *529:23 0.000345304
8 *27:10 *744:42 0
*RES
1 *3941:Y *27:10 43.3443 
2 *27:10 *4752:A 38 
*END

*D_NET *28 0.00109719
*CONN
*I *4402:D I *D sky130_fd_sc_hd__dfrtp_2
*I *3939:X O *D sky130_fd_sc_hd__a32o_2
*CAP
1 *4402:D 0
2 *3939:X 0.000298564
3 *28:10 0.000298564
4 *28:10 *3939:A3 0.000197331
5 *28:10 *3941:A 2.7435e-05
6 *28:10 *88:24 0.000191255
7 *28:10 *90:29 8.4047e-05
*RES
1 *3939:X *28:10 43.6136 
2 *28:10 *4402:D 38 
*END

*D_NET *29 0.000602388
*CONN
*I *4403:D I *D sky130_fd_sc_hd__dfrtp_2
*I *3938:X O *D sky130_fd_sc_hd__a22o_2
*CAP
1 *4403:D 0
2 *3938:X 0.000170128
3 *29:10 0.000170128
4 *29:10 *3867:C 5.12328e-05
5 *29:10 *4407:RESET_B 1.14452e-05
6 *29:10 *449:13 6.53505e-05
7 *29:10 *482:10 7.90939e-05
8 *29:10 *526:24 5.50106e-05
*RES
1 *3938:X *29:10 42.5364 
2 *29:10 *4403:D 38 
*END

*D_NET *30 0.00181236
*CONN
*I *4404:D I *D sky130_fd_sc_hd__dfrtp_2
*I *3936:X O *D sky130_fd_sc_hd__a31o_2
*CAP
1 *4404:D 0
2 *3936:X 0.000429809
3 *30:10 0.000429809
4 *30:10 *3935:A2 0
5 *30:10 *3936:A3 1.41077e-05
6 *30:10 *166:10 0.000399966
7 *30:10 *529:23 1.69668e-05
8 *30:10 *529:57 0.000148614
9 *30:10 *529:76 0
10 *30:10 *744:34 0.000373091
*RES
1 *3936:X *30:10 47.4664 
2 *30:10 *4404:D 38 
*END

*D_NET *31 0.00228604
*CONN
*I *4451:D I *D sky130_fd_sc_hd__dfstp_2
*I *3929:X O *D sky130_fd_sc_hd__a311o_2
*CAP
1 *4451:D 2.49996e-05
2 *3929:X 0.000634596
3 *31:12 0.000659595
4 *4451:D *159:12 0.000146822
5 *4451:D *476:68 8.15864e-05
6 *31:12 *3922:A 1.83327e-05
7 *31:12 *3922:B 0.000218601
8 *31:12 *154:38 0.000142102
9 *31:12 *158:16 0.00035941
10 *31:12 *745:50 0
*RES
1 *3929:X *31:12 48.73 
2 *31:12 *4451:D 39.5743 
*END

*D_NET *32 0.00136537
*CONN
*I *4452:D I *D sky130_fd_sc_hd__dfrtp_2
*I *3926:X O *D sky130_fd_sc_hd__a22o_2
*CAP
1 *4452:D 1.63422e-05
2 *3926:X 0.000192775
3 *32:8 0.000209117
4 *4452:D *476:80 7.53384e-06
5 *4452:D *696:41 5.67058e-05
6 *4452:D *743:10 9.88574e-06
7 *32:8 *3926:A2 6.38845e-05
8 *32:8 *154:16 4.32372e-05
9 *32:8 *476:80 0.000423298
10 *32:8 *745:14 0.000296947
11 *32:8 *745:27 4.56384e-05
*RES
1 *3926:X *32:8 44.8357 
2 *32:8 *4452:D 38.6214 
*END

*D_NET *33 0.00200685
*CONN
*I *4453:D I *D sky130_fd_sc_hd__dfrtp_2
*I *3923:X O *D sky130_fd_sc_hd__a22o_2
*CAP
1 *4453:D 0.000410798
2 *3923:X 0.000202657
3 *33:10 0.000613456
4 *4453:D *4424:RESET_B 6.66635e-05
5 *4453:D *154:31 1.03934e-05
6 *4453:D *559:10 0.000116321
7 *4453:D *592:10 0.000344711
8 *4453:D *713:31 2.93747e-05
9 *4453:D *744:8 0
10 *33:10 *154:16 1.10658e-05
11 *33:10 *154:31 5.56279e-05
12 *33:10 *559:10 2.98648e-05
13 *33:10 *664:51 7.72746e-05
14 *33:10 *745:14 3.86462e-05
*RES
1 *3923:X *33:10 41.9771 
2 *33:10 *4453:D 46.8657 
*END

*D_NET *34 0.00129393
*CONN
*I *4448:D I *D sky130_fd_sc_hd__dfstp_2
*I *3919:X O *D sky130_fd_sc_hd__a221o_2
*CAP
1 *4448:D 0
2 *3919:X 0.000427201
3 *34:10 0.000427201
4 *34:10 *148:27 7.1915e-05
5 *34:10 *682:14 0.000138708
6 *34:10 *749:42 0.000228909
*RES
1 *3919:X *34:10 44.815 
2 *34:10 *4448:D 38 
*END

*D_NET *35 0.000953611
*CONN
*I *4444:D I *D sky130_fd_sc_hd__dfstp_2
*I *3891:X O *D sky130_fd_sc_hd__a21o_2
*CAP
1 *4444:D 0
2 *3891:X 0.000223528
3 *35:10 0.000223528
4 *35:10 *3891:B1 0.000124306
5 *35:10 *4073:A 0.000165593
6 *35:10 *126:10 0.000163352
7 *35:10 *126:20 5.3304e-05
*RES
1 *3891:X *35:10 42.3086 
2 *35:10 *4444:D 38 
*END

*D_NET *36 0.000332595
*CONN
*I *4445:D I *D sky130_fd_sc_hd__dfrtp_2
*I *3889:X O *D sky130_fd_sc_hd__a2bb2o_2
*CAP
1 *4445:D 0
2 *3889:X 0.000127208
3 *36:10 0.000127208
4 *36:10 *3889:A1_N 3.22879e-05
5 *36:10 *4445:CLK 0
6 *36:10 *125:10 4.58924e-05
*RES
1 *3889:X *36:10 40.5271 
2 *36:10 *4445:D 38 
*END

*D_NET *37 0.000571453
*CONN
*I *4446:D I *D sky130_fd_sc_hd__dfrtp_2
*I *3888:X O *D sky130_fd_sc_hd__a32o_2
*CAP
1 *4446:D 0
2 *3888:X 8.1016e-05
3 *37:8 8.1016e-05
4 *37:8 *123:55 0.000193034
5 *37:8 *712:31 0.000216387
*RES
1 *3888:X *37:8 40.9621 
2 *37:8 *4446:D 38 
*END

*D_NET *38 0.000983051
*CONN
*I *4447:D I *D sky130_fd_sc_hd__dfrtp_2
*I *3887:X O *D sky130_fd_sc_hd__a22o_2
*CAP
1 *4447:D 0
2 *3887:X 0.000341491
3 *38:10 0.000341491
4 *38:10 *3887:B1 0.000190611
5 *38:10 *123:55 1.79584e-05
6 *38:10 *449:192 7.59105e-05
7 *38:10 *712:31 1.55888e-05
*RES
1 *3887:X *38:10 45.2293 
2 *38:10 *4447:D 38 
*END

*D_NET *39 0.00201908
*CONN
*I *4467:D I *D sky130_fd_sc_hd__dfrtp_2
*I *4048:X O *D sky130_fd_sc_hd__and2_2
*CAP
1 *4467:D 0.000236869
2 *4048:X 0.000394111
3 *39:8 0.00063098
4 *4467:D *4054:A1 0.000100486
5 *4467:D *4467:CLK 8.09331e-05
6 *39:8 *4048:A 0
7 *39:8 *4468:CLK 4.69613e-05
8 *39:8 *532:10 0.000350371
9 *39:8 *642:26 0
10 *39:8 *685:62 0.000178368
11 *39:8 *714:16 0
*RES
1 *4048:X *39:8 48.005 
2 *39:8 *4467:D 42.4329 
*END

*D_NET *40 0.000672318
*CONN
*I *4468:D I *D sky130_fd_sc_hd__dfrtp_2
*I *4049:X O *D sky130_fd_sc_hd__and2_2
*CAP
1 *4468:D 0
2 *4049:X 0.000239054
3 *40:10 0.000239054
4 *40:10 *532:10 0.000186141
5 *40:10 *642:26 0
6 *40:10 *714:61 8.06804e-06
*RES
1 *4049:X *40:10 41.9564 
2 *40:10 *4468:D 38 
*END

*D_NET *41 0.000668192
*CONN
*I *4465:D I *D sky130_fd_sc_hd__dfrtp_2
*I *4050:X O *D sky130_fd_sc_hd__o21a_2
*CAP
1 *4465:D 0.000184453
2 *4050:X 7.87035e-05
3 *41:8 0.000263156
4 *41:8 *42:10 0
5 *41:8 *721:14 0.000141879
*RES
1 *4050:X *41:8 39.9057 
2 *41:8 *4465:D 41.0036 
*END

*D_NET *42 0.00137922
*CONN
*I *4466:D I *D sky130_fd_sc_hd__dfrtp_2
*I *4051:X O *D sky130_fd_sc_hd__o21a_2
*CAP
1 *4466:D 0
2 *4051:X 0.000459647
3 *42:10 0.000459647
4 *42:10 *4465:CLK 4.59027e-05
5 *42:10 *259:50 0.000136486
6 *42:10 *468:14 0
7 *42:10 *666:81 0.000136486
8 *42:10 *714:61 0.000141052
9 *42:10 *721:14 0
10 *41:8 *42:10 0
*RES
1 *4051:X *42:10 46.7621 
2 *42:10 *4466:D 38 
*END

*D_NET *43 0.000764082
*CONN
*I *4463:D I *D sky130_fd_sc_hd__dfrtp_2
*I *4053:X O *D sky130_fd_sc_hd__o21a_2
*CAP
1 *4463:D 0.000290834
2 *4053:X 7.62477e-05
3 *43:8 0.000367081
4 *43:8 *714:16 2.99194e-05
*RES
1 *4053:X *43:8 39.5536 
2 *43:8 *4463:D 42.4329 
*END

*D_NET *44 0.00142994
*CONN
*I *4464:D I *D sky130_fd_sc_hd__dfrtp_2
*I *4054:X O *D sky130_fd_sc_hd__o21a_2
*CAP
1 *4464:D 0
2 *4054:X 0.000404701
3 *44:10 0.000404701
4 *44:10 *4054:A1 0.00034336
5 *44:10 *4467:CLK 0.000100477
6 *44:10 *142:20 8.87259e-05
7 *44:10 *261:41 8.7975e-05
*RES
1 *4054:X *44:10 47.3421 
2 *44:10 *4464:D 38 
*END

*D_NET *45 0.00136161
*CONN
*I *4461:D I *D sky130_fd_sc_hd__dfrtp_2
*I *4058:X O *D sky130_fd_sc_hd__a31o_2
*CAP
1 *4461:D 9.55175e-05
2 *4058:X 0.000319665
3 *45:10 0.000415182
4 *45:10 *46:8 0.00034362
5 *45:10 *262:12 8.84375e-05
6 *45:10 *263:8 4.83778e-05
7 *45:10 *264:23 2.93747e-05
8 *45:10 *470:18 2.14404e-05
*RES
1 *4058:X *45:10 45.8093 
2 *45:10 *4461:D 38.9995 
*END

*D_NET *46 0.00151137
*CONN
*I *4745:A I *D sky130_fd_sc_hd__dlygate4sd3_1
*I *4059:Y O *D sky130_fd_sc_hd__a211oi_2
*CAP
1 *4745:A 3.80122e-05
2 *4059:Y 0.000240551
3 *46:8 0.000278563
4 *4745:A *4623:A 5.3304e-05
5 *46:8 *262:12 0.000557323
6 *45:10 *46:8 0.00034362
*RES
1 *4059:Y *46:8 45.54 
2 *46:8 *4745:A 38.6214 
*END

*D_NET *47 0.00147733
*CONN
*I *4459:D I *D sky130_fd_sc_hd__dfrtp_2
*I *4061:X O *D sky130_fd_sc_hd__and2_2
*CAP
1 *4459:D 0.000183833
2 *4061:X 0.000202071
3 *47:8 0.000385905
4 *4459:D *4459:RESET_B 6.74419e-06
5 *4459:D *469:36 2.00704e-05
6 *4459:D *469:42 1.84917e-05
7 *47:8 *265:8 0.00015049
8 *47:8 *469:42 0.000166387
9 *47:8 *469:60 0.000343336
*RES
1 *4061:X *47:8 44.8357 
2 *47:8 *4459:D 40.4287 
*END

*D_NET *48 0.000707121
*CONN
*I *4460:D I *D sky130_fd_sc_hd__dfrtp_2
*I *4062:X O *D sky130_fd_sc_hd__and2_2
*CAP
1 *4460:D 0
2 *4062:X 0.000278238
3 *48:10 0.000278238
4 *48:10 *4061:A 5.41385e-05
5 *48:10 *462:12 0
6 *48:10 *469:60 9.65075e-05
7 *48:10 *558:10 0
*RES
1 *4062:X *48:10 43.4686 
2 *48:10 *4460:D 38 
*END

*D_NET *49 0.00148009
*CONN
*I *4457:D I *D sky130_fd_sc_hd__dfrtp_2
*I *4063:X O *D sky130_fd_sc_hd__o31a_2
*CAP
1 *4457:D 5.41715e-05
2 *4063:X 0.000306363
3 *49:10 0.000360535
4 *49:10 *3901:C 3.6608e-05
5 *49:10 *4047:B 0.000166444
6 *49:10 *4848:A 3.42043e-05
7 *49:10 *666:64 5.26713e-05
8 *49:10 *666:81 4.26092e-05
9 *49:10 *672:106 0.000406198
10 *49:10 *721:14 2.02872e-05
*RES
1 *4063:X *49:10 45.9336 
2 *49:10 *4457:D 38.6888 
*END

*D_NET *50 0.00199466
*CONN
*I *4458:D I *D sky130_fd_sc_hd__dfrtp_2
*I *4064:X O *D sky130_fd_sc_hd__o31a_2
*CAP
1 *4458:D 0
2 *4064:X 0.000423296
3 *50:14 0.000423296
4 *50:14 *3901:B 0.000220592
5 *50:14 *4060:C 3.96473e-05
6 *50:14 *4064:A3 0.000135037
7 *50:14 *86:77 1.02444e-05
8 *50:14 *259:21 0.000167262
9 *50:14 *259:38 9.49424e-05
10 *50:14 *505:8 0.000290917
11 *50:14 *505:28 0.000141038
12 *50:14 *668:31 4.839e-05
*RES
1 *4064:X *50:14 49.1857 
2 *50:14 *4458:D 38 
*END

*D_NET *51 0.000459333
*CONN
*I *4472:D I *D sky130_fd_sc_hd__dfrtp_2
*I *4066:X O *D sky130_fd_sc_hd__and2_2
*CAP
1 *4472:D 0
2 *4066:X 0.000168871
3 *51:10 0.000168871
4 *51:10 *4067:A 5.12254e-05
5 *51:10 *714:16 7.03663e-05
*RES
1 *4066:X *51:10 41.0036 
2 *51:10 *4472:D 38 
*END

*D_NET *52 0.000722097
*CONN
*I *4473:D I *D sky130_fd_sc_hd__dfrtp_2
*I *4067:X O *D sky130_fd_sc_hd__and2_2
*CAP
1 *4473:D 0.000266062
2 *4067:X 9.49862e-05
3 *52:8 0.000361048
4 *52:8 *3988:A 0
5 *52:8 *4472:CLK 0
6 *52:8 *4811:A 0
*RES
1 *4067:X *52:8 39.5536 
2 *52:8 *4473:D 41.9564 
*END

*D_NET *53 0.00102646
*CONN
*I *4474:D I *D sky130_fd_sc_hd__dfrtp_2
*I *4071:X O *D sky130_fd_sc_hd__a31o_2
*CAP
1 *4474:D 0
2 *4071:X 0.000374425
3 *53:10 0.000374425
4 *53:10 *4475:CLK 0.000134226
5 *53:10 *4740:A 0
6 *53:10 *264:8 0
7 *53:10 *470:20 4.21594e-06
8 *53:10 *560:10 0.000103521
9 *53:10 *668:10 0
10 *53:10 *669:82 0
11 *53:10 *757:12 3.56433e-05
*RES
1 *4071:X *53:10 46.5136 
2 *53:10 *4474:D 38 
*END

*D_NET *54 0.000453196
*CONN
*I *4475:D I *D sky130_fd_sc_hd__dfrtp_2
*I *4072:X O *D sky130_fd_sc_hd__o211a_2
*CAP
1 *4475:D 0
2 *4072:X 0.000137387
3 *54:10 0.000137387
4 *54:10 *4071:B1 3.71369e-05
5 *54:10 *267:8 5.61414e-05
6 *54:10 *669:82 8.51432e-05
*RES
1 *4072:X *54:10 41.3557 
2 *54:10 *4475:D 38 
*END

*D_NET *55 0.000186828
*CONN
*I *4737:A I *D sky130_fd_sc_hd__dlygate4sd3_1
*I *4349:X O *D sky130_fd_sc_hd__o32a_2
*CAP
1 *4737:A 1.48031e-05
2 *4349:X 1.48031e-05
3 *4737:A *261:65 5.70419e-05
4 *4737:A *671:40 0.00010018
*RES
1 *4349:X *4737:A 47.0979 
*END

*D_NET *56 0.000665274
*CONN
*I *4417:D I *D sky130_fd_sc_hd__dfrtp_2
*I *4350:X O *D sky130_fd_sc_hd__o31a_2
*CAP
1 *4417:D 4.01985e-05
2 *4350:X 0.000289802
3 *56:10 0.000330001
4 *56:10 *4354:A1 0
5 *56:10 *86:36 0
6 *56:10 *497:77 0
7 *56:10 *503:10 5.27215e-06
*RES
1 *4350:X *56:10 42.0807 
2 *56:10 *4417:D 38.6214 
*END

*D_NET *57 0.00128873
*CONN
*I *4418:D I *D sky130_fd_sc_hd__dfrtp_2
*I *4351:X O *D sky130_fd_sc_hd__o21a_2
*CAP
1 *4418:D 0.000438133
2 *4351:X 3.89734e-05
3 *57:8 0.000477107
4 *4418:D *457:25 0.000124431
5 *4418:D *491:6 3.75146e-05
6 *57:8 *4355:A2 8.62876e-05
7 *57:8 *107:45 8.62876e-05
*RES
1 *4351:X *57:8 39.2014 
2 *57:8 *4418:D 44.2454 
*END

*D_NET *58 0.00128066
*CONN
*I *4419:D I *D sky130_fd_sc_hd__dfrtp_2
*I *4352:X O *D sky130_fd_sc_hd__o21a_2
*CAP
1 *4419:D 4.01985e-05
2 *4352:X 0.00053078
3 *58:10 0.000570978
4 *58:10 *4354:A3 0
5 *58:10 *4423:CLK 0
6 *58:10 *4666:A 0
7 *58:10 *62:10 0.000138708
8 *58:10 *107:47 0
9 *58:10 *642:28 0
10 *58:10 *726:10 0
*RES
1 *4352:X *58:10 47.8186 
2 *58:10 *4419:D 38.6214 
*END

*D_NET *59 0.000224196
*CONN
*I *4741:A I *D sky130_fd_sc_hd__dlygate4sd3_1
*I *4353:X O *D sky130_fd_sc_hd__o32a_2
*CAP
1 *4741:A 1.19175e-05
2 *4353:X 1.19175e-05
3 *4741:A *4353:A2 0.00010018
4 *4741:A *4353:A3 0.00010018
*RES
1 *4353:X *4741:A 47.0979 
*END

*D_NET *60 0.00107612
*CONN
*I *4421:D I *D sky130_fd_sc_hd__dfrtp_2
*I *4354:X O *D sky130_fd_sc_hd__o31a_2
*CAP
1 *4421:D 0
2 *4354:X 0.000358621
3 *60:10 0.000358621
4 *60:10 *4421:CLK 1.01436e-05
5 *60:10 *642:28 3.28876e-05
6 *60:10 *683:84 0.000315852
*RES
1 *4354:X *60:10 43.9864 
2 *60:10 *4421:D 38 
*END

*D_NET *61 0.00178824
*CONN
*I *4422:D I *D sky130_fd_sc_hd__dfrtp_2
*I *4355:X O *D sky130_fd_sc_hd__o21a_2
*CAP
1 *4422:D 0.000570144
2 *4355:X 0.00017648
3 *61:10 0.000746624
4 *61:10 *4012:A 0.000187129
5 *61:10 *227:29 4.21594e-06
6 *61:10 *449:266 0.000103647
7 *61:10 *676:20 0
8 *61:10 *722:10 0
*RES
1 *4355:X *61:10 42.3086 
2 *61:10 *4422:D 45.3587 
*END

*D_NET *62 0.000735203
*CONN
*I *4423:D I *D sky130_fd_sc_hd__dfrtp_2
*I *4356:X O *D sky130_fd_sc_hd__o21a_2
*CAP
1 *4423:D 0
2 *4356:X 0.000267301
3 *62:10 0.000267301
4 *62:10 *4666:A 0
5 *62:10 *714:37 6.18929e-05
6 *58:10 *62:10 0.000138708
*RES
1 *4356:X *62:10 42.4329 
2 *62:10 *4423:D 38 
*END

*D_NET *63 0.000558871
*CONN
*I *4424:D I *D sky130_fd_sc_hd__dfrtp_2
*I *4358:X O *D sky130_fd_sc_hd__a22o_2
*CAP
1 *4424:D 0
2 *4358:X 0.000261609
3 *63:10 0.000261609
4 *63:10 *4358:A1 0
5 *63:10 *4569:CLK 3.56537e-05
*RES
1 *4358:X *63:10 41.9927 
2 *63:10 *4424:D 38 
*END

*D_NET *64 0.00158942
*CONN
*I *4425:D I *D sky130_fd_sc_hd__dfrtp_2
*I *4360:X O *D sky130_fd_sc_hd__a22o_2
*CAP
1 *4425:D 0
2 *4360:X 0.000396612
3 *64:16 0.000396612
4 *64:16 *167:18 0.0002685
5 *64:16 *495:33 0.000199016
6 *64:16 *518:60 0
7 *64:16 *669:16 7.81176e-05
8 *64:16 *753:8 0.00025056
*RES
1 *4360:X *64:16 48.0257 
2 *64:16 *4425:D 38 
*END

*D_NET *65 0.000707995
*CONN
*I *4426:D I *D sky130_fd_sc_hd__dfrtp_2
*I *4363:X O *D sky130_fd_sc_hd__a221o_2
*CAP
1 *4426:D 0
2 *4363:X 0.00023423
3 *65:10 0.00023423
4 *65:10 *430:10 9.0404e-05
5 *65:10 *482:69 0.000110267
6 *65:10 *742:12 3.88629e-05
*RES
1 *4363:X *65:10 41.6043 
2 *65:10 *4426:D 38 
*END

*D_NET *66 0.000462154
*CONN
*I *4427:D I *D sky130_fd_sc_hd__dfrtp_2
*I *4365:X O *D sky130_fd_sc_hd__a221o_2
*CAP
1 *4427:D 0.000151961
2 *4365:X 0.000151961
3 *4427:D *4427:CLK 4.53082e-05
4 *4427:D *4427:RESET_B 0.000100486
5 *4427:D *165:16 1.24376e-05
*RES
1 *4365:X *4427:D 49.0243 
*END

*D_NET *67 0.001498
*CONN
*I *4428:D I *D sky130_fd_sc_hd__dfrtp_2
*I *4366:X O *D sky130_fd_sc_hd__o21a_2
*CAP
1 *4428:D 0
2 *4366:X 0.000180341
3 *67:8 0.000180341
4 *67:8 *4476:RESET_B 0.00019747
5 *67:8 *115:10 0.000563587
6 *67:8 *707:12 0.000376261
*RES
1 *4366:X *67:8 45.54 
2 *67:8 *4428:D 38 
*END

*D_NET *68 0.000456137
*CONN
*I *4429:D I *D sky130_fd_sc_hd__dfrtp_2
*I *4367:X O *D sky130_fd_sc_hd__o21a_2
*CAP
1 *4429:D 0
2 *4367:X 0.000228069
3 *68:10 0.000228069
4 *68:10 *4367:A2 0
*RES
1 *4367:X *68:10 41.48 
2 *68:10 *4429:D 38 
*END

*D_NET *69 0.000317207
*CONN
*I *4430:D I *D sky130_fd_sc_hd__dfrtp_2
*I *4372:X O *D sky130_fd_sc_hd__a31o_2
*CAP
1 *4430:D 0
2 *4372:X 0.000141295
3 *69:10 0.000141295
4 *69:10 *434:8 0
5 *69:10 *490:30 3.46181e-05
*RES
1 *4372:X *69:10 40.175 
2 *69:10 *4430:D 38 
*END

*D_NET *70 0.000345202
*CONN
*I *4431:D I *D sky130_fd_sc_hd__dfrtp_2
*I *4374:X O *D sky130_fd_sc_hd__a31o_2
*CAP
1 *4431:D 0
2 *4374:X 9.82209e-05
3 *70:10 9.82209e-05
4 *70:10 *490:39 3.81391e-05
5 *70:10 *651:86 5.50106e-05
6 *70:10 *651:92 5.561e-05
*RES
1 *4374:X *70:10 40.175 
2 *70:10 *4431:D 38 
*END

*D_NET *71 0.000852548
*CONN
*I *4432:D I *D sky130_fd_sc_hd__dfrtp_2
*I *4376:X O *D sky130_fd_sc_hd__a31o_2
*CAP
1 *4432:D 0
2 *4376:X 0.000364831
3 *71:14 0.000364831
4 *71:14 *4376:A1 3.70071e-06
5 *71:14 *4376:A3 5.70419e-05
6 *71:14 *4376:B1 1.94745e-05
7 *71:14 *4432:CLK 4.26687e-05
*RES
1 *4376:X *71:14 29.5457 
2 *71:14 *4432:D 23 
*END

*D_NET *72 0.000584999
*CONN
*I *4433:D I *D sky130_fd_sc_hd__dfrtp_2
*I *4378:X O *D sky130_fd_sc_hd__a31o_2
*CAP
1 *4433:D 0
2 *4378:X 0.000154791
3 *72:10 0.000154791
4 *72:10 *4434:RESET_B 0.000222113
5 *72:10 *433:42 0
6 *72:10 *438:10 0
7 *72:10 *554:10 0
8 *72:10 *689:12 5.3304e-05
*RES
1 *4378:X *72:10 41.5836 
2 *72:10 *4433:D 38 
*END

*D_NET *73 0.00113248
*CONN
*I *4756:A I *D sky130_fd_sc_hd__dlygate4sd3_1
*I *4380:X O *D sky130_fd_sc_hd__a31o_2
*CAP
1 *4756:A 0
2 *4380:X 0.000357324
3 *73:10 0.000357324
4 *73:10 *4381:A 3.92407e-05
5 *73:10 *4755:A 0.00014411
6 *73:10 *557:10 0
7 *73:10 *1016:12 0.000234484
*RES
1 *4380:X *73:10 46.5136 
2 *73:10 *4756:A 38 
*END

*D_NET *74 0.000720163
*CONN
*I *4435:D I *D sky130_fd_sc_hd__dfrtp_2
*I *4382:X O *D sky130_fd_sc_hd__a31o_2
*CAP
1 *4435:D 0
2 *4382:X 0.000182262
3 *74:10 0.000182262
4 *74:10 *440:8 0.000171906
5 *74:10 *650:85 0
6 *74:10 *939:50 0.000183733
*RES
1 *4382:X *74:10 42.3086 
2 *74:10 *4435:D 38 
*END

*D_NET *75 0.000785241
*CONN
*I *4436:D I *D sky130_fd_sc_hd__dfrtp_2
*I *4384:X O *D sky130_fd_sc_hd__a31o_2
*CAP
1 *4436:D 0
2 *4384:X 0.000227141
3 *75:10 0.000227141
4 *75:10 *4384:A2 5.25848e-05
5 *75:10 *4436:CLK 0.000111852
6 *75:10 *715:89 0.000166522
7 *75:10 *939:50 0
*RES
1 *4384:X *75:10 42.785 
2 *75:10 *4436:D 38 
*END

*D_NET *76 0.000466063
*CONN
*I *4437:D I *D sky130_fd_sc_hd__dfrtp_2
*I *4386:X O *D sky130_fd_sc_hd__a31o_2
*CAP
1 *4437:D 0.000116568
2 *4386:X 7.2373e-05
3 *76:8 0.000188941
4 *4437:D *4437:CLK 3.25709e-05
5 *76:8 *4384:A3 5.561e-05
6 *76:8 *953:8 0
*RES
1 *4386:X *76:8 39.5536 
2 *76:8 *4437:D 39.4759 
*END

*D_NET *77 0.000257333
*CONN
*I *4438:D I *D sky130_fd_sc_hd__dfrtp_2
*I *4388:X O *D sky130_fd_sc_hd__a31o_2
*CAP
1 *4438:D 0.000101276
2 *4388:X 0.000101276
3 *4438:D *4438:CLK 5.47808e-05
*RES
1 *4388:X *4438:D 48.0507 
*END

*D_NET *78 0.00141245
*CONN
*I *4439:D I *D sky130_fd_sc_hd__dfrtp_2
*I *4389:X O *D sky130_fd_sc_hd__a2bb2o_2
*CAP
1 *4439:D 0
2 *4389:X 0.00040626
3 *78:10 0.00040626
4 *78:10 *4387:B 0.000183027
5 *78:10 *442:8 0.000267167
6 *78:10 *489:10 3.56537e-05
7 *78:10 *709:40 0.000114083
*RES
1 *4389:X *78:10 44.9393 
2 *78:10 *4439:D 38 
*END

*D_NET *79 0.00165762
*CONN
*I *4440:D I *D sky130_fd_sc_hd__dfrtp_2
*I *4392:X O *D sky130_fd_sc_hd__o21a_2
*CAP
1 *4440:D 0.000194947
2 *4392:X 0.000455011
3 *79:14 0.000649958
4 *4440:D *4440:RESET_B 0.000125072
5 *79:14 *454:8 0.000232635
*RES
1 *4392:X *79:14 46.0164 
2 *79:14 *4440:D 41.48 
*END

*D_NET *80 0.000991888
*CONN
*I *4441:D I *D sky130_fd_sc_hd__dfrtp_2
*I *4394:X O *D sky130_fd_sc_hd__a21o_2
*CAP
1 *4441:D 0
2 *4394:X 0.000390835
3 *80:10 0.000390835
4 *80:10 *4637:A 1.59094e-05
5 *80:10 *454:8 0.000194309
6 *80:10 *706:59 0
*RES
1 *4394:X *80:10 44.09 
2 *80:10 *4441:D 38 
*END

*D_NET *81 0.00155931
*CONN
*I *4442:D I *D sky130_fd_sc_hd__dfrtp_2
*I *4397:X O *D sky130_fd_sc_hd__and2_2
*CAP
1 *4442:D 0.000298159
2 *4397:X 0.000285493
3 *81:14 0.000583652
4 *4442:D *4442:CLK 0.000106369
5 *81:14 *4443:CLK 0.000285634
6 *81:14 *454:8 0
*RES
1 *4397:X *81:14 43.4064 
2 *81:14 *4442:D 41.9771 
*END

*D_NET *82 0.000554493
*CONN
*I *4443:D I *D sky130_fd_sc_hd__dfrtp_2
*I *4399:X O *D sky130_fd_sc_hd__a21o_2
*CAP
1 *4443:D 0
2 *4399:X 0.00017831
3 *82:10 0.00017831
4 *82:10 *4399:A2 8.21105e-05
5 *82:10 *4399:B1 0
6 *82:10 *446:8 9.21347e-06
7 *82:10 *449:175 0.00010655
*RES
1 *4399:X *82:10 41.9564 
2 *82:10 *4443:D 38 
*END

*D_NET *83 0.00199696
*CONN
*I *3889:A1_N I *D sky130_fd_sc_hd__a2bb2o_2
*I *4391:A1 I *D sky130_fd_sc_hd__o21ai_2
*I *3834:Y O *D sky130_fd_sc_hd__inv_2
*CAP
1 *3889:A1_N 0.000473041
2 *4391:A1 0.000118735
3 *3834:Y 0.000130863
4 *83:10 0.000722639
5 *4391:A1 *3886:C 0.000155068
6 *4391:A1 *447:8 6.18235e-05
7 *4391:A1 *1010:25 1.02387e-05
8 *83:10 *3886:C 1.14452e-05
9 *83:10 *124:10 0.000169674
10 *83:10 *447:8 5.61311e-05
11 *83:10 *715:31 5.50106e-05
12 *36:10 *3889:A1_N 3.22879e-05
*RES
1 *3834:Y *83:10 40.8793 
2 *83:10 *4391:A1 40.61 
3 *83:10 *3889:A1_N 46.1511 
*END

*D_NET *84 0.00217036
*CONN
*I *3942:C I *D sky130_fd_sc_hd__and4b_2
*I *3918:A I *D sky130_fd_sc_hd__nor2_2
*I *3835:Y O *D sky130_fd_sc_hd__inv_2
*CAP
1 *3942:C 0.000211069
2 *3918:A 0.00038803
3 *3835:Y 1.02432e-05
4 *84:8 0.000609343
5 *3918:A *3919:A2 3.28708e-05
6 *3918:A *3919:B2 4.19048e-06
7 *3918:A *150:51 1.05235e-05
8 *3918:A *152:24 7.71797e-06
9 *3918:A *749:42 0.000386866
10 *3942:C *3942:A_N 5.50049e-05
11 *3942:C *98:26 6.9805e-05
12 *3942:C *747:25 1.83564e-05
13 *3942:C *747:109 0.000310653
14 *84:8 *3942:A_N 0
15 *3:14 *3918:A 5.18006e-05
16 *3:14 *3942:C 3.88964e-06
*RES
1 *3835:Y *84:8 38.3211 
2 *84:8 *3918:A 45.3432 
3 *84:8 *3942:C 43.2096 
*END

*D_NET *85 0.000349392
*CONN
*I *3871:A2 I *D sky130_fd_sc_hd__a21o_2
*I *3836:Y O *D sky130_fd_sc_hd__inv_2
*CAP
1 *3871:A2 8.24326e-05
2 *3836:Y 8.24326e-05
3 *3871:A2 *1022:59 0.000184527
*RES
1 *3836:Y *3871:A2 48.0507 
*END

*D_NET *86 0.0129143
*CONN
*I *3896:B I *D sky130_fd_sc_hd__nand2_2
*I *4060:B I *D sky130_fd_sc_hd__or3_2
*I *3905:A1 I *D sky130_fd_sc_hd__a31o_2
*I *3911:A I *D sky130_fd_sc_hd__or4_2
*I *4065:B I *D sky130_fd_sc_hd__or3_2
*I *4350:A1 I *D sky130_fd_sc_hd__o31a_2
*I *4354:A1 I *D sky130_fd_sc_hd__o31a_2
*I *3953:A I *D sky130_fd_sc_hd__nor2_2
*I *3837:Y O *D sky130_fd_sc_hd__inv_2
*CAP
1 *3896:B 0
2 *4060:B 0
3 *3905:A1 0
4 *3911:A 4.01156e-05
5 *4065:B 0.000155563
6 *4350:A1 3.59922e-05
7 *4354:A1 0.000281842
8 *3953:A 0.000222478
9 *3837:Y 0
10 *86:103 0.00100889
11 *86:77 0.00015685
12 *86:71 0.000347832
13 *86:65 0.00127791
14 *86:36 0.000266347
15 *86:25 0.000820476
16 *86:21 0.0011617
17 *86:8 0.00147521
18 *86:6 0.00067303
19 *3911:A *4469:CLK 0
20 *3953:A *148:12 0.000244701
21 *3953:A *149:18 0
22 *3953:A *259:8 0.000225265
23 *4065:B *3892:A 0
24 *4065:B *111:47 3.94695e-05
25 *4354:A1 *4417:RESET_B 0
26 *4354:A1 *111:47 0.000189645
27 *4354:A1 *683:84 0
28 *86:8 *3913:A2 0
29 *86:8 *139:8 4.46101e-05
30 *86:8 *140:10 0
31 *86:8 *147:12 0
32 *86:8 *148:12 0.000147278
33 *86:8 *259:8 0.00100807
34 *86:8 *259:21 0.000228829
35 *86:8 *668:44 0.0002603
36 *86:8 *728:8 1.07299e-05
37 *86:21 *3911:B 2.31797e-05
38 *86:21 *4469:CLK 0.000181131
39 *86:25 *3911:B 4.04598e-06
40 *86:25 *3911:C 4.74355e-05
41 *86:36 *111:47 6.29985e-05
42 *86:65 *259:21 0.000198071
43 *86:65 *259:38 8.52083e-06
44 *86:65 *668:44 0.000181643
45 *86:65 *728:8 1.29944e-05
46 *86:71 *4060:A 0.000309963
47 *86:71 *505:28 5.58003e-05
48 *86:77 *137:14 0.000216541
49 *86:77 *505:8 2.14486e-05
50 *86:77 *505:28 4.41821e-06
51 *86:103 *3902:C_N 1.43918e-05
52 *86:103 *131:17 0.000308946
53 *86:103 *137:14 0
54 *86:103 *259:38 0.000178329
55 *86:103 *259:44 4.70953e-05
56 *86:103 *259:50 2.02872e-05
57 *86:103 *449:113 9.64022e-05
58 *86:103 *666:81 2.64616e-05
59 *86:103 *686:10 0.000406185
60 *86:103 *728:8 0.000154635
61 *50:14 *86:77 1.02444e-05
62 *56:10 *4354:A1 0
63 *56:10 *86:36 0
*RES
1 *3837:Y *86:6 38 
2 *86:6 *86:8 16.6957 
3 *86:8 *3953:A 44.4836 
4 *86:8 *86:21 23.2443 
5 *86:21 *86:25 20.8621 
6 *86:25 *4354:A1 44.4836 
7 *86:25 *86:36 1.72964 
8 *86:36 *4350:A1 38.9425 
9 *86:36 *4065:B 40.4339 
10 *86:21 *3911:A 23.8493 
11 *86:6 *86:65 2.96214 
12 *86:65 *86:71 18.9771 
13 *86:71 *86:77 32.9621 
14 *86:77 *3905:A1 23 
15 *86:71 *4060:B 23 
16 *86:65 *86:103 34.7821 
17 *86:103 *3896:B 23 
*END

*D_NET *87 0.00864629
*CONN
*I *3905:A2 I *D sky130_fd_sc_hd__a31o_2
*I *3900:B I *D sky130_fd_sc_hd__and4_2
*I *3908:A I *D sky130_fd_sc_hd__or4_2
*I *4046:A I *D sky130_fd_sc_hd__or3_2
*I *3954:A I *D sky130_fd_sc_hd__nor2_2
*I *3838:Y O *D sky130_fd_sc_hd__inv_2
*CAP
1 *3905:A2 0
2 *3900:B 0
3 *3908:A 0.000112403
4 *4046:A 0.000278567
5 *3954:A 0
6 *3838:Y 8.78391e-05
7 *87:62 0.000778906
8 *87:51 0.000259106
9 *87:34 0.000496836
10 *87:30 0.00109316
11 *87:14 0.000959312
12 *87:8 0.000957515
13 *3908:A *143:8 0.000189848
14 *3908:A *497:27 6.4554e-05
15 *3908:A *515:14 3.26241e-05
16 *4046:A *756:10 5.50049e-05
17 *87:8 *261:22 2.38288e-05
18 *87:14 *4354:A2 2.76611e-06
19 *87:14 *130:8 0.000111148
20 *87:14 *138:25 0.000348639
21 *87:14 *666:14 0.000247687
22 *87:14 *670:25 2.47304e-05
23 *87:14 *670:27 6.03737e-05
24 *87:14 *670:29 8.33262e-05
25 *87:14 *670:31 6.95768e-05
26 *87:30 *130:8 7.0654e-05
27 *87:30 *666:14 1.01436e-05
28 *87:30 *666:58 0.000300931
29 *87:34 *143:8 0.000435403
30 *87:34 *666:64 0.000100477
31 *87:34 *672:59 0.000106485
32 *87:51 *135:10 0.000281712
33 *87:51 *672:55 0.000108129
34 *87:62 *3901:C 2.97697e-05
35 *87:62 *3904:C 0.000324468
36 *87:62 *136:8 0.000193024
37 *87:62 *137:14 9.19193e-05
38 *87:62 *666:58 3.46013e-05
39 *87:62 *666:64 5.02776e-05
40 *87:62 *672:71 0.000170542
*RES
1 *3838:Y *87:8 39.0979 
2 *87:8 *87:14 30.95 
3 *87:14 *3954:A 23 
4 *87:14 *4046:A 27.93 
5 *87:8 *87:30 4.37071 
6 *87:30 *87:34 19.9093 
7 *87:34 *3908:A 26.5007 
8 *87:34 *87:51 34.5571 
9 *87:51 *3900:B 23 
10 *87:30 *87:62 28.0914 
11 *87:62 *3905:A2 23 
*END

*D_NET *88 0.0057591
*CONN
*I *3941:A I *D sky130_fd_sc_hd__nand2_2
*I *4072:C1 I *D sky130_fd_sc_hd__o211a_2
*I *3839:Y O *D sky130_fd_sc_hd__inv_2
*CAP
1 *3941:A 0.000239173
2 *4072:C1 3.4075e-05
3 *3839:Y 0.00160956
4 *88:24 0.00181466
5 *3941:A *3939:A1 0.000551365
6 *3941:A *3939:A3 5.56356e-05
7 *4072:C1 *4071:B1 0.000230604
8 *4072:C1 *4072:A1 0.000131304
9 *88:24 *3939:A3 1.11037e-05
10 *88:24 *3939:B1 1.05846e-05
11 *88:24 *3939:B2 0.000115331
12 *88:24 *4072:A1 0.000359326
13 *88:24 *4410:CLK 0.000145775
14 *88:24 *499:29 1.22822e-05
15 *88:24 *703:90 5.0645e-05
16 *4410:D *88:24 0.000168985
17 *28:10 *3941:A 2.7435e-05
18 *28:10 *88:24 0.000191255
*RES
1 *3839:Y *4072:C1 48.5271 
2 *3839:Y *88:24 47.9814 
3 *88:24 *3941:A 30.2914 
*END

*D_NET *89 0.00585629
*CONN
*I *3875:A I *D sky130_fd_sc_hd__or3_2
*I *3951:A I *D sky130_fd_sc_hd__nand2_2
*I *3947:A2 I *D sky130_fd_sc_hd__a32o_2
*I *3936:A2 I *D sky130_fd_sc_hd__a31o_2
*I *3840:Y O *D sky130_fd_sc_hd__inv_2
*CAP
1 *3875:A 0
2 *3951:A 0
3 *3947:A2 0.000113456
4 *3936:A2 5.60457e-05
5 *3840:Y 0.000134856
6 *89:51 0.000445635
7 *89:36 0.000451727
8 *89:23 0.000931901
9 *89:10 0.00049074
10 *89:8 0.000648467
11 *3936:A2 *3936:A1 5.50049e-05
12 *3936:A2 *529:57 5.70419e-05
13 *3947:A2 *108:10 2.3191e-05
14 *3947:A2 *665:22 2.95526e-05
15 *89:8 *3935:A1 0.000221084
16 *89:8 *3936:A1 0.000181131
17 *89:8 *487:62 0
18 *89:10 *3935:A2 1.14876e-05
19 *89:10 *3936:A1 0.000357631
20 *89:10 *3936:B1 0.000143655
21 *89:10 *529:57 6.67283e-05
22 *89:10 *529:76 2.93747e-05
23 *89:23 *103:18 0
24 *89:23 *103:29 0
25 *89:23 *170:8 0
26 *89:23 *172:14 4.69488e-06
27 *89:23 *585:8 4.41821e-06
28 *89:23 *665:32 1.05658e-05
29 *89:23 *665:65 0
30 *89:36 *103:59 0.000671003
31 *89:36 *172:14 6.331e-05
32 *89:36 *528:47 3.13192e-05
33 *89:36 *585:8 0.000330569
34 *89:51 *3875:B 4.5707e-05
35 *89:51 *3875:C 4.07902e-05
36 *89:51 *3946:A 0.000140815
37 *89:51 *665:65 6.4393e-05
38 *25:8 *89:23 0
*RES
1 *3840:Y *89:8 26.5007 
2 *89:8 *89:10 3.95643 
3 *89:10 *3936:A2 24.595 
4 *89:10 *89:23 21.1314 
5 *89:23 *3947:A2 39.5743 
6 *89:23 *89:36 28.1743 
7 *89:36 *3951:A 23 
8 *89:8 *89:51 38.7414 
9 *89:51 *3875:A 23 
*END

*D_NET *90 0.00774454
*CONN
*I *3875:B I *D sky130_fd_sc_hd__or3_2
*I *3946:A I *D sky130_fd_sc_hd__nand2_2
*I *3939:A2 I *D sky130_fd_sc_hd__a32o_2
*I *3950:A2 I *D sky130_fd_sc_hd__a32o_2
*I *3841:Y O *D sky130_fd_sc_hd__inv_2
*CAP
1 *3875:B 9.78986e-05
2 *3946:A 0.000445427
3 *3939:A2 0
4 *3950:A2 0.000613155
5 *3841:Y 0.00148872
6 *90:45 0.000543326
7 *90:43 0.000425073
8 *90:29 0.000118149
9 *90:10 0.00179495
10 *3875:B *3875:C 1.32314e-05
11 *3950:A2 *4400:RESET_B 0.000276171
12 *3950:A2 *4402:RESET_B 0
13 *3950:A2 *525:8 0.000135037
14 *3950:A2 *703:90 0.000180224
15 *90:10 *4400:D 0.000139717
16 *90:10 *4400:RESET_B 0.000747328
17 *90:10 *102:34 0.000103174
18 *90:10 *523:10 2.30292e-05
19 *90:10 *987:14 0.000143655
20 *90:29 *100:26 2.5343e-05
21 *90:43 *3840:A 4.78793e-05
22 *90:43 *3935:A1 1.69668e-05
23 *90:43 *3940:A1 5.31444e-05
24 *90:43 *528:16 0
25 *90:43 *707:10 0
26 *90:43 *707:12 0
27 *90:43 *987:14 4.23714e-05
28 *28:10 *90:29 8.4047e-05
29 *89:51 *3875:B 4.5707e-05
30 *89:51 *3946:A 0.000140815
*RES
1 *3841:Y *90:10 43.1964 
2 *90:10 *3950:A2 32.86 
3 *90:10 *90:29 31.9057 
4 *90:29 *3939:A2 23 
5 *3841:Y *90:43 46.2443 
6 *90:43 *90:45 15 
7 *90:45 *3946:A 30.6643 
8 *90:45 *3875:B 25.0714 
*END

*D_NET *91 0.000509957
*CONN
*I *4059:A1 I *D sky130_fd_sc_hd__a211oi_2
*I *3842:Y O *D sky130_fd_sc_hd__inv_2
*CAP
1 *4059:A1 0.000254978
2 *3842:Y 0.000254978
*RES
1 *3842:Y *4059:A1 49.9771 
*END

*D_NET *92 0.00247061
*CONN
*I *4261:A1 I *D sky130_fd_sc_hd__o21ai_2
*I *3843:Y O *D sky130_fd_sc_hd__inv_2
*CAP
1 *4261:A1 0
2 *3843:Y 0.000101578
3 *92:14 0.000618446
4 *92:8 0.000720024
5 *92:8 *107:24 1.89065e-05
6 *92:8 *738:6 6.17437e-06
7 *92:8 *738:22 5.3304e-05
8 *92:14 *4261:B1 0
9 *92:14 *4355:A1 0.000166513
10 *92:14 *107:45 0.000117254
11 *92:14 *227:10 0
12 *92:14 *227:21 0
13 *92:14 *384:10 0.000128391
14 *92:14 *494:12 0.000271392
15 *92:14 *494:60 0.000231502
16 *92:14 *884:10 3.71251e-05
*RES
1 *3843:Y *92:8 39.5743 
2 *92:8 *92:14 29.7693 
3 *92:14 *4261:A1 23 
*END

*D_NET *93 0.00214934
*CONN
*I *4205:A1 I *D sky130_fd_sc_hd__o211ai_2
*I *3844:Y O *D sky130_fd_sc_hd__inv_2
*CAP
1 *4205:A1 0
2 *3844:Y 0.000521653
3 *93:10 0.000521653
4 *93:10 *4203:B1 0.00023145
5 *93:10 *243:12 0.000324186
6 *93:10 *564:95 0
7 *93:10 *655:76 0.000301419
8 *93:10 *840:12 0.000248979
*RES
1 *3844:Y *93:10 48.3571 
2 *93:10 *4205:A1 38 
*END

*D_NET *94 0.00303663
*CONN
*I *4148:A1 I *D sky130_fd_sc_hd__o21ai_2
*I *3845:Y O *D sky130_fd_sc_hd__inv_2
*CAP
1 *4148:A1 0
2 *3845:Y 0.00113058
3 *94:16 7.38847e-05
4 *94:10 0.00120446
5 *94:10 *4573:D 0.000225393
6 *94:10 *4821:A 0.000119313
7 *94:10 *626:10 4.19001e-05
8 *94:10 *794:6 7.82468e-05
9 *94:16 *315:10 0.000114092
10 *94:16 *658:20 1.83564e-05
11 *94:16 *660:14 3.04021e-05
*RES
1 *3845:Y *94:10 39.9857 
2 *94:10 *94:16 31.9057 
3 *94:16 *4148:A1 23 
*END

*D_NET *95 0.00253302
*CONN
*I *3919:A2 I *D sky130_fd_sc_hd__a221o_2
*I *3846:Y O *D sky130_fd_sc_hd__nor2_2
*CAP
1 *3919:A2 0.0002644
2 *3846:Y 0.000476706
3 *95:10 0.000741107
4 *3919:A2 *150:37 0.000369371
5 *3919:A2 *681:53 0.000116314
6 *3919:A2 *749:8 0
7 *3919:A2 *749:14 0
8 *95:10 *3862:C 0.000398991
9 *95:10 *150:16 4.75206e-05
10 *95:10 *519:65 3.91386e-05
11 *95:10 *749:14 4.66047e-05
12 *3918:A *3919:A2 3.28708e-05
*RES
1 *3846:Y *95:10 45.3121 
2 *95:10 *3919:A2 43.4582 
*END

*D_NET *96 0.00251888
*CONN
*I *4070:A I *D sky130_fd_sc_hd__or3_2
*I *4057:A I *D sky130_fd_sc_hd__or3b_2
*I *3848:A I *D sky130_fd_sc_hd__inv_2
*I *4069:A I *D sky130_fd_sc_hd__nor3_2
*I *3847:Y O *D sky130_fd_sc_hd__o21ai_2
*CAP
1 *4070:A 0
2 *4057:A 0
3 *3848:A 0.000207965
4 *4069:A 0
5 *3847:Y 0.000134721
6 *96:27 0.000392385
7 *96:18 0.000270265
8 *96:12 0.0001565
9 *96:8 0.000205375
10 *96:8 *160:27 0.000379413
11 *96:8 *495:71 0.000191649
12 *96:12 *751:23 4.67488e-05
13 *96:18 *4069:B 0.000156388
14 *96:18 *4070:B 6.25829e-05
15 *96:18 *160:27 3.70187e-05
16 *96:18 *160:38 0.000191157
17 *96:27 *4057:C_N 5.50049e-05
18 *96:27 *4069:C 3.17027e-05
*RES
1 *3847:Y *96:8 43.075 
2 *96:8 *96:12 16.0979 
3 *96:12 *96:18 32.9621 
4 *96:18 *4069:A 23 
5 *96:18 *96:27 3.50071 
6 *96:27 *3848:A 26.5007 
7 *96:27 *4057:A 23 
8 *96:12 *4070:A 23 
*END

*D_NET *97 0.0020079
*CONN
*I *3851:B1 I *D sky130_fd_sc_hd__a31oi_2
*I *3849:Y O *D sky130_fd_sc_hd__a21oi_2
*CAP
1 *3851:B1 6.19938e-05
2 *3849:Y 0.000659028
3 *97:12 0.000721021
4 *3851:B1 *3851:A1 7.8215e-05
5 *3851:B1 *162:16 4.75704e-05
6 *3851:B1 *449:226 4.67488e-05
7 *3851:B1 *518:60 5.02657e-05
8 *97:12 *519:26 2.36804e-05
9 *97:12 *644:8 8.78765e-06
10 *97:12 *669:39 0.000310591
*RES
1 *3849:Y *97:12 48.3607 
2 *97:12 *3851:B1 47.7711 
*END

*D_NET *98 0.00339369
*CONN
*I *3942:D I *D sky130_fd_sc_hd__and4b_2
*I *3851:A3 I *D sky130_fd_sc_hd__a31oi_2
*I *3850:Y O *D sky130_fd_sc_hd__nand2b_2
*CAP
1 *3942:D 0
2 *3851:A3 0
3 *3850:Y 0.000285625
4 *98:26 0.000630889
5 *98:16 0.000630889
6 *98:14 0.000285625
7 *98:14 *3846:A 0.000136738
8 *98:14 *107:92 0.000168307
9 *98:14 *111:10 0.000104123
10 *98:14 *150:16 7.73987e-05
11 *98:14 *495:71 0.00021039
12 *98:26 *3869:B 0.000103009
13 *98:26 *3870:B1 0.000111148
14 *98:26 *3942:A_N 5.67058e-05
15 *98:26 *3942:B 9.67842e-05
16 *98:26 *111:10 8.87047e-05
17 *98:26 *495:71 0
18 *98:26 *747:25 0
19 *98:26 *747:40 0.000323452
20 *98:26 *747:109 1.40958e-05
21 *3942:C *98:26 6.9805e-05
*RES
1 *3850:Y *98:14 44.6079 
2 *98:14 *98:16 15 
3 *98:16 *98:26 43.7336 
4 *98:26 *3851:A3 23 
5 *98:16 *3942:D 23 
*END

*D_NET *99 0.00420723
*CONN
*I *3857:A I *D sky130_fd_sc_hd__nor2_2
*I *3929:A2 I *D sky130_fd_sc_hd__a311o_2
*I *3852:Y O *D sky130_fd_sc_hd__nor3_2
*CAP
1 *3857:A 0.000247494
2 *3929:A2 6.81688e-05
3 *3852:Y 0.000224164
4 *99:22 0.00102877
5 *99:12 0.00143226
6 *3857:A *523:22 1.59071e-05
7 *3857:A *529:35 5.25022e-05
8 *3929:A2 *3922:B 0.000144501
9 *3929:A2 *154:38 1.24376e-05
10 *3929:A2 *158:16 3.48133e-05
11 *3929:A2 *745:50 2.93431e-05
12 *99:12 *3936:A3 2.64616e-05
13 *99:12 *103:10 0.000139704
14 *99:12 *483:14 5.20759e-05
15 *99:12 *529:35 0.000191429
16 *99:22 *4357:C_N 5.62672e-05
17 *99:22 *100:26 0
18 *99:22 *154:44 2.3172e-05
19 *99:22 *158:16 0.000233367
20 *99:22 *159:43 3.64337e-05
21 *99:22 *483:14 0.000157964
*RES
1 *3852:Y *99:12 42.9093 
2 *99:12 *99:22 46.1986 
3 *99:22 *3929:A2 40.0714 
4 *99:12 *3857:A 42.4743 
*END

*D_NET *100 0.00511989
*CONN
*I *3855:B I *D sky130_fd_sc_hd__nor2_2
*I *3929:A3 I *D sky130_fd_sc_hd__a311o_2
*I *3853:Y O *D sky130_fd_sc_hd__nor3_2
*CAP
1 *3855:B 2.30556e-05
2 *3929:A3 0
3 *3853:Y 4.99221e-05
4 *100:26 0.000777559
5 *100:14 0.00136743
6 *100:8 0.000616734
7 *100:8 *4636:A 5.3304e-05
8 *100:14 *3865:A 0
9 *100:14 *102:34 0.000137361
10 *100:14 *103:18 0
11 *100:14 *483:14 0.000949002
12 *100:14 *529:23 0
13 *100:14 *529:57 0
14 *100:14 *574:8 6.7177e-06
15 *100:14 *744:42 0.000234595
16 *100:26 *3939:A3 8.77628e-05
17 *100:26 *102:10 0.000188934
18 *100:26 *102:34 4.44329e-05
19 *100:26 *154:44 0.000276784
20 *100:26 *156:8 4.49481e-05
21 *100:26 *483:14 0.000128106
22 *100:26 *745:50 3.70094e-05
23 *22:10 *100:14 7.09002e-05
24 *27:10 *100:14 0
25 *90:29 *100:26 2.5343e-05
26 *99:22 *100:26 0
*RES
1 *3853:Y *100:8 38.6214 
2 *100:8 *100:14 29.3964 
3 *100:14 *100:26 46.0121 
4 *100:26 *3929:A3 23 
5 *100:14 *3855:B 23.4971 
*END

*D_NET *101 0.00230273
*CONN
*I *3864:A I *D sky130_fd_sc_hd__and2_2
*I *3865:A I *D sky130_fd_sc_hd__nand2_2
*I *3854:X O *D sky130_fd_sc_hd__or3_2
*CAP
1 *3864:A 0
2 *3865:A 0.000206836
3 *3854:X 0.000413086
4 *101:8 0.000619922
5 *3865:A *103:18 0.000108278
6 *3865:A *103:29 0.000122544
7 *3865:A *574:8 6.32694e-05
8 *101:8 *103:29 4.77164e-06
9 *101:8 *103:42 0.000160898
10 *101:8 *520:42 0.00016547
11 *101:8 *574:8 0.00032829
12 *22:10 *101:8 0.000109362
13 *100:14 *3865:A 0
*RES
1 *3854:X *101:8 48.3571 
2 *101:8 *3865:A 43.365 
3 *101:8 *3864:A 38 
*END

*D_NET *102 0.00662919
*CONN
*I *3935:A2 I *D sky130_fd_sc_hd__o21a_2
*I *3940:A2 I *D sky130_fd_sc_hd__o21ai_2
*I *3860:A2 I *D sky130_fd_sc_hd__o21a_2
*I *3857:B I *D sky130_fd_sc_hd__nor2_2
*I *3855:Y O *D sky130_fd_sc_hd__nor2_2
*CAP
1 *3935:A2 0.000199368
2 *3940:A2 0
3 *3860:A2 0
4 *3857:B 0
5 *3855:Y 0
6 *102:34 0.0010251
7 *102:23 0.000666332
8 *102:10 0.00103523
9 *102:4 0.00119463
10 *3935:A2 *529:57 6.17437e-06
11 *3935:A2 *529:76 0.000189952
12 *102:10 *3939:A3 7.03766e-05
13 *102:10 *4400:RESET_B 5.28733e-05
14 *102:23 *3868:A2 6.43005e-05
15 *102:23 *3939:A3 0.00014123
16 *102:23 *4635:A 0
17 *102:23 *4636:A 0.000194912
18 *102:23 *109:10 0.000110123
19 *102:23 *521:18 9.41704e-05
20 *102:23 *521:22 0
21 *102:23 *521:32 0
22 *102:23 *528:57 0.000429933
23 *102:23 *984:42 0.000213915
24 *102:34 *4400:RESET_B 0.000394105
25 *102:34 *166:10 0
26 *102:34 *523:47 0
27 *102:34 *529:76 3.92407e-05
28 *102:34 *550:8 0
29 *102:34 *744:42 2.18409e-05
30 *30:10 *3935:A2 0
31 *89:10 *3935:A2 1.14876e-05
32 *90:10 *102:34 0.000103174
33 *100:14 *102:34 0.000137361
34 *100:26 *102:10 0.000188934
35 *100:26 *102:34 4.44329e-05
*RES
1 *3855:Y *102:4 23 
2 *102:4 *102:10 20.8621 
3 *102:10 *3857:B 38 
4 *102:10 *102:23 32.1514 
5 *102:23 *3860:A2 23 
6 *102:4 *102:34 27.0557 
7 *102:34 *3940:A2 38 
8 *102:34 *3935:A2 41.8529 
*END

*D_NET *103 0.00715216
*CONN
*I *3865:B I *D sky130_fd_sc_hd__nand2_2
*I *3951:B I *D sky130_fd_sc_hd__nand2_2
*I *3948:B I *D sky130_fd_sc_hd__and3b_2
*I *3864:B I *D sky130_fd_sc_hd__and2_2
*I *3946:B I *D sky130_fd_sc_hd__nand2_2
*I *3856:Y O *D sky130_fd_sc_hd__o31ai_2
*CAP
1 *3865:B 2.48062e-05
2 *3951:B 0
3 *3948:B 0.000566253
4 *3864:B 2.80043e-05
5 *3946:B 0.000147423
6 *3856:Y 0.000272039
7 *103:59 0.000461065
8 *103:42 0.00124537
9 *103:29 0.000381171
10 *103:18 0.000629658
11 *103:10 0.000643963
12 *3864:B *172:14 5.5792e-05
13 *3865:B *483:14 6.38433e-05
14 *3948:B *520:23 0.000204349
15 *3948:B *520:36 0.000135925
16 *3948:B *984:36 4.78497e-05
17 *103:10 *109:10 0
18 *103:10 *483:14 0.000289333
19 *103:10 *523:22 0.000139067
20 *103:10 *523:35 8.16757e-06
21 *103:18 *109:8 2.45549e-06
22 *103:42 *172:14 0.00015508
23 *103:59 *3854:C 0.000173613
24 *103:59 *4774:A 6.55954e-05
25 *103:59 *520:36 6.17437e-06
26 *103:59 *528:47 5.93605e-05
27 *3865:A *103:18 0.000108278
28 *3865:A *103:29 0.000122544
29 *4818:A *3948:B 0.000138607
30 *89:23 *103:18 0
31 *89:23 *103:29 0
32 *89:36 *103:59 0.000671003
33 *99:12 *103:10 0.000139704
34 *100:14 *103:18 0
35 *101:8 *103:29 4.77164e-06
36 *101:8 *103:42 0.000160898
*RES
1 *3856:Y *103:10 43.5929 
2 *103:10 *103:18 34.8057 
3 *103:18 *3946:B 40.5271 
4 *103:18 *103:29 3.31429 
5 *103:29 *3864:B 38.6214 
6 *103:29 *103:42 20.075 
7 *103:42 *3948:B 33.1707 
8 *103:42 *103:59 41.9521 
9 *103:59 *3951:B 23 
10 *103:10 *3865:B 38.8493 
*END

*D_NET *104 0.00726387
*CONN
*I *3934:A3 I *D sky130_fd_sc_hd__a32o_2
*I *3924:B I *D sky130_fd_sc_hd__nand2_2
*I *3925:A3 I *D sky130_fd_sc_hd__a31oi_2
*I *3926:A2 I *D sky130_fd_sc_hd__a22o_2
*I *3859:C I *D sky130_fd_sc_hd__and3_2
*I *3858:B I *D sky130_fd_sc_hd__nand2_2
*I *3857:Y O *D sky130_fd_sc_hd__nor2_2
*CAP
1 *3934:A3 0
2 *3924:B 5.11028e-05
3 *3925:A3 0.000456892
4 *3926:A2 0.000205181
5 *3859:C 0
6 *3858:B 0
7 *3857:Y 0.000124182
8 *104:78 0.000172212
9 *104:40 0.000813383
10 *104:38 0.000854458
11 *104:24 0.000136475
12 *104:16 0.000627794
13 *104:6 0.00109534
14 *3924:B *741:12 5.40337e-05
15 *3925:A3 *3934:A1 0
16 *3925:A3 *154:6 2.98648e-05
17 *3925:A3 *154:38 5.12328e-05
18 *3925:A3 *157:10 6.69899e-05
19 *3925:A3 *584:16 0.000432345
20 *3926:A2 *3926:B1 1.82496e-05
21 *3926:A2 *154:16 3.81554e-05
22 *3926:A2 *476:80 3.05214e-05
23 *3926:A2 *743:23 0
24 *3926:A2 *745:27 4.2812e-06
25 *104:6 *584:10 0.000265362
26 *104:16 *3859:B 7.09783e-05
27 *104:16 *4782:A 9.41704e-05
28 *104:16 *4783:A 0.000269775
29 *104:16 *583:10 5.50106e-05
30 *104:16 *584:10 0.000183733
31 *104:24 *4410:RESET_B 0.000138727
32 *104:24 *583:10 3.95159e-06
33 *104:24 *583:16 2.76611e-06
34 *104:24 *742:41 0.00019249
35 *104:38 *584:10 0
36 *104:38 *584:16 0
37 *104:38 *713:12 0
38 *104:40 *584:16 0
39 *104:78 *3934:A1 0.000164518
40 *104:78 *157:10 0.000310647
41 *104:78 *584:16 4.75206e-05
42 *17:16 *3925:A3 0.000137651
43 *32:8 *3926:A2 6.38845e-05
*RES
1 *3857:Y *104:6 26.48 
2 *104:6 *104:16 10.3571 
3 *104:16 *104:24 33.48 
4 *104:24 *3858:B 23 
5 *104:16 *3859:C 23 
6 *104:6 *104:38 22.8921 
7 *104:38 *104:40 5.42714 
8 *104:40 *3926:A2 42.0186 
9 *104:40 *3925:A3 45.3121 
10 *104:38 *3924:B 39.0979 
11 *3925:A3 *104:78 27.9093 
12 *104:78 *3934:A3 23 
*END

*D_NET *105 0.00113807
*CONN
*I *3938:A2 I *D sky130_fd_sc_hd__a22o_2
*I *3858:Y O *D sky130_fd_sc_hd__nand2_2
*CAP
1 *3938:A2 1.00947e-05
2 *3858:Y 0.00032852
3 *105:8 0.000338615
4 *3938:A2 *3867:C 1.46586e-05
5 *105:8 *4403:RESET_B 4.38375e-05
6 *105:8 *4410:RESET_B 0
7 *105:8 *165:44 4.6318e-06
8 *105:8 *449:13 0.00029569
9 *105:8 *482:39 6.63801e-05
10 *20:21 *105:8 3.56433e-05
*RES
1 *3858:Y *105:8 45.8921 
2 *105:8 *3938:A2 38.1709 
*END

*D_NET *106 0.00349651
*CONN
*I *4207:A I *D sky130_fd_sc_hd__nand2_2
*I *3869:B I *D sky130_fd_sc_hd__nand2_2
*I *3870:B1 I *D sky130_fd_sc_hd__o211a_2
*I *3861:Y O *D sky130_fd_sc_hd__nor2_2
*CAP
1 *4207:A 0
2 *3869:B 0.000132749
3 *3870:B1 0.000329477
4 *3861:Y 0.000176939
5 *106:16 0.000780942
6 *106:10 0.000318716
7 *106:8 0.000176939
8 *3869:B *167:18 0
9 *3869:B *495:23 0
10 *3869:B *495:33 3.70187e-05
11 *3870:B1 *3851:A2 4.92689e-05
12 *3870:B1 *3870:A2 3.91386e-05
13 *3870:B1 *4409:CLK 1.5769e-05
14 *3870:B1 *4529:CLK 2.79543e-05
15 *3870:B1 *427:10 0
16 *3870:B1 *495:33 0.000173635
17 *3870:B1 *669:16 5.3304e-05
18 *3870:B1 *747:40 0
19 *3870:B1 *747:55 0.000111852
20 *106:8 *4207:B 0.000346215
21 *106:8 *107:73 5.51335e-05
22 *106:8 *150:37 3.70187e-05
23 *106:8 *459:8 0.000137788
24 *106:8 *681:63 0
25 *106:16 *4207:B 4.07902e-05
26 *106:16 *4425:RESET_B 0.000172426
27 *3:14 *106:8 6.9282e-05
28 *98:26 *3869:B 0.000103009
29 *98:26 *3870:B1 0.000111148
*RES
1 *3861:Y *106:8 43.4271 
2 *106:8 *106:10 15 
3 *106:10 *106:16 21.3593 
4 *106:16 *3870:B1 45.6229 
5 *106:16 *3869:B 40.9621 
6 *106:10 *4207:A 23 
*END

*D_NET *107 0.0215776
*CONN
*I *3934:B1 I *D sky130_fd_sc_hd__a32o_2
*I *3863:B1_N I *D sky130_fd_sc_hd__o21ba_2
*I *4151:A I *D sky130_fd_sc_hd__nand2_2
*I *4353:A3 I *D sky130_fd_sc_hd__o32a_2
*I *4354:A3 I *D sky130_fd_sc_hd__o31a_2
*I *4356:A1 I *D sky130_fd_sc_hd__o21a_2
*I *4355:A1 I *D sky130_fd_sc_hd__o21a_2
*I *3862:X O *D sky130_fd_sc_hd__or3_2
*CAP
1 *3934:B1 0
2 *3863:B1_N 0
3 *4151:A 0.00027981
4 *4353:A3 0.000252421
5 *4354:A3 0.000227984
6 *4356:A1 3.01775e-05
7 *4355:A1 5.66181e-05
8 *3862:X 0
9 *107:128 0.00111989
10 *107:111 0.0016835
11 *107:92 0.00194822
12 *107:73 0.0013151
13 *107:47 0.000474276
14 *107:45 0.00112348
15 *107:24 0.00192803
16 *107:8 0.00220304
17 *107:4 0.00128111
18 *4151:A *4360:B2 9.84794e-05
19 *4151:A *162:16 0
20 *4151:A *571:8 0
21 *4353:A3 *4353:A2 0.000212503
22 *4353:A3 *757:6 1.5769e-05
23 *4354:A3 *4352:A1 8.85189e-05
24 *4354:A3 *111:47 0.000104869
25 *4354:A3 *127:12 0
26 *4354:A3 *726:10 0.000127272
27 *4355:A1 *4355:A2 0.000168754
28 *4356:A1 *4356:A2 5.67058e-05
29 *4356:A1 *714:37 9.84851e-05
30 *107:8 *150:16 0.000132676
31 *107:24 *3843:A 0.000267173
32 *107:24 *150:16 0.00010366
33 *107:24 *738:6 2.64616e-05
34 *107:24 *738:22 1.94812e-05
35 *107:24 *749:14 0.000237388
36 *107:24 *862:8 0.000120189
37 *107:45 *4355:A2 0.00037407
38 *107:45 *4423:RESET_B 4.83893e-05
39 *107:45 *138:25 3.14274e-05
40 *107:45 *138:40 0
41 *107:45 *494:12 9.27814e-05
42 *107:45 *494:23 0.000335851
43 *107:45 *676:6 0.000515588
44 *107:45 *677:53 2.80623e-05
45 *107:47 *127:12 0
46 *107:47 *676:16 0
47 *107:47 *726:10 1.14452e-05
48 *107:47 *735:10 0
49 *107:47 *739:8 0
50 *107:73 *3916:A 5.43475e-05
51 *107:73 *4052:A 7.91493e-05
52 *107:73 *150:37 0.000150811
53 *107:73 *150:51 2.05503e-05
54 *107:73 *151:22 8.66035e-05
55 *107:73 *599:10 0.000153038
56 *107:73 *671:16 3.3123e-05
57 *107:73 *673:10 0
58 *107:73 *673:23 0
59 *107:73 *747:12 0.000186442
60 *107:73 *748:12 6.6869e-05
61 *107:73 *749:8 0
62 *107:73 *750:10 0.000126936
63 *107:92 *3850:B 2.93845e-05
64 *107:92 *3915:A1 0
65 *107:92 *4409:RESET_B 0.000128201
66 *107:92 *150:16 0.000280559
67 *107:92 *162:16 0.000163113
68 *107:92 *519:38 4.6595e-05
69 *107:92 *571:8 0
70 *107:92 *602:8 3.21327e-05
71 *107:92 *669:60 5.3304e-05
72 *107:111 *4409:RESET_B 5.10416e-05
73 *107:111 *4531:RESET_B 0
74 *107:111 *500:10 0.000188724
75 *107:111 *572:10 0
76 *107:111 *747:78 0.00046312
77 *107:128 *4531:RESET_B 0
78 *107:128 *111:73 1.22803e-05
79 *107:128 *111:88 0
80 *107:128 *163:14 0
81 *107:128 *167:33 0
82 *107:128 *169:10 0.000562267
83 *107:128 *519:26 0
84 *107:128 *572:10 4.117e-05
85 *107:128 *694:10 0
86 *107:128 *694:14 0
87 *4409:D *107:111 6.17437e-06
88 *4741:A *4353:A3 0.00010018
89 *3:14 *107:73 0.000555064
90 *26:8 *107:128 5.44006e-05
91 *57:8 *107:45 8.62876e-05
92 *58:10 *4354:A3 0
93 *58:10 *107:47 0
94 *92:8 *107:24 1.89065e-05
95 *92:14 *4355:A1 0.000166513
96 *92:14 *107:45 0.000117254
97 *98:14 *107:92 0.000168307
98 *106:8 *107:73 5.51335e-05
*RES
1 *3862:X *107:4 23 
2 *107:4 *107:8 3.02429 
3 *107:8 *107:24 31.24 
4 *107:24 *4355:A1 40.2579 
5 *107:24 *107:45 49.0364 
6 *107:45 *107:47 4.01857 
7 *107:47 *4356:A1 39.0979 
8 *107:47 *4354:A3 43.075 
9 *107:8 *107:73 39.505 
10 *107:73 *4353:A3 43.8621 
11 *107:4 *107:92 35.5486 
12 *107:92 *4151:A 42.06 
13 *107:92 *107:111 44.5414 
14 *107:111 *3863:B1_N 38 
15 *107:111 *107:128 37.1021 
16 *107:128 *3934:B1 23 
*END

*D_NET *108 0.00235818
*CONN
*I *4686:A I *D sky130_fd_sc_hd__clkdlybuf4s25_1
*I *3864:X O *D sky130_fd_sc_hd__and2_2
*CAP
1 *4686:A 0.000189607
2 *3864:X 0.000524753
3 *108:10 0.00071436
4 *4686:A *618:10 3.71887e-05
5 *108:10 *3872:A0 8.68922e-05
6 *108:10 *3947:B1 6.25714e-05
7 *108:10 *3952:A1 1.32939e-05
8 *108:10 *172:14 2.30292e-05
9 *108:10 *528:16 0.000240056
10 *108:10 *617:8 7.17279e-05
11 *108:10 *665:14 4.08664e-05
12 *108:10 *665:16 8.43466e-05
13 *108:10 *665:22 0.000246298
14 *3947:A2 *108:10 2.3191e-05
*RES
1 *3864:X *108:10 49.5586 
2 *108:10 *4686:A 41.48 
*END

*D_NET *109 0.00397684
*CONN
*I *3868:A2 I *D sky130_fd_sc_hd__o21a_2
*I *3936:A3 I *D sky130_fd_sc_hd__a31o_2
*I *3939:A3 I *D sky130_fd_sc_hd__a32o_2
*I *3865:Y O *D sky130_fd_sc_hd__nand2_2
*CAP
1 *3868:A2 0.000149224
2 *3936:A3 0.000584538
3 *3939:A3 0.000366751
4 *3865:Y 0.000252365
5 *109:10 0.00107079
6 *109:8 0.000521093
7 *3868:A2 *3868:B1 9.67842e-05
8 *3936:A3 *529:57 2.93845e-05
9 *3939:A3 *3856:A1 0.00011994
10 *3939:A3 *521:32 5.08422e-06
11 *3941:A *3939:A3 5.56356e-05
12 *28:10 *3939:A3 0.000197331
13 *30:10 *3936:A3 1.41077e-05
14 *88:24 *3939:A3 1.11037e-05
15 *99:12 *3936:A3 2.64616e-05
16 *100:26 *3939:A3 8.77628e-05
17 *102:10 *3939:A3 7.03766e-05
18 *102:23 *3868:A2 6.43005e-05
19 *102:23 *3939:A3 0.00014123
20 *102:23 *109:10 0.000110123
21 *103:10 *109:10 0
22 *103:18 *109:8 2.45549e-06
*RES
1 *3865:Y *109:8 41.9564 
2 *109:8 *109:10 2.96214 
3 *109:10 *3939:A3 47.715 
4 *109:10 *3936:A3 46.7207 
5 *109:8 *3868:A2 41.0036 
*END

*D_NET *110 0.000913506
*CONN
*I *3949:A2 I *D sky130_fd_sc_hd__a21o_2
*I *3866:Y O *D sky130_fd_sc_hd__nand2_2
*CAP
1 *3949:A2 0
2 *3866:Y 0.000129841
3 *110:6 0.000129841
4 *110:6 *3949:A1 0.000409459
5 *110:6 *3949:B1 0.000100477
6 *110:6 *449:125 0.000143887
*RES
1 *3866:Y *110:6 28.3857 
2 *110:6 *3949:A2 23 
*END

*D_NET *111 0.019418
*CONN
*I *4349:A3 I *D sky130_fd_sc_hd__o32a_2
*I *4094:A I *D sky130_fd_sc_hd__nand2_2
*I *3945:B1 I *D sky130_fd_sc_hd__a32o_2
*I *4351:A1 I *D sky130_fd_sc_hd__o21a_2
*I *4350:A3 I *D sky130_fd_sc_hd__o31a_2
*I *4352:A1 I *D sky130_fd_sc_hd__o21a_2
*I *3869:Y O *D sky130_fd_sc_hd__nand2_2
*CAP
1 *4349:A3 0
2 *4094:A 0
3 *3945:B1 0
4 *4351:A1 0
5 *4350:A3 0
6 *4352:A1 5.60887e-05
7 *3869:Y 0.000357622
8 *111:99 0.000863833
9 *111:88 0.000544153
10 *111:73 0.000167287
11 *111:65 0.00203273
12 *111:61 0.00229898
13 *111:47 0.000540887
14 *111:28 0.000596976
15 *111:26 0.00114075
16 *111:18 0.00252767
17 *111:10 0.0018584
18 *4352:A1 *127:12 0
19 *111:10 *3942:A_N 3.83778e-05
20 *111:10 *495:71 5.83189e-05
21 *111:10 *669:50 5.70419e-05
22 *111:10 *747:25 0
23 *111:18 *4448:CLK 0.000180812
24 *111:18 *4448:SET_B 1.53169e-05
25 *111:18 *494:23 2.19436e-05
26 *111:18 *738:22 4.08537e-05
27 *111:18 *747:12 9.41704e-05
28 *111:18 *747:19 9.67842e-05
29 *111:18 *747:109 0.000352426
30 *111:26 *4352:A2 0.000183733
31 *111:26 *4352:B1 0.000164354
32 *111:26 *4450:D 0.000490586
33 *111:26 *144:10 0
34 *111:26 *494:23 0.000111148
35 *111:26 *494:32 0.000248188
36 *111:47 *3892:A 0
37 *111:47 *4350:A2 5.50049e-05
38 *111:47 *127:8 0
39 *111:47 *737:12 0
40 *111:61 *3942:A_N 3.62323e-05
41 *111:61 *495:71 7.06124e-05
42 *111:61 *748:23 7.28629e-05
43 *111:65 *3847:A2 5.41288e-05
44 *111:65 *3931:C 0.000100374
45 *111:65 *161:10 5.50091e-05
46 *111:65 *518:10 1.11304e-05
47 *111:73 *3945:B2 5.3304e-05
48 *111:73 *169:10 0.000114083
49 *111:88 *3943:A 5.50049e-05
50 *111:88 *3944:A2 5.3304e-05
51 *111:88 *167:33 0.000138718
52 *111:88 *694:10 2.55642e-05
53 *111:88 *694:12 0.000243847
54 *111:88 *694:14 0.000218962
55 *111:99 *4057:B 0.000239775
56 *111:99 *4420:RESET_B 0.000283088
57 *111:99 *261:69 3.3123e-05
58 *111:99 *264:8 0.000298923
59 *111:99 *495:71 4.06408e-05
60 *111:99 *498:20 1.01436e-05
61 *111:99 *499:14 8.51432e-05
62 *111:99 *599:10 0
63 *111:99 *673:10 0.000351608
64 *111:99 *673:23 0.000201377
65 *111:99 *732:10 5.97612e-05
66 *111:99 *748:23 0.000142326
67 *111:99 *751:10 0.000275482
68 *4065:B *111:47 3.94695e-05
69 *4354:A1 *111:47 0.000189645
70 *4354:A3 *4352:A1 8.85189e-05
71 *4354:A3 *111:47 0.000104869
72 *21:10 *111:73 6.65155e-05
73 *26:8 *111:73 0.000141879
74 *86:36 *111:47 6.29985e-05
75 *98:14 *111:10 0.000104123
76 *98:26 *111:10 8.87047e-05
77 *107:128 *111:73 1.22803e-05
78 *107:128 *111:88 0
*RES
1 *3869:Y *111:10 44.8771 
2 *111:10 *111:18 49.5543 
3 *111:18 *111:26 35.5486 
4 *111:26 *111:28 15 
5 *111:28 *4352:A1 39.2014 
6 *111:28 *111:47 27.4493 
7 *111:47 *4350:A3 23 
8 *111:18 *4351:A1 38 
9 *111:10 *111:61 2.96214 
10 *111:61 *111:65 32.2964 
11 *111:65 *111:73 34.1946 
12 *111:73 *3945:B1 23 
13 *111:65 *111:88 40.585 
14 *111:88 *4094:A 23 
15 *111:61 *111:99 40.0643 
16 *111:99 *4349:A3 23 
*END

*D_NET *112 0.00388708
*CONN
*I *3888:A2 I *D sky130_fd_sc_hd__a32o_2
*I *3874:A I *D sky130_fd_sc_hd__nand2_2
*I *4366:A2 I *D sky130_fd_sc_hd__o21a_2
*I *3872:X O *D sky130_fd_sc_hd__mux2_1
*CAP
1 *3888:A2 0
2 *3874:A 0
3 *4366:A2 0
4 *3872:X 0.000149954
5 *112:38 0.000143799
6 *112:25 0.00037714
7 *112:12 0.000557918
8 *112:8 0.000941213
9 *112:8 *665:14 0.000271476
10 *112:8 *707:8 5.50049e-05
11 *112:12 *3875:C 5.3656e-05
12 *112:12 *4367:A2 0
13 *112:12 *113:21 0
14 *112:12 *115:10 0.000239172
15 *112:12 *598:10 0.000360161
16 *112:12 *707:10 0
17 *112:25 *3874:B 3.32199e-05
18 *112:25 *3875:C 2.76611e-06
19 *112:25 *114:8 1.4731e-05
20 *112:25 *665:10 0.00021986
21 *112:25 *712:31 0.000165538
22 *112:38 *3874:B 5.5792e-05
23 *112:38 *3888:A3 0.000182942
24 *112:38 *113:21 3.46013e-05
25 *112:38 *114:8 2.8133e-05
*RES
1 *3872:X *112:8 41.48 
2 *112:8 *112:12 28.1743 
3 *112:12 *4366:A2 23 
4 *112:8 *112:25 20.51 
5 *112:25 *3874:A 23 
6 *112:25 *112:38 33.5836 
7 *112:38 *3888:A2 23 
*END

*D_NET *113 0.00419712
*CONN
*I *3888:A3 I *D sky130_fd_sc_hd__a32o_2
*I *3874:B I *D sky130_fd_sc_hd__nand2_2
*I *4367:A2 I *D sky130_fd_sc_hd__o21a_2
*I *3873:X O *D sky130_fd_sc_hd__mux2_1
*CAP
1 *3888:A3 0.000103321
2 *3874:B 7.6448e-05
3 *4367:A2 0.000447813
4 *3873:X 0.000511281
5 *113:21 0.000726201
6 *113:8 0.00150553
7 *3874:B *114:36 0.000138859
8 *4367:A2 *4367:B1 0.00010018
9 *4367:A2 *588:10 0
10 *4367:A2 *598:10 0
11 *4367:A2 *985:38 0
12 *113:8 *4786:A 9.49442e-05
13 *113:8 *598:10 6.37106e-05
14 *113:21 *3875:C 5.3656e-05
15 *113:21 *114:8 6.86272e-05
16 *113:21 *455:25 0
17 *68:10 *4367:A2 0
18 *112:12 *4367:A2 0
19 *112:12 *113:21 0
20 *112:25 *3874:B 3.32199e-05
21 *112:38 *3874:B 5.5792e-05
22 *112:38 *3888:A3 0.000182942
23 *112:38 *113:21 3.46013e-05
*RES
1 *3873:X *113:8 44.815 
2 *113:8 *4367:A2 45.7057 
3 *113:8 *113:21 10.7093 
4 *113:21 *3874:B 40.0714 
5 *113:21 *3888:A3 40.61 
*END

*D_NET *114 0.00749688
*CONN
*I *3890:B I *D sky130_fd_sc_hd__and2_2
*I *4368:A2 I *D sky130_fd_sc_hd__a221o_2
*I *4074:A I *D sky130_fd_sc_hd__or2_2
*I *4085:B2 I *D sky130_fd_sc_hd__o2bb2a_2
*I *3875:C I *D sky130_fd_sc_hd__or3_2
*I *3874:Y O *D sky130_fd_sc_hd__nand2_2
*CAP
1 *3890:B 4.67816e-05
2 *4368:A2 0
3 *4074:A 0.000378544
4 *4085:B2 0.00056923
5 *3875:C 0.000367736
6 *3874:Y 0
7 *114:61 0.00053699
8 *114:51 0.000707448
9 *114:36 0.00100264
10 *114:8 0.00111401
11 *114:4 0.000677457
12 *3875:C *115:10 1.94812e-05
13 *3890:B *126:8 2.02872e-05
14 *3890:B *580:16 4.98398e-05
15 *4074:A *4074:B 2.95423e-05
16 *4074:A *1024:14 2.81066e-05
17 *4074:A *1024:29 1.59094e-05
18 *4085:B2 *4657:A 7.59964e-05
19 *114:8 *712:31 0.000118518
20 *114:36 *3888:A1 0
21 *114:36 *123:37 0.000100592
22 *114:36 *1024:14 2.71586e-05
23 *114:51 *3888:A1 0
24 *114:51 *123:37 5.79413e-06
25 *114:51 *123:67 9.88341e-05
26 *114:51 *126:10 6.2088e-05
27 *114:61 *4398:A_N 1.46586e-05
28 *114:61 *123:67 0.000846549
29 *114:61 *126:8 6.17437e-06
30 *114:61 *456:8 0
31 *114:61 *580:16 7.17698e-05
32 *114:61 *715:16 0
33 *114:61 *1022:22 9.03003e-05
34 *3874:B *114:36 0.000138859
35 *3875:B *3875:C 1.32314e-05
36 *89:51 *3875:C 4.07902e-05
37 *112:12 *3875:C 5.3656e-05
38 *112:25 *3875:C 2.76611e-06
39 *112:25 *114:8 1.4731e-05
40 *112:38 *114:8 2.8133e-05
41 *113:21 *3875:C 5.3656e-05
42 *113:21 *114:8 6.86272e-05
*RES
1 *3874:Y *114:4 23 
2 *114:4 *114:8 19.0186 
3 *114:8 *3875:C 45.1879 
4 *114:8 *4085:B2 47.6736 
5 *114:4 *114:36 24.3836 
6 *114:36 *4074:A 44.3593 
7 *114:36 *114:51 17.9621 
8 *114:51 *114:61 43.1587 
9 *114:61 *4368:A2 23 
10 *114:51 *3890:B 24.0979 
*END

*D_NET *115 0.00262239
*CONN
*I *4367:B1 I *D sky130_fd_sc_hd__o21a_2
*I *4366:B1 I *D sky130_fd_sc_hd__o21a_2
*I *3876:A I *D sky130_fd_sc_hd__inv_2
*I *3875:X O *D sky130_fd_sc_hd__or3_2
*CAP
1 *4367:B1 0.000165562
2 *4366:B1 0
3 *3876:A 0.000120699
4 *3875:X 0.000394531
5 *115:23 0.000192295
6 *115:12 0.000147432
7 *115:10 0.000394531
8 *3876:A *986:10 0.000126847
9 *4367:B1 *986:10 3.17516e-05
10 *115:10 *4476:RESET_B 2.95125e-05
11 *115:10 *598:10 0
12 *115:10 *707:10 5.21127e-05
13 *115:10 *707:12 2.70366e-05
14 *115:23 *986:10 1.76557e-05
15 *3875:C *115:10 1.94812e-05
16 *4367:A2 *4367:B1 0.00010018
17 *67:8 *115:10 0.000563587
18 *112:12 *115:10 0.000239172
*RES
1 *3875:X *115:10 48.9786 
2 *115:10 *115:12 15 
3 *115:12 *3876:A 26.0243 
4 *115:12 *115:23 0.621429 
5 *115:23 *4366:B1 23 
6 *115:23 *4367:B1 26.48 
*END

*D_NET *116 0.00138963
*CONN
*I *4081:B I *D sky130_fd_sc_hd__nand2_2
*I *4080:A1 I *D sky130_fd_sc_hd__a21oi_2
*I *3877:X O *D sky130_fd_sc_hd__or3_2
*CAP
1 *4081:B 5.17429e-05
2 *4080:A1 0.000188051
3 *3877:X 0.000186042
4 *116:8 0.000425836
5 *4080:A1 *4480:CLK 6.48049e-05
6 *4080:A1 *272:20 0
7 *4080:A1 *272:28 3.92407e-05
8 *4080:A1 *998:80 0.000166513
9 *4080:A1 *999:16 4.17929e-05
10 *4080:A1 *999:26 0
11 *4081:B *4480:CLK 0.000141879
12 *4081:B *999:12 2.08324e-05
13 *4081:B *999:16 5.09885e-05
14 *116:8 *3877:C 3.7122e-06
15 *116:8 *999:26 8.19644e-06
*RES
1 *3877:X *116:8 40.0507 
2 *116:8 *4080:A1 42.0186 
3 *116:8 *4081:B 39.9057 
*END

*D_NET *117 0.00341343
*CONN
*I *3880:D I *D sky130_fd_sc_hd__or4_2
*I *3879:B I *D sky130_fd_sc_hd__or2_2
*I *4083:B I *D sky130_fd_sc_hd__nand2_2
*I *4082:A1 I *D sky130_fd_sc_hd__a21oi_2
*I *3878:X O *D sky130_fd_sc_hd__or4_2
*CAP
1 *3880:D 0.000255893
2 *3879:B 0
3 *4083:B 0.000133036
4 *4082:A1 3.25631e-05
5 *3878:X 0.000439799
6 *117:41 0.000324958
7 *117:28 0.00057808
8 *117:8 9.6383e-05
9 *3880:D *3880:A 5.58003e-05
10 *3880:D *3880:B 0.000143767
11 *3880:D *4483:RESET_B 0.000297981
12 *3880:D *119:8 8.8239e-05
13 *3880:D *272:12 0
14 *3880:D *276:10 7.75329e-06
15 *4082:A1 *605:8 5.50106e-05
16 *4083:B *276:10 0.000177909
17 *4083:B *1004:10 4.06849e-05
18 *117:8 *4480:RESET_B 0.000169683
19 *117:8 *998:36 5.61414e-05
20 *117:28 *3878:A 2.93747e-05
21 *117:28 *3878:B 2.65879e-05
22 *117:28 *3878:C 5.37348e-06
23 *117:28 *4077:A1 0.000139647
24 *117:28 *272:12 0
25 *117:28 *276:10 2.22183e-05
26 *117:41 *4483:RESET_B 0.000171906
27 *117:41 *276:10 6.46393e-05
*RES
1 *3878:X *117:8 40.2579 
2 *117:8 *4082:A1 38.6214 
3 *3878:X *117:28 44.7736 
4 *117:28 *4083:B 41.9771 
5 *117:28 *117:41 2.61 
6 *117:41 *3879:B 38 
7 *117:41 *3880:D 44.815 
*END

*D_NET *118 0.00365641
*CONN
*I *4084:A I *D sky130_fd_sc_hd__nand3_2
*I *4086:A2 I *D sky130_fd_sc_hd__o21ai_2
*I *4087:A2 I *D sky130_fd_sc_hd__o21ai_2
*I *4085:A2_N I *D sky130_fd_sc_hd__o2bb2a_2
*I *3879:X O *D sky130_fd_sc_hd__or2_2
*CAP
1 *4084:A 0
2 *4086:A2 0.000160135
3 *4087:A2 0.000480288
4 *4085:A2_N 4.30303e-05
5 *3879:X 0.000248764
6 *118:25 0.0007071
7 *118:14 0.000612191
8 *118:8 0.000751248
9 *4085:A2_N *4657:A 5.58003e-05
10 *4086:A2 *277:8 2.271e-05
11 *4086:A2 *486:22 0.000108713
12 *4087:A2 *4482:SET_B 0.000267337
13 *4087:A2 *486:22 3.46302e-05
14 *4087:A2 *1003:6 3.26241e-05
15 *118:8 *4084:B 5.3304e-05
16 *118:8 *4084:C 5.67058e-05
17 *118:14 *277:8 2.35118e-06
18 *118:14 *455:25 0
19 *118:14 *487:73 0
20 *118:25 *277:8 1.94812e-05
*RES
1 *3879:X *118:8 27.4536 
2 *118:8 *118:14 23.9279 
3 *118:14 *4085:A2_N 38.6214 
4 *118:14 *118:25 1.20143 
5 *118:25 *4087:A2 45.3329 
6 *118:25 *4086:A2 42.0186 
7 *118:8 *4084:A 23 
*END

*D_NET *119 0.00507484
*CONN
*I *3882:C I *D sky130_fd_sc_hd__or3_2
*I *3881:B I *D sky130_fd_sc_hd__or2_2
*I *4090:A2 I *D sky130_fd_sc_hd__a21o_2
*I *4088:A1 I *D sky130_fd_sc_hd__a21oi_2
*I *3880:X O *D sky130_fd_sc_hd__or4_2
*CAP
1 *3882:C 0
2 *3881:B 0
3 *4090:A2 0
4 *4088:A1 2.93548e-05
5 *3880:X 0.000504974
6 *119:47 0.000327603
7 *119:34 0.000395505
8 *119:25 0.00026749
9 *119:10 0.000389881
10 *119:8 0.000665912
11 *4088:A1 *4088:A2 5.5792e-05
12 *119:8 *3880:A 0.000189857
13 *119:8 *3880:B 5.70473e-05
14 *119:8 *3880:C 2.62931e-05
15 *119:8 *4483:RESET_B 4.89921e-05
16 *119:10 *4481:SET_B 0.000374677
17 *119:10 *278:8 6.67555e-05
18 *119:10 *1003:33 6.67555e-05
19 *119:25 *4075:A 4.81894e-05
20 *119:25 *4089:B 2.64616e-05
21 *119:25 *4481:SET_B 0.000432935
22 *119:25 *123:10 0.000206537
23 *119:25 *279:16 5.3304e-05
24 *119:34 *4089:B 0.000134705
25 *119:34 *279:16 0.000128251
26 *119:47 *4089:B 1.61385e-05
27 *119:47 *120:8 0
28 *119:47 *120:26 2.19667e-05
29 *119:47 *279:16 0.000242146
30 *119:47 *1005:10 0
31 *119:47 *1005:23 0.000194318
32 *119:47 *1006:14 1.47563e-05
33 *3880:D *119:8 8.8239e-05
*RES
1 *3880:X *119:8 45.2914 
2 *119:8 *119:10 5.075 
3 *119:10 *4088:A1 38.6214 
4 *119:10 *119:25 21.4007 
5 *119:25 *4090:A2 23 
6 *119:25 *119:34 3.02429 
7 *119:34 *3881:B 23 
8 *119:34 *119:47 37.9543 
9 *119:47 *3882:C 23 
*END

*D_NET *120 0.00252099
*CONN
*I *4089:A I *D sky130_fd_sc_hd__nand2_2
*I *4092:A2 I *D sky130_fd_sc_hd__a21o_2
*I *3881:X O *D sky130_fd_sc_hd__or2_2
*CAP
1 *4089:A 0
2 *4092:A2 0.000110373
3 *3881:X 0.000513022
4 *120:26 0.000219485
5 *120:8 0.000403911
6 *4092:A2 *596:8 0.000139764
7 *4092:A2 *708:10 5.3304e-05
8 *4092:A2 *710:26 0.000180218
9 *120:8 *4481:SET_B 0.000132638
10 *120:8 *4486:RESET_B 1.12487e-05
11 *120:8 *708:10 0.000407804
12 *120:8 *1005:10 9.11009e-05
13 *120:26 *4089:B 0.000224892
14 *120:26 *279:16 1.1258e-05
15 *119:47 *120:8 0
16 *119:47 *120:26 2.19667e-05
*RES
1 *3881:X *120:8 45.54 
2 *120:8 *4092:A2 41.0036 
3 *3881:X *120:26 27.205 
4 *120:26 *4089:A 23 
*END

*D_NET *121 0.0049931
*CONN
*I *4093:B I *D sky130_fd_sc_hd__and3_2
*I *3884:B I *D sky130_fd_sc_hd__or2_2
*I *3883:B I *D sky130_fd_sc_hd__nor2_2
*I *4091:A I *D sky130_fd_sc_hd__nand2_2
*I *3882:X O *D sky130_fd_sc_hd__or3_2
*CAP
1 *4093:B 0
2 *3884:B 0
3 *3883:B 0
4 *4091:A 0
5 *3882:X 0.00104209
6 *121:40 0.000269229
7 *121:32 0.000632316
8 *121:19 0.00051267
9 *121:10 0.0002509
10 *121:6 0.0011434
11 *121:6 *4485:CLK 4.06849e-05
12 *121:6 *1006:6 1.6273e-05
13 *121:10 *271:56 4.23817e-05
14 *121:10 *486:10 0
15 *121:19 *4093:C 5.93981e-05
16 *121:19 *4486:CLK 3.92407e-05
17 *121:19 *271:56 1.19692e-05
18 *121:19 *486:8 0
19 *121:19 *486:10 0
20 *121:32 *4093:C 4.05309e-05
21 *121:32 *4486:CLK 0.000280856
22 *121:32 *486:8 0
23 *121:32 *1022:59 0
24 *121:40 *3884:A 5.67058e-05
25 *121:40 *4486:CLK 0
26 *121:40 *123:10 0
27 *121:40 *700:8 0.000195119
28 *121:40 *1012:20 0.000359332
*RES
1 *3882:X *121:6 36.0086 
2 *121:6 *121:10 16.9057 
3 *121:10 *4091:A 38 
4 *121:10 *121:19 3.31429 
5 *121:19 *3883:B 38 
6 *121:19 *121:32 21.67 
7 *121:32 *121:40 37.5193 
8 *121:40 *3884:B 23 
9 *121:32 *4093:B 23 
*END

*D_NET *122 0.0028809
*CONN
*I *3891:A2 I *D sky130_fd_sc_hd__a21o_2
*I *3889:B1 I *D sky130_fd_sc_hd__a2bb2o_2
*I *3883:Y O *D sky130_fd_sc_hd__nor2_2
*CAP
1 *3891:A2 0
2 *3889:B1 0
3 *3883:Y 0.000300229
4 *122:16 0.000551685
5 *122:8 0.000851914
6 *122:8 *3891:A1 5.3304e-05
7 *122:8 *3891:B1 4.00259e-06
8 *122:8 *4733:A 5.84916e-05
9 *122:8 *716:10 0.000112685
10 *122:8 *716:22 0
11 *122:16 *3889:B2 0.000648929
12 *122:16 *3891:A1 6.16439e-05
13 *122:16 *270:12 0.000222104
14 *122:16 *715:8 1.59094e-05
15 *122:16 *1022:59 0
*RES
1 *3883:Y *122:8 28.8829 
2 *122:8 *122:16 41.6829 
3 *122:16 *3889:B1 23 
4 *122:8 *3891:A2 23 
*END

*D_NET *123 0.0140761
*CONN
*I *4390:A2 I *D sky130_fd_sc_hd__a21oi_2
*I *3886:B I *D sky130_fd_sc_hd__nor3_2
*I *4368:B1 I *D sky130_fd_sc_hd__a221o_2
*I *3888:B1 I *D sky130_fd_sc_hd__a32o_2
*I *3887:A2 I *D sky130_fd_sc_hd__a22o_2
*I *4075:A I *D sky130_fd_sc_hd__nand2_2
*I *3884:X O *D sky130_fd_sc_hd__or2_2
*CAP
1 *4390:A2 0.000194556
2 *3886:B 0.000361098
3 *4368:B1 8.32285e-05
4 *3888:B1 0
5 *3887:A2 0
6 *4075:A 0.000204279
7 *3884:X 3.27104e-05
8 *123:88 0.0010393
9 *123:67 0.00103142
10 *123:55 0.000397829
11 *123:37 0.000677506
12 *123:27 0.00195233
13 *123:10 0.00225613
14 *123:8 0.000876441
15 *3886:B *3886:C 3.22879e-05
16 *3886:B *125:10 0.000315852
17 *4075:A *271:43 0
18 *4075:A *272:10 0.000100477
19 *4368:B1 *4398:A_N 1.21972e-05
20 *4368:B1 *716:22 1.81583e-05
21 *4368:B1 *1022:22 5.15762e-05
22 *4390:A2 *4390:A1 3.64385e-05
23 *4390:A2 *443:6 5.67058e-05
24 *4390:A2 *709:40 0.000110922
25 *123:8 *700:8 5.50106e-05
26 *123:10 *3884:A 0
27 *123:10 *4093:C 0
28 *123:10 *4430:RESET_B 0
29 *123:10 *4481:SET_B 3.2865e-05
30 *123:10 *4485:SET_B 0.000110913
31 *123:10 *4486:CLK 0
32 *123:10 *4486:RESET_B 0.00032
33 *123:10 *4725:A 8.06532e-05
34 *123:10 *271:43 0
35 *123:10 *271:56 0
36 *123:10 *601:10 8.78864e-05
37 *123:10 *708:10 0.000148239
38 *123:10 *997:8 0
39 *123:10 *1007:19 0
40 *123:37 *1024:14 0.000264983
41 *123:55 *483:40 0.000105451
42 *123:55 *580:16 1.39988e-05
43 *123:55 *712:31 0.000187911
44 *123:55 *1024:14 6.94143e-05
45 *123:67 *4073:A 0.000454347
46 *123:67 *126:10 0.00011698
47 *123:67 *431:8 4.21594e-06
48 *123:67 *456:8 0
49 *123:67 *716:41 5.01986e-05
50 *123:88 *125:10 6.48049e-05
51 *123:88 *431:8 0.000109523
52 *123:88 *709:33 6.48142e-05
53 *123:88 *709:40 2.55642e-05
54 *123:88 *716:41 0.000141879
55 *123:88 *716:52 0.000207507
56 *37:8 *123:55 0.000193034
57 *38:10 *123:55 1.79584e-05
58 *114:36 *123:37 0.000100592
59 *114:51 *123:37 5.79413e-06
60 *114:51 *123:67 9.88341e-05
61 *114:61 *123:67 0.000846549
62 *119:25 *4075:A 4.81894e-05
63 *119:25 *123:10 0.000206537
64 *121:40 *123:10 0
*RES
1 *3884:X *123:8 38.6214 
2 *123:8 *123:10 18.9846 
3 *123:10 *4075:A 42.1532 
4 *123:10 *123:27 18.9755 
5 *123:27 *123:37 21.8875 
6 *123:37 *123:55 39.7823 
7 *123:55 *3887:A2 23 
8 *123:37 *3888:B1 23 
9 *123:27 *123:67 14.7589 
10 *123:67 *4368:B1 39.4707 
11 *123:67 *123:88 40.3571 
12 *123:88 *3886:B 44.38 
13 *123:88 *4390:A2 41.2936 
*END

*D_NET *124 0.00247176
*CONN
*I *3886:C I *D sky130_fd_sc_hd__nor3_2
*I *4395:A2 I *D sky130_fd_sc_hd__a21bo_2
*I *3885:Y O *D sky130_fd_sc_hd__nand3_2
*CAP
1 *3886:C 0.000448777
2 *4395:A2 0
3 *3885:Y 0.000233817
4 *124:10 0.000682594
5 *3886:C *4391:A2 6.17437e-06
6 *3886:C *1010:25 6.6869e-05
7 *124:10 *3834:A 6.38845e-05
8 *124:10 *3885:B 7.73389e-05
9 *124:10 *4392:A2 0.000182826
10 *124:10 *447:8 0
11 *124:10 *448:10 0.00014196
12 *124:10 *715:31 2.93747e-05
13 *124:10 *715:44 0.000169674
14 *3886:B *3886:C 3.22879e-05
15 *4391:A1 *3886:C 0.000155068
16 *83:10 *3886:C 1.14452e-05
17 *83:10 *124:10 0.000169674
*RES
1 *3885:Y *124:10 45.2707 
2 *124:10 *4395:A2 38 
3 *124:10 *3886:C 46.1407 
*END

*D_NET *125 0.003394
*CONN
*I *3889:A2_N I *D sky130_fd_sc_hd__a2bb2o_2
*I *4398:C I *D sky130_fd_sc_hd__and4bb_2
*I *3887:B1 I *D sky130_fd_sc_hd__a22o_2
*I *3886:Y O *D sky130_fd_sc_hd__nor3_2
*CAP
1 *3889:A2_N 4.24511e-05
2 *4398:C 4.52252e-05
3 *3887:B1 0.000504735
4 *3886:Y 0.000249042
5 *125:12 0.000633815
6 *125:10 0.000375348
7 *3887:B1 *4445:CLK 0
8 *3887:B1 *4447:CLK 0
9 *3887:B1 *126:20 6.38845e-05
10 *3887:B1 *449:192 0
11 *3887:B1 *709:33 0.000180621
12 *3887:B1 *712:31 0.000433839
13 *3887:B1 *715:16 3.95159e-06
14 *4398:C *715:25 1.24376e-05
15 *4398:C *715:31 5.50049e-05
16 *125:10 *4445:CLK 0
17 *125:10 *709:33 0.00010858
18 *125:12 *4445:CLK 0
19 *125:12 *709:33 6.79006e-05
20 *3886:B *125:10 0.000315852
21 *36:10 *125:10 4.58924e-05
22 *38:10 *3887:B1 0.000190611
23 *123:88 *125:10 6.48049e-05
*RES
1 *3886:Y *125:10 45.1464 
2 *125:10 *125:12 1.90571 
3 *125:12 *3887:B1 49.7657 
4 *125:12 *4398:C 38.6214 
5 *125:10 *3889:A2_N 38.6214 
*END

*D_NET *126 0.00583046
*CONN
*I *4389:A1_N I *D sky130_fd_sc_hd__a2bb2o_2
*I *3891:B1 I *D sky130_fd_sc_hd__a21o_2
*I *4398:B_N I *D sky130_fd_sc_hd__and4bb_2
*I *3890:X O *D sky130_fd_sc_hd__and2_2
*CAP
1 *4389:A1_N 0
2 *3891:B1 0.000133256
3 *4398:B_N 0
4 *3890:X 4.15373e-05
5 *126:44 0.000439998
6 *126:20 0.000342528
7 *126:12 0.000475784
8 *126:10 0.000801986
9 *126:8 0.000403525
10 *3891:B1 *4368:C1 5.90675e-06
11 *3891:B1 *4398:A_N 5.3304e-05
12 *3891:B1 *4733:A 0
13 *3891:B1 *716:10 5.3304e-05
14 *3891:B1 *716:22 7.46838e-05
15 *3891:B1 *1025:34 4.08664e-05
16 *126:10 *3888:A1 1.65403e-05
17 *126:10 *4073:A 0.000114533
18 *126:10 *4779:A 1.31808e-05
19 *126:10 *455:12 0.000582549
20 *126:10 *1022:31 4.68198e-05
21 *126:20 *4398:A_N 0.000513284
22 *126:20 *709:33 6.16531e-05
23 *126:44 *4073:A 2.49836e-05
24 *126:44 *4369:B 0.00015954
25 *126:44 *4370:B 0.000163352
26 *126:44 *4387:B 6.17437e-06
27 *126:44 *433:14 0
28 *126:44 *455:12 0.000215791
29 *126:44 *650:25 6.94112e-06
30 *126:44 *716:41 9.88575e-05
31 *126:44 *716:52 0.000325202
32 *126:44 *1024:44 0
33 *126:44 *1024:57 0
34 *3887:B1 *126:20 6.38845e-05
35 *3890:B *126:8 2.02872e-05
36 *35:10 *3891:B1 0.000124306
37 *35:10 *126:10 0.000163352
38 *35:10 *126:20 5.3304e-05
39 *114:51 *126:10 6.2088e-05
40 *114:61 *126:8 6.17437e-06
41 *122:8 *3891:B1 4.00259e-06
42 *123:67 *126:10 0.00011698
*RES
1 *3890:X *126:8 38.6214 
2 *126:8 *126:10 11.4136 
3 *126:10 *126:12 15 
4 *126:12 *126:20 36.7114 
5 *126:20 *4398:B_N 23 
6 *126:12 *3891:B1 26.6664 
7 *126:10 *126:44 27.1489 
8 *126:44 *4389:A1_N 23 
*END

*D_NET *127 0.00227812
*CONN
*I *4352:A2 I *D sky130_fd_sc_hd__o21a_2
*I *3912:A3 I *D sky130_fd_sc_hd__o311a_2
*I *4356:A2 I *D sky130_fd_sc_hd__o21a_2
*I *3892:Y O *D sky130_fd_sc_hd__nand2_2
*CAP
1 *4352:A2 7.01548e-05
2 *3912:A3 4.78325e-05
3 *4356:A2 6.49153e-05
4 *3892:Y 0.000278309
5 *127:12 0.000332221
6 *127:8 0.000567937
7 *3912:A3 *3912:A1 0.000109895
8 *3912:A3 *147:8 0.000141954
9 *3912:A3 *714:37 1.22822e-05
10 *4352:A2 *4352:B1 0.0002246
11 *4356:A2 *147:8 2.4754e-05
12 *4356:A2 *714:37 7.1349e-05
13 *127:8 *146:10 0
14 *127:8 *737:12 1.83667e-05
15 *127:8 *737:25 0
16 *127:12 *4846:A 6.11286e-05
17 *127:12 *146:10 0
18 *127:12 *739:8 1.19796e-05
19 *4352:A1 *127:12 0
20 *4354:A3 *127:12 0
21 *4356:A1 *4356:A2 5.67058e-05
22 *107:47 *127:12 0
23 *111:26 *4352:A2 0.000183733
24 *111:47 *127:8 0
*RES
1 *3892:Y *127:8 42.7229 
2 *127:8 *127:12 18.6664 
3 *127:12 *4356:A2 25.0507 
4 *127:12 *3912:A3 25.0714 
5 *127:8 *4352:A2 40.5271 
*END

*D_NET *128 0.00062402
*CONN
*I *3905:B1 I *D sky130_fd_sc_hd__a31o_2
*I *3893:X O *D sky130_fd_sc_hd__o311a_2
*CAP
1 *3905:B1 0.0001513
2 *3893:X 0.0001513
3 *3905:B1 *3893:C1 0.000321419
*RES
1 *3893:X *3905:B1 49.9564 
*END

*D_NET *129 0.00582728
*CONN
*I *3895:D I *D sky130_fd_sc_hd__or4_2
*I *3894:Y O *D sky130_fd_sc_hd__nor2_2
*CAP
1 *3895:D 0.00164977
2 *3894:Y 0.000980997
3 *129:12 0.00263076
4 *3895:D *3895:A 4.00259e-06
5 *3895:D *3913:A1 9.41704e-05
6 *3895:D *3913:A2 8.87917e-06
7 *3895:D *4416:D 5.3304e-05
8 *3895:D *4691:A 0.000103637
9 *3895:D *758:12 0.000141327
10 *129:12 *3894:A 5.70419e-05
11 *129:12 *4474:RESET_B 4.83893e-05
12 *129:12 *732:10 5.50049e-05
*RES
1 *3894:Y *129:12 36.6714 
2 *129:12 *3895:D 44.1286 
*END

*D_NET *130 0.00142329
*CONN
*I *3906:D_N I *D sky130_fd_sc_hd__or4b_2
*I *3895:X O *D sky130_fd_sc_hd__or4_2
*CAP
1 *3906:D_N 6.92338e-05
2 *3895:X 0.000156218
3 *130:8 0.000225452
4 *3906:D_N *135:10 0.000226907
5 *3906:D_N *138:25 0.000178517
6 *3906:D_N *670:10 2.89076e-05
7 *130:8 *138:12 1.78206e-05
8 *130:8 *670:23 0.00019747
9 *130:8 *670:25 0.000140958
10 *130:8 *672:37 0
11 *87:14 *130:8 0.000111148
12 *87:30 *130:8 7.0654e-05
*RES
1 *3895:X *130:8 43.075 
2 *130:8 *3906:D_N 40.5271 
*END

*D_NET *131 0.00518612
*CONN
*I *4056:A I *D sky130_fd_sc_hd__or2_2
*I *4055:A I *D sky130_fd_sc_hd__nor2_2
*I *4050:A1 I *D sky130_fd_sc_hd__o21a_2
*I *4051:A1 I *D sky130_fd_sc_hd__o21a_2
*I *3896:Y O *D sky130_fd_sc_hd__nand2_2
*CAP
1 *4056:A 0
2 *4055:A 2.34823e-05
3 *4050:A1 3.25721e-05
4 *4051:A1 0
5 *3896:Y 0
6 *131:41 0.000312305
7 *131:26 0.00103856
8 *131:17 0.000818342
9 *131:10 8.38577e-05
10 *131:4 0.000166854
11 *131:10 *4047:B 1.14452e-05
12 *131:10 *259:50 0.000165593
13 *131:10 *721:14 4.90891e-05
14 *131:17 *4050:B1 2.02872e-05
15 *131:17 *259:50 0.00026808
16 *131:26 *3902:C_N 3.70363e-05
17 *131:26 *4050:B1 0.000173452
18 *131:26 *686:10 5.3304e-05
19 *131:26 *691:32 0.000935765
20 *131:41 *4055:B 0
21 *131:41 *4753:A 6.71372e-05
22 *131:41 *4759:A 9.28078e-06
23 *131:41 *262:8 0.000185428
24 *131:41 *262:12 0
25 *131:41 *263:8 2.60152e-05
26 *131:41 *264:23 0.000250602
27 *131:41 *691:32 0.000148688
28 *86:103 *131:17 0.000308946
*RES
1 *3896:Y *131:4 23 
2 *131:4 *131:10 32.2579 
3 *131:10 *4051:A1 23 
4 *131:4 *131:17 3.48 
5 *131:17 *4050:A1 23.4971 
6 *131:17 *131:26 16.3436 
7 *131:26 *4055:A 23.4971 
8 *131:26 *131:41 38.4307 
9 *131:41 *4056:A 23 
*END

*D_NET *132 0.00356917
*CONN
*I *3905:A3 I *D sky130_fd_sc_hd__a31o_2
*I *3897:X O *D sky130_fd_sc_hd__o21a_2
*CAP
1 *3905:A3 0
2 *3897:X 0.00118244
3 *132:12 9.25482e-05
4 *132:6 0.00127499
5 *132:6 *668:25 0.000501487
6 *132:6 *668:29 0.000295241
7 *132:6 *668:31 4.70479e-05
8 *132:12 *137:14 1.00286e-05
9 *132:12 *505:8 0.000165394
*RES
1 *3897:X *132:6 40.2964 
2 *132:6 *132:12 32.2579 
3 *132:12 *3905:A3 23 
*END

*D_NET *133 0.00277908
*CONN
*I *3900:C I *D sky130_fd_sc_hd__and4_2
*I *3898:X O *D sky130_fd_sc_hd__or3_2
*CAP
1 *3900:C 0.000255316
2 *3898:X 0.000557509
3 *133:10 0.000812824
4 *3900:C *3900:D 9.84851e-05
5 *3900:C *4649:A 2.93845e-05
6 *3900:C *135:10 2.18409e-05
7 *133:10 *3898:C 0.000225265
8 *133:10 *3899:A 6.63698e-05
9 *133:10 *4746:A 0.00014411
10 *133:10 *134:8 0
11 *133:10 *266:10 0.000567979
12 *133:10 *666:42 0
*RES
1 *3898:X *133:10 49.0614 
2 *133:10 *3900:C 42.4536 
*END

*D_NET *134 0.000790104
*CONN
*I *3900:D I *D sky130_fd_sc_hd__and4_2
*I *3899:X O *D sky130_fd_sc_hd__or3b_2
*CAP
1 *3900:D 2.03419e-05
2 *3899:X 0.000120779
3 *134:8 0.000141121
4 *3900:D *135:10 0.000100486
5 *134:8 *3899:A 2.84809e-05
6 *134:8 *3899:B 0.000166413
7 *134:8 *261:41 7.84093e-05
8 *134:8 *666:42 3.55887e-05
9 *3900:C *3900:D 9.84851e-05
10 *133:10 *134:8 0
*RES
1 *3899:X *134:8 42.0186 
2 *134:8 *3900:D 39.0979 
*END

*D_NET *135 0.00235361
*CONN
*I *3906:A I *D sky130_fd_sc_hd__or4b_2
*I *3900:X O *D sky130_fd_sc_hd__and4_2
*CAP
1 *3906:A 0
2 *3900:X 0.00063899
3 *135:10 0.00063899
4 *135:10 *3900:A 0.000234534
5 *135:10 *3903:A_N 5.58003e-05
6 *135:10 *3903:B 1.76557e-05
7 *135:10 *138:25 4.5051e-05
8 *135:10 *670:10 9.16459e-05
9 *3900:C *135:10 2.18409e-05
10 *3900:D *135:10 0.000100486
11 *3906:D_N *135:10 0.000226907
12 *87:51 *135:10 0.000281712
*RES
1 *3900:X *135:10 37.0029 
2 *135:10 *3906:A 23 
*END

*D_NET *136 0.00137571
*CONN
*I *3904:C I *D sky130_fd_sc_hd__and3b_2
*I *3901:X O *D sky130_fd_sc_hd__or3_2
*CAP
1 *3904:C 9.35311e-05
2 *3901:X 6.23274e-05
3 *136:8 0.000155858
4 *3904:C *138:12 0.000183544
5 *3904:C *672:71 0.000167793
6 *136:8 *666:64 0.000195162
7 *87:62 *3904:C 0.000324468
8 *87:62 *136:8 0.000193024
*RES
1 *3901:X *136:8 40.61 
2 *136:8 *3904:C 42.003 
*END

*D_NET *137 0.00304136
*CONN
*I *3904:B I *D sky130_fd_sc_hd__and3b_2
*I *3902:X O *D sky130_fd_sc_hd__or3b_2
*CAP
1 *3904:B 0
2 *3902:X 0
3 *137:14 0.000846548
4 *137:6 0.000846548
5 *137:14 *140:10 0.000306147
6 *137:14 *259:38 0
7 *137:14 *265:8 0.000293129
8 *137:14 *449:113 0
9 *137:14 *463:8 0.000113153
10 *137:14 *469:60 0
11 *137:14 *505:28 9.66339e-05
12 *137:14 *670:104 3.13952e-05
13 *137:14 *672:71 0.000189313
14 *86:77 *137:14 0.000216541
15 *86:103 *137:14 0
16 *87:62 *137:14 9.19193e-05
17 *132:12 *137:14 1.00286e-05
*RES
1 *3902:X *137:6 38 
2 *137:6 *137:14 35.7143 
3 *137:14 *3904:B 23 
*END

*D_NET *138 0.0081966
*CONN
*I *3909:C I *D sky130_fd_sc_hd__or3_2
*I *4351:A2 I *D sky130_fd_sc_hd__o21a_2
*I *4355:A2 I *D sky130_fd_sc_hd__o21a_2
*I *3904:A_N I *D sky130_fd_sc_hd__and3b_2
*I *3903:Y O *D sky130_fd_sc_hd__nand2b_2
*CAP
1 *3909:C 7.34819e-05
2 *4351:A2 1.76257e-05
3 *4355:A2 0.00035096
4 *3904:A_N 0
5 *3903:Y 0
6 *138:40 0.000249201
7 *138:25 0.00173072
8 *138:12 0.000518612
9 *138:4 0.00174028
10 *3909:C *734:30 4.5051e-05
11 *4351:A2 *734:30 1.14154e-05
12 *4355:A2 *722:10 8.16253e-05
13 *138:12 *666:64 0.000119361
14 *138:12 *672:37 0
15 *138:12 *672:71 5.3304e-05
16 *138:25 *3903:B 5.50049e-05
17 *138:25 *4354:A2 0
18 *138:25 *141:8 8.23173e-05
19 *138:25 *146:10 0
20 *138:25 *147:12 0.000639273
21 *138:25 *494:23 0
22 *138:25 *494:32 0
23 *138:25 *536:8 0
24 *138:25 *666:14 0.000247687
25 *138:25 *666:58 0.000136486
26 *138:25 *670:10 0.000219383
27 *138:25 *672:10 0.000227497
28 *138:25 *735:10 0
29 *138:40 *734:30 0.000163198
30 *3904:C *138:12 0.000183544
31 *3906:D_N *138:25 0.000178517
32 *4355:A1 *4355:A2 0.000168754
33 *57:8 *4355:A2 8.62876e-05
34 *87:14 *138:25 0.000348639
35 *107:45 *4355:A2 0.00037407
36 *107:45 *138:25 3.14274e-05
37 *107:45 *138:40 0
38 *130:8 *138:12 1.78206e-05
39 *135:10 *138:25 4.5051e-05
*RES
1 *3903:Y *138:4 23 
2 *138:4 *138:12 39.6114 
3 *138:12 *3904:A_N 23 
4 *138:4 *138:25 46.2371 
5 *138:25 *4355:A2 47.3007 
6 *138:25 *138:40 17.6721 
7 *138:40 *4351:A2 23.4971 
8 *138:40 *3909:C 24.595 
*END

*D_NET *139 0.000865975
*CONN
*I *3906:C I *D sky130_fd_sc_hd__or4b_2
*I *3904:X O *D sky130_fd_sc_hd__and3b_2
*CAP
1 *3906:C 0
2 *3904:X 0.000144699
3 *139:8 0.000144699
4 *139:8 *140:10 0.000345195
5 *139:8 *728:8 0.000186772
6 *86:8 *139:8 4.46101e-05
*RES
1 *3904:X *139:8 42.7229 
2 *139:8 *3906:C 38 
*END

*D_NET *140 0.00182314
*CONN
*I *3906:B I *D sky130_fd_sc_hd__or4b_2
*I *3905:X O *D sky130_fd_sc_hd__a31o_2
*CAP
1 *3906:B 0
2 *3905:X 0.000472691
3 *140:10 0.000472691
4 *140:10 *3913:A2 0.000214772
5 *140:10 *728:8 1.16455e-05
6 *86:8 *140:10 0
7 *137:14 *140:10 0.000306147
8 *139:8 *140:10 0.000345195
*RES
1 *3905:X *140:10 47.6114 
2 *140:10 *3906:B 38 
*END

*D_NET *141 0.00119415
*CONN
*I *3913:A1 I *D sky130_fd_sc_hd__a22o_2
*I *3906:X O *D sky130_fd_sc_hd__or4b_2
*CAP
1 *3913:A1 4.69927e-05
2 *3906:X 0.000238091
3 *141:8 0.000285084
4 *141:8 *3913:A2 5.0109e-05
5 *141:8 *145:12 0.000345286
6 *141:8 *666:58 0
7 *141:8 *672:10 5.21024e-05
8 *3895:D *3913:A1 9.41704e-05
9 *138:25 *141:8 8.23173e-05
*RES
1 *3906:X *141:8 44.1314 
2 *141:8 *3913:A1 39.0979 
*END

*D_NET *142 0.0060326
*CONN
*I *4047:A I *D sky130_fd_sc_hd__or2_2
*I *3908:D I *D sky130_fd_sc_hd__or4_2
*I *4054:A1 I *D sky130_fd_sc_hd__o21a_2
*I *4053:A1 I *D sky130_fd_sc_hd__o21a_2
*I *3907:Y O *D sky130_fd_sc_hd__nand2_2
*CAP
1 *4047:A 0.000165816
2 *3908:D 0
3 *4054:A1 0.000212376
4 *4053:A1 0.00014612
5 *3907:Y 4.17433e-05
6 *142:46 9.96132e-05
7 *142:20 0.00096499
8 *142:14 0.0012078
9 *142:8 0.000709251
10 *4047:A *4047:B 1.35999e-05
11 *4047:A *468:14 8.07477e-05
12 *4047:A *515:14 4.54619e-05
13 *4053:A1 *4053:A2 0.000115619
14 *4053:A1 *4053:B1 5.5792e-05
15 *4054:A1 *4054:A2 0.000380939
16 *4054:A1 *4467:CLK 0.000100486
17 *4054:A1 *532:10 1.13812e-05
18 *142:14 *4650:A 3.7122e-06
19 *142:14 *468:14 9.47208e-05
20 *142:14 *497:10 1.0092e-05
21 *142:14 *515:14 0.000137893
22 *142:14 *672:89 8.08617e-05
23 *142:20 *4053:A2 5.3304e-05
24 *142:20 *4054:A2 5.19959e-05
25 *142:20 *4650:A 4.05481e-05
26 *142:20 *4843:A 0.000535881
27 *142:20 *261:41 3.46013e-05
28 *142:46 *3899:B 4.43801e-05
29 *142:46 *3908:B 2.14404e-05
30 *142:46 *511:25 3.88629e-05
31 *4467:D *4054:A1 0.000100486
32 *44:10 *4054:A1 0.00034336
33 *44:10 *142:20 8.87259e-05
*RES
1 *3907:Y *142:8 38.6214 
2 *142:8 *142:14 24.9636 
3 *142:14 *142:20 24.4457 
4 *142:20 *4053:A1 41.0036 
5 *142:20 *4054:A1 44.8771 
6 *142:14 *142:46 32.2579 
7 *142:46 *3908:D 23 
8 *142:8 *4047:A 41.8529 
*END

*D_NET *143 0.00354846
*CONN
*I *3913:A2 I *D sky130_fd_sc_hd__a22o_2
*I *3908:X O *D sky130_fd_sc_hd__or4_2
*CAP
1 *3913:A2 0.000392624
2 *3908:X 0.000666965
3 *143:8 0.00105959
4 *3913:A2 *145:12 0.00036992
5 *143:8 *4064:A2 2.96073e-05
6 *143:8 *4064:B1 0.000100477
7 *143:8 *666:64 2.02872e-05
8 *143:8 *672:59 9.98069e-06
9 *3895:D *3913:A2 8.87917e-06
10 *3908:A *143:8 0.000189848
11 *86:8 *3913:A2 0
12 *87:34 *143:8 0.000435403
13 *140:10 *3913:A2 0.000214772
14 *141:8 *3913:A2 5.0109e-05
*RES
1 *3908:X *143:8 48.15 
2 *143:8 *3913:A2 46.3323 
*END

*D_NET *144 0.00253817
*CONN
*I *3912:B1 I *D sky130_fd_sc_hd__o311a_2
*I *3909:X O *D sky130_fd_sc_hd__or3_2
*CAP
1 *3912:B1 0.000299744
2 *3909:X 0.000340351
3 *144:10 0.000640095
4 *3912:B1 *3912:A1 3.33773e-05
5 *3912:B1 *4739:A 0.000198206
6 *3912:B1 *147:8 9.88574e-06
7 *3912:B1 *148:12 9.84851e-05
8 *3912:B1 *148:27 5.50049e-05
9 *3912:B1 *714:37 0.000828125
10 *144:10 *4450:D 0
11 *144:10 *148:12 9.48381e-06
12 *144:10 *148:27 0
13 *144:10 *149:8 2.5415e-05
14 *144:10 *149:18 0
15 *111:26 *144:10 0
*RES
1 *3909:X *144:10 44.0486 
2 *144:10 *3912:B1 47.6943 
*END

*D_NET *145 0.00359911
*CONN
*I *3913:B1 I *D sky130_fd_sc_hd__a22o_2
*I *3910:X O *D sky130_fd_sc_hd__or4_2
*CAP
1 *3913:B1 0
2 *3910:X 0.000996946
3 *145:12 0.000159849
4 *145:6 0.00115679
5 *145:6 *3910:A 2.02872e-05
6 *145:6 *670:10 0.000223692
7 *145:6 *670:104 0.000111421
8 *145:6 *673:53 0.000173442
9 *145:6 *758:27 2.93747e-05
10 *145:12 *147:12 6.07611e-06
11 *145:12 *672:10 6.02277e-06
12 *3913:A2 *145:12 0.00036992
13 *141:8 *145:12 0.000345286
*RES
1 *3910:X *145:6 40.7729 
2 *145:6 *145:12 35.075 
3 *145:12 *3913:B1 23 
*END

*D_NET *146 0.00171778
*CONN
*I *3912:C1 I *D sky130_fd_sc_hd__o311a_2
*I *3911:X O *D sky130_fd_sc_hd__or4_2
*CAP
1 *3912:C1 0
2 *3911:X 0.000495911
3 *146:10 0.000495911
4 *146:10 *3911:B 5.3304e-05
5 *146:10 *4354:A2 0.000167452
6 *146:10 *4846:A 5.93278e-05
7 *146:10 *536:8 0.000218943
8 *146:10 *670:31 0.000157299
9 *146:10 *737:12 0
10 *146:10 *737:25 6.6869e-05
11 *146:10 *739:8 2.76611e-06
12 *127:8 *146:10 0
13 *127:12 *146:10 0
14 *138:25 *146:10 0
*RES
1 *3911:X *146:10 48.9786 
2 *146:10 *3912:C1 38 
*END

*D_NET *147 0.00391855
*CONN
*I *3913:B2 I *D sky130_fd_sc_hd__a22o_2
*I *3912:X O *D sky130_fd_sc_hd__o311a_2
*CAP
1 *3913:B2 0
2 *3912:X 0.000473893
3 *147:12 0.000529971
4 *147:8 0.00100386
5 *147:8 *3912:A1 4.5051e-05
6 *147:8 *4739:A 0.000192031
7 *147:12 *4470:CLK 7.69935e-05
8 *147:12 *148:12 0
9 *147:12 *494:32 0.000295164
10 *147:12 *672:10 9.48318e-05
11 *147:12 *755:10 0.000384805
12 *3912:A3 *147:8 0.000141954
13 *3912:B1 *147:8 9.88574e-06
14 *4356:A2 *147:8 2.4754e-05
15 *86:8 *147:12 0
16 *138:25 *147:12 0.000639273
17 *145:12 *147:12 6.07611e-06
*RES
1 *3912:X *147:8 45.2914 
2 *147:8 *147:12 33.1043 
3 *147:12 *3913:B2 23 
*END

*D_NET *148 0.00469118
*CONN
*I *3918:B I *D sky130_fd_sc_hd__nor2_2
*I *3914:B I *D sky130_fd_sc_hd__and2_2
*I *3913:X O *D sky130_fd_sc_hd__a22o_2
*CAP
1 *3918:B 0
2 *3914:B 0
3 *3913:X 0
4 *148:27 0.000514466
5 *148:12 0.0010812
6 *148:6 0.00056673
7 *148:12 *3954:B 0.000196549
8 *148:12 *4450:D 0.000437226
9 *148:12 *4470:CLK 0
10 *148:12 *149:18 0
11 *148:12 *494:32 0
12 *148:12 *756:10 0.000354778
13 *148:27 *3914:A 0.000269775
14 *148:27 *4700:A 7.70737e-05
15 *148:27 *149:18 4.66036e-05
16 *148:27 *682:14 0.000349377
17 *148:27 *714:37 0.000164364
18 *148:27 *749:42 6.17437e-06
19 *3912:B1 *148:12 9.84851e-05
20 *3912:B1 *148:27 5.50049e-05
21 *3953:A *148:12 0.000244701
22 *34:10 *148:27 7.1915e-05
23 *86:8 *148:12 0.000147278
24 *144:10 *148:12 9.48381e-06
25 *144:10 *148:27 0
26 *147:12 *148:12 0
*RES
1 *3913:X *148:6 38 
2 *148:6 *148:12 32.0893 
3 *148:12 *3914:B 23 
4 *148:12 *148:27 42.2629 
5 *148:27 *3918:B 23 
*END

*D_NET *149 0.00454086
*CONN
*I *3917:B1 I *D sky130_fd_sc_hd__a21o_2
*I *4052:B I *D sky130_fd_sc_hd__or3_2
*I *4046:B I *D sky130_fd_sc_hd__or3_2
*I *3914:X O *D sky130_fd_sc_hd__and2_2
*CAP
1 *3917:B1 0.000716384
2 *4052:B 0.000131153
3 *4046:B 0
4 *3914:X 4.48927e-05
5 *149:18 0.000788338
6 *149:12 0.00165247
7 *149:8 0.000323792
8 *3917:B1 *3916:A 2.93747e-05
9 *3917:B1 *3917:A1 2.32101e-05
10 *3917:B1 *4450:RESET_B 5.3304e-05
11 *3917:B1 *151:6 0.00029641
12 *3917:B1 *151:22 0.00010018
13 *4052:B *4046:C 2.3191e-05
14 *4052:B *261:8 0.00010018
15 *149:8 *4450:D 8.85189e-05
16 *149:18 *4045:C_N 0
17 *149:18 *4700:A 0
18 *149:18 *258:10 0
19 *149:18 *259:8 0
20 *149:18 *261:12 0
21 *149:18 *748:52 0
22 *3953:A *149:18 0
23 *3:20 *3917:B1 9.74473e-05
24 *144:10 *149:8 2.5415e-05
25 *144:10 *149:18 0
26 *148:12 *149:18 0
27 *148:27 *149:18 4.66036e-05
*RES
1 *3914:X *149:8 39.2014 
2 *149:8 *149:12 18.48 
3 *149:12 *149:18 41.4136 
4 *149:18 *4046:B 23 
5 *149:18 *4052:B 25.0507 
6 *149:12 *3917:B1 36.6921 
*END

*D_NET *150 0.00628698
*CONN
*I *3916:A I *D sky130_fd_sc_hd__inv_2
*I *3919:B1 I *D sky130_fd_sc_hd__a221o_2
*I *4207:B I *D sky130_fd_sc_hd__nand2_2
*I *3915:X O *D sky130_fd_sc_hd__mux2_1
*CAP
1 *3916:A 0.000133903
2 *3919:B1 0
3 *4207:B 0.000194547
4 *3915:X 0.000619463
5 *150:51 0.00019812
6 *150:37 0.000618211
7 *150:18 0.000480735
8 *150:16 0.000619463
9 *3916:A *151:6 5.67058e-05
10 *3916:A *749:8 0
11 *4207:B *4425:RESET_B 9.41704e-05
12 *4207:B *681:53 0.000323822
13 *4207:B *681:63 0
14 *150:16 *3846:A 0.000139352
15 *150:16 *3850:A_N 0.000104386
16 *150:16 *3850:B 2.64616e-05
17 *150:16 *3861:A 5.67058e-05
18 *150:16 *3862:C 9.97189e-05
19 *150:16 *519:38 4.66047e-05
20 *150:16 *519:65 0.000150773
21 *150:16 *747:34 0.000128723
22 *150:16 *749:14 4.67488e-05
23 *150:37 *152:12 0
24 *150:37 *681:53 7.92343e-05
25 *150:37 *747:12 0.000185512
26 *150:37 *749:8 0
27 *150:51 *3919:B2 1.77524e-05
28 *150:51 *152:12 0.000157484
29 *150:51 *599:10 7.57281e-06
30 *3917:B1 *3916:A 2.93747e-05
31 *3918:A *150:51 1.05235e-05
32 *3919:A2 *150:37 0.000369371
33 *95:10 *150:16 4.75206e-05
34 *98:14 *150:16 7.73987e-05
35 *106:8 *4207:B 0.000346215
36 *106:8 *150:37 3.70187e-05
37 *106:16 *4207:B 4.07902e-05
38 *107:8 *150:16 0.000132676
39 *107:24 *150:16 0.00010366
40 *107:73 *3916:A 5.43475e-05
41 *107:73 *150:37 0.000150811
42 *107:73 *150:51 2.05503e-05
43 *107:92 *150:16 0.000280559
*RES
1 *3915:X *150:16 38.6186 
2 *150:16 *150:18 15 
3 *150:18 *4207:B 44.3179 
4 *150:18 *150:37 8.13036 
5 *150:37 *150:51 32.7532 
6 *150:51 *3919:B1 23 
7 *150:37 *3916:A 41.1175 
*END

*D_NET *151 0.00207711
*CONN
*I *4045:B I *D sky130_fd_sc_hd__or3b_2
*I *3917:A2 I *D sky130_fd_sc_hd__a21o_2
*I *3916:Y O *D sky130_fd_sc_hd__inv_2
*CAP
1 *4045:B 0
2 *3917:A2 0
3 *3916:Y 0.000613124
4 *151:22 0.000375052
5 *151:6 0.000238072
6 *151:6 *3917:A1 5.50049e-05
7 *151:22 *3914:A 0
8 *151:22 *4045:C_N 0
9 *151:22 *681:12 0
10 *151:22 *748:12 8.4047e-05
11 *151:22 *748:52 0
12 *151:22 *749:8 0
13 *151:22 *750:10 0.000171906
14 *3916:A *151:6 5.67058e-05
15 *3917:B1 *151:6 0.00029641
16 *3917:B1 *151:22 0.00010018
17 *107:73 *151:22 8.66035e-05
*RES
1 *3916:Y *151:6 27.9093 
2 *151:6 *3917:A2 23 
3 *3916:Y *151:22 45.9336 
4 *151:22 *4045:B 38 
*END

*D_NET *152 0.00226396
*CONN
*I *3919:C1 I *D sky130_fd_sc_hd__a221o_2
*I *3918:Y O *D sky130_fd_sc_hd__nor2_2
*CAP
1 *3919:C1 0
2 *3918:Y 0.000678858
3 *152:24 0.000255938
4 *152:12 0.000934796
5 *152:12 *749:8 2.74987e-05
6 *152:24 *3835:A 4.75353e-05
7 *152:24 *3919:B2 5.98466e-05
8 *152:24 *3931:A 2.65879e-05
9 *152:24 *748:23 4.82745e-05
10 *152:24 *749:42 6.28205e-06
11 *3918:A *152:24 7.71797e-06
12 *3:14 *152:24 1.31416e-05
13 *150:37 *152:12 0
14 *150:51 *152:12 0.000157484
*RES
1 *3918:Y *152:12 48.0172 
2 *152:12 *152:24 27.2309 
3 *152:24 *3919:C1 23 
*END

*D_NET *153 0.000889817
*CONN
*I *3950:B1 I *D sky130_fd_sc_hd__a32o_2
*I *3920:Y O *D sky130_fd_sc_hd__nand2_2
*CAP
1 *3950:B1 3.39167e-05
2 *3920:Y 0.000205887
3 *153:8 0.000239804
4 *3950:B1 *525:8 3.39489e-05
5 *153:8 *3921:A2 0.000116314
6 *153:8 *4782:A 0.000259946
7 *153:8 *583:16 0
*RES
1 *3920:Y *153:8 43.075 
2 *153:8 *3950:B1 38.7095 
*END

*D_NET *154 0.00553696
*CONN
*I *3922:B I *D sky130_fd_sc_hd__nand2_2
*I *4357:B I *D sky130_fd_sc_hd__or3b_2
*I *3927:A_N I *D sky130_fd_sc_hd__and2b_2
*I *3923:B1 I *D sky130_fd_sc_hd__a22o_2
*I *3921:Y O *D sky130_fd_sc_hd__a31oi_2
*CAP
1 *3922:B 9.27031e-05
2 *4357:B 0
3 *3927:A_N 0
4 *3923:B1 0
5 *3921:Y 6.80981e-05
6 *154:44 0.000189772
7 *154:38 0.000612083
8 *154:31 0.000238677
9 *154:16 0.000965036
10 *154:6 0.00112406
11 *3922:B *158:16 3.13586e-05
12 *154:16 *476:80 0.000428691
13 *154:16 *664:51 7.42401e-05
14 *154:16 *696:10 0
15 *154:16 *696:16 0
16 *154:16 *743:10 5.56203e-05
17 *154:16 *743:23 0.000215178
18 *154:16 *745:14 0.000305717
19 *154:31 *559:10 6.17437e-06
20 *154:31 *592:10 9.28078e-06
21 *154:31 *744:8 0
22 *154:38 *745:50 2.98648e-05
23 *154:44 *745:50 2.70469e-05
24 *3925:A3 *154:6 2.98648e-05
25 *3925:A3 *154:38 5.12328e-05
26 *3926:A2 *154:16 3.81554e-05
27 *3929:A2 *3922:B 0.000144501
28 *3929:A2 *154:38 1.24376e-05
29 *4453:D *154:31 1.03934e-05
30 *17:16 *154:6 6.17437e-06
31 *31:12 *3922:B 0.000218601
32 *31:12 *154:38 0.000142102
33 *32:8 *154:16 4.32372e-05
34 *33:10 *154:16 1.10658e-05
35 *33:10 *154:31 5.56279e-05
36 *99:22 *154:44 2.3172e-05
37 *100:26 *154:44 0.000276784
*RES
1 *3921:Y *154:6 24.0979 
2 *154:6 *154:16 45.7636 
3 *154:16 *3923:B1 23 
4 *154:16 *154:31 34.205 
5 *154:31 *3927:A_N 23 
6 *154:6 *154:38 6.33857 
7 *154:38 *154:44 34.3707 
8 *154:44 *4357:B 23 
9 *154:38 *3922:B 26.3764 
*END

*D_NET *155 0.00289346
*CONN
*I *4358:A1 I *D sky130_fd_sc_hd__a22o_2
*I *3922:Y O *D sky130_fd_sc_hd__nand2_2
*CAP
1 *4358:A1 0.000407104
2 *3922:Y 0.000298349
3 *155:8 0.000705453
4 *4358:A1 *4358:A2 3.49458e-05
5 *4358:A1 *4569:CLK 0
6 *4358:A1 *476:34 0.000349395
7 *4358:A1 *476:36 8.4047e-05
8 *4358:A1 *476:42 0.000375718
9 *4358:A1 *480:31 0
10 *4358:A1 *695:14 2.60152e-05
11 *4358:A1 *744:34 0.000559134
12 *155:8 *3922:A 5.3304e-05
13 *63:10 *4358:A1 0
*RES
1 *3922:Y *155:8 42.4329 
2 *155:8 *4358:A1 49.8071 
*END

*D_NET *156 0.000356355
*CONN
*I *3939:B1 I *D sky130_fd_sc_hd__a32o_2
*I *3924:Y O *D sky130_fd_sc_hd__nand2_2
*CAP
1 *3939:B1 1.69855e-05
2 *3924:Y 0.000133426
3 *156:8 0.000150411
4 *88:24 *3939:B1 1.05846e-05
5 *100:26 *156:8 4.49481e-05
*RES
1 *3924:Y *156:8 40.2579 
2 *156:8 *3939:B1 38.2486 
*END

*D_NET *157 0.00305553
*CONN
*I *3926:B1 I *D sky130_fd_sc_hd__a22o_2
*I *3928:A_N I *D sky130_fd_sc_hd__and2b_2
*I *3925:Y O *D sky130_fd_sc_hd__a31oi_2
*CAP
1 *3926:B1 0.00049426
2 *3928:A_N 0.000113874
3 *3925:Y 0.000460148
4 *157:10 0.00106828
5 *3926:B1 *4714:A 0.000103647
6 *3926:B1 *476:80 4.44669e-05
7 *3926:B1 *713:31 1.38197e-05
8 *3926:B1 *745:50 6.78627e-05
9 *3928:A_N *4451:SET_B 5.50106e-05
10 *3928:A_N *696:10 0.000110913
11 *157:10 *4714:A 0
12 *157:10 *584:16 7.44161e-06
13 *157:10 *664:45 0.000108672
14 *157:10 *664:51 1.12487e-05
15 *157:10 *713:12 0
16 *157:10 *743:23 0
17 *3925:A3 *157:10 6.69899e-05
18 *3926:A2 *3926:B1 1.82496e-05
19 *104:78 *157:10 0.000310647
*RES
1 *3925:Y *157:10 47.1764 
2 *157:10 *3928:A_N 40.175 
3 *157:10 *3926:B1 44.8357 
*END

*D_NET *158 0.00398574
*CONN
*I *3929:B1 I *D sky130_fd_sc_hd__a311o_2
*I *3927:X O *D sky130_fd_sc_hd__and2b_2
*CAP
1 *3929:B1 0
2 *3927:X 0.000162756
3 *158:16 0.000692055
4 *158:8 0.000854811
5 *158:8 *3927:B 0.000232125
6 *158:16 *3922:A 0.000100061
7 *158:16 *3927:B 0.00055943
8 *158:16 *4357:C_N 2.4306e-05
9 *158:16 *744:8 0.000291232
10 *158:16 *746:10 0.000126601
11 *158:16 *746:32 0.000283412
12 *3922:B *158:16 3.13586e-05
13 *3929:A2 *158:16 3.48133e-05
14 *31:12 *158:16 0.00035941
15 *99:22 *158:16 0.000233367
*RES
1 *3927:X *158:8 40.5271 
2 *158:8 *158:16 32.8557 
3 *158:16 *3929:B1 23 
*END

*D_NET *159 0.00580808
*CONN
*I *3929:C1 I *D sky130_fd_sc_hd__a311o_2
*I *4358:A2 I *D sky130_fd_sc_hd__a22o_2
*I *3928:X O *D sky130_fd_sc_hd__and2b_2
*CAP
1 *3929:C1 0
2 *4358:A2 0.000291155
3 *3928:X 0.000577223
4 *159:43 0.000708544
5 *159:14 0.000999699
6 *159:12 0.000577223
7 *4358:A2 *4713:A 0.000241355
8 *4358:A2 *426:12 0.000350079
9 *4358:A2 *465:25 9.2467e-06
10 *4358:A2 *595:10 1.05441e-05
11 *4358:A2 *743:40 5.4578e-05
12 *159:12 *4424:RESET_B 2.62559e-05
13 *159:12 *4451:CLK 0.000262394
14 *159:12 *4451:SET_B 0.000309668
15 *159:12 *476:68 0.0001125
16 *159:12 *592:10 0.000434872
17 *159:43 *4713:A 7.39034e-05
18 *159:43 *426:12 0.000312098
19 *159:43 *713:31 0.000238539
20 *159:43 *745:50 0
21 *159:43 *746:10 0
22 *159:43 *746:32 0
23 *4358:A1 *4358:A2 3.49458e-05
24 *4451:D *159:12 0.000146822
25 *99:22 *159:43 3.64337e-05
*RES
1 *3928:X *159:12 37.6243 
2 *159:12 *159:14 15 
3 *159:14 *4358:A2 45.9595 
4 *159:14 *159:43 41.5379 
5 *159:43 *3929:C1 38 
*END

*D_NET *160 0.00327735
*CONN
*I *4069:C I *D sky130_fd_sc_hd__nor3_2
*I *4057:C_N I *D sky130_fd_sc_hd__or3b_2
*I *4070:C I *D sky130_fd_sc_hd__or3_2
*I *3931:C I *D sky130_fd_sc_hd__or3_2
*I *3930:X O *D sky130_fd_sc_hd__a21bo_2
*CAP
1 *4069:C 0.000227406
2 *4057:C_N 2.47322e-05
3 *4070:C 0
4 *3931:C 0.000198606
5 *3930:X 0.000159479
6 *160:38 0.000383308
7 *160:27 0.000387648
8 *160:10 0.000614564
9 *3931:C *3931:A 2.93845e-05
10 *3931:C *161:10 6.2506e-05
11 *4069:C *4069:B 9.5877e-05
12 *160:10 *3847:A1 0
13 *160:10 *518:46 4.6318e-06
14 *160:10 *519:65 5.41288e-05
15 *160:10 *747:109 0.000164291
16 *160:27 *3847:A1 4.21594e-06
17 *160:27 *3847:A2 0
18 *160:27 *4070:B 2.84809e-05
19 *160:27 *495:71 4.99753e-06
20 *160:27 *669:82 0
21 *160:27 *747:109 1.37349e-05
22 *160:27 *751:10 0
23 *160:38 *4057:B 0
24 *160:38 *264:8 2.46933e-05
25 *160:38 *751:10 0
26 *96:8 *160:27 0.000379413
27 *96:18 *160:27 3.70187e-05
28 *96:18 *160:38 0.000191157
29 *96:27 *4057:C_N 5.50049e-05
30 *96:27 *4069:C 3.17027e-05
31 *111:65 *3931:C 0.000100374
*RES
1 *3930:X *160:10 41.3557 
2 *160:10 *3931:C 42.1221 
3 *160:10 *160:27 6.75286 
4 *160:27 *4070:C 38 
5 *160:27 *160:38 17.61 
6 *160:38 *4057:C_N 23.6214 
7 *160:38 *4069:C 26.9979 
*END

*D_NET *161 0.00403051
*CONN
*I *3932:A I *D sky130_fd_sc_hd__inv_2
*I *3933:A2 I *D sky130_fd_sc_hd__a21o_2
*I *3931:X O *D sky130_fd_sc_hd__or3_2
*CAP
1 *3932:A 2.01797e-05
2 *3933:A2 0.000548087
3 *3931:X 0.000784476
4 *161:10 0.00135274
5 *3932:A *3930:A2 9.84794e-05
6 *3932:A *167:33 9.84794e-05
7 *3933:A2 *3915:A1 1.12487e-05
8 *3933:A2 *3930:A2 0.000150977
9 *3933:A2 *669:46 0.000194309
10 *3933:A2 *669:76 0.000164282
11 *3933:A2 *669:82 0
12 *3933:A2 *752:19 0.000423289
13 *161:10 *3847:A2 3.16665e-05
14 *161:10 *3930:A2 3.47781e-05
15 *161:10 *669:82 0
16 *3931:C *161:10 6.2506e-05
17 *111:65 *161:10 5.50091e-05
*RES
1 *3931:X *161:10 48.5021 
2 *161:10 *3933:A2 49.8486 
3 *161:10 *3932:A 39.0979 
*END

*D_NET *162 0.00366187
*CONN
*I *4151:B I *D sky130_fd_sc_hd__nand2_2
*I *4360:A2 I *D sky130_fd_sc_hd__a22o_2
*I *3932:Y O *D sky130_fd_sc_hd__inv_2
*CAP
1 *4151:B 0
2 *4360:A2 0.000109715
3 *3932:Y 0.000226644
4 *162:16 0.000869264
5 *162:8 0.000986193
6 *4360:A2 *4360:B2 0.000245202
7 *162:8 *167:33 0.000310647
8 *162:16 *3915:A1 0
9 *162:16 *518:46 4.6318e-06
10 *162:16 *518:48 6.4393e-05
11 *162:16 *518:60 0.000291763
12 *162:16 *519:49 0.000164291
13 *162:16 *602:8 0.000110922
14 *162:16 *669:82 0
15 *162:16 *753:8 6.7522e-05
16 *3851:B1 *162:16 4.75704e-05
17 *4151:A *162:16 0
18 *107:92 *162:16 0.000163113
*RES
1 *3932:Y *162:8 41.48 
2 *162:8 *162:16 32.11 
3 *162:16 *4360:A2 25.7343 
4 *162:16 *4151:B 23 
*END

*D_NET *163 0.0029395
*CONN
*I *3934:B2 I *D sky130_fd_sc_hd__a32o_2
*I *3933:X O *D sky130_fd_sc_hd__a21o_2
*CAP
1 *3934:B2 0
2 *3933:X 5.55952e-05
3 *163:14 0.000767183
4 *163:8 0.000822779
5 *163:8 *4772:A 9.84851e-05
6 *163:14 *3915:A0 6.32688e-05
7 *163:14 *169:10 5.6572e-05
8 *163:14 *501:14 0.000126936
9 *163:14 *518:10 8.4047e-05
10 *163:14 *518:14 0.000296965
11 *163:14 *694:10 0
12 *3:22 *163:14 0
13 *26:8 *163:14 0.000567669
14 *107:128 *163:14 0
*RES
1 *3933:X *163:8 39.0979 
2 *163:8 *163:14 33.27 
3 *163:14 *3934:B2 23 
*END

*D_NET *164 0.000321488
*CONN
*I *3936:B1 I *D sky130_fd_sc_hd__a31o_2
*I *3935:X O *D sky130_fd_sc_hd__o21a_2
*CAP
1 *3936:B1 1.70892e-05
2 *3935:X 1.70892e-05
3 *3936:B1 *529:57 0.000143655
4 *89:10 *3936:B1 0.000143655
*RES
1 *3935:X *3936:B1 47.5743 
*END

*D_NET *165 0.00437979
*CONN
*I *3938:B1 I *D sky130_fd_sc_hd__a22o_2
*I *4363:A2 I *D sky130_fd_sc_hd__a221o_2
*I *4365:A2 I *D sky130_fd_sc_hd__a221o_2
*I *3937:Y O *D sky130_fd_sc_hd__nor2_2
*CAP
1 *3938:B1 0
2 *4363:A2 0
3 *4365:A2 0
4 *3937:Y 0.000363357
5 *165:44 0.000311038
6 *165:33 0.000302814
7 *165:16 0.000399231
8 *165:8 0.000761047
9 *165:6 0.000733397
10 *165:6 *4411:RESET_B 1.21972e-05
11 *165:6 *498:37 2.95526e-05
12 *165:6 *526:8 5.5792e-05
13 *165:6 *528:57 5.58003e-05
14 *165:6 *541:10 2.71358e-05
15 *165:8 *4411:RESET_B 1.60273e-05
16 *165:8 *541:10 1.26547e-05
17 *165:16 *3949:B1 3.53698e-05
18 *165:16 *4427:CLK 7.75593e-05
19 *165:16 *171:20 0.000193571
20 *165:16 *449:13 0.000278277
21 *165:16 *703:8 2.28401e-05
22 *165:16 *703:25 4.16878e-06
23 *165:33 *4363:B1 3.34576e-05
24 *165:33 *430:10 1.0092e-05
25 *165:33 *449:13 7.19778e-05
26 *165:33 *521:78 1.70467e-05
27 *165:33 *541:10 1.48077e-05
28 *165:33 *622:16 3.53698e-05
29 *165:44 *4403:RESET_B 0.000390563
30 *165:44 *449:13 0
31 *165:44 *703:8 7.9636e-05
32 *4427:D *165:16 1.24376e-05
33 *24:10 *165:33 1.794e-05
34 *105:8 *165:44 4.6318e-06
*RES
1 *3937:Y *165:6 29.3386 
2 *165:6 *165:8 1.09786 
3 *165:8 *165:16 39.1039 
4 *165:16 *4365:A2 23 
5 *165:8 *165:33 35.1889 
6 *165:33 *4363:A2 23 
7 *165:6 *165:44 36.4836 
8 *165:44 *3938:B1 23 
*END

*D_NET *166 0.00183122
*CONN
*I *3941:B I *D sky130_fd_sc_hd__nand2_2
*I *3940:Y O *D sky130_fd_sc_hd__o21ai_2
*CAP
1 *3941:B 0.000123729
2 *3940:Y 0.000309342
3 *166:10 0.00043307
4 *3941:B *3939:A1 5.50049e-05
5 *3941:B *4404:CLK 2.93747e-05
6 *3941:B *529:6 0.000182832
7 *166:10 *523:16 2.4754e-05
8 *166:10 *523:22 0.00014196
9 *166:10 *550:8 0.000104143
10 *166:10 *744:34 2.70469e-05
11 *30:10 *166:10 0.000399966
12 *102:34 *166:10 0
*RES
1 *3940:Y *166:10 46.1821 
2 *166:10 *3941:B 41.0243 
*END

*D_NET *167 0.00679183
*CONN
*I *4094:B I *D sky130_fd_sc_hd__nand2_2
*I *3943:A I *D sky130_fd_sc_hd__inv_2
*I *4359:B I *D sky130_fd_sc_hd__nand2_2
*I *3942:X O *D sky130_fd_sc_hd__and4b_2
*CAP
1 *4094:B 0
2 *3943:A 0.000148095
3 *4359:B 0
4 *3942:X 0
5 *167:35 0.000148095
6 *167:33 0.00102095
7 *167:18 0.000632296
8 *167:4 0.00165324
9 *3943:A *3944:A1 2.02517e-05
10 *3943:A *3944:A2 9.30054e-05
11 *167:18 *3851:A1 5.3304e-05
12 *167:18 *3851:A2 5.3304e-05
13 *167:18 *4359:A 3.26893e-05
14 *167:18 *449:226 8.58585e-05
15 *167:18 *495:23 7.56417e-05
16 *167:18 *495:33 0
17 *167:18 *495:71 0.000134279
18 *167:18 *518:46 1.12487e-05
19 *167:18 *518:48 5.97612e-05
20 *167:18 *518:60 0.000655643
21 *167:18 *519:65 0.000110922
22 *167:18 *747:53 0.0002246
23 *167:33 *3930:A2 9.16459e-05
24 *167:33 *3942:B 9.67842e-05
25 *167:33 *518:38 0.00014555
26 *167:33 *518:42 5.10805e-05
27 *167:33 *519:53 1.51028e-05
28 *167:33 *519:65 0.000209502
29 *3869:B *167:18 0
30 *3932:A *167:33 9.84794e-05
31 *4406:D *167:33 9.76261e-05
32 *64:16 *167:18 0.0002685
33 *107:128 *167:33 0
34 *111:88 *3943:A 5.50049e-05
35 *111:88 *167:33 0.000138718
36 *162:8 *167:33 0.000310647
*RES
1 *3942:X *167:4 23 
2 *167:4 *167:18 47.11 
3 *167:18 *4359:B 23 
4 *167:4 *167:33 35.3207 
5 *167:33 *167:35 15 
6 *167:35 *3943:A 26.5214 
7 *167:35 *4094:B 23 
*END

*D_NET *168 0.000586309
*CONN
*I *3944:A2 I *D sky130_fd_sc_hd__a21o_2
*I *3943:Y O *D sky130_fd_sc_hd__inv_2
*CAP
1 *3944:A2 0.00022
2 *3943:Y 0.00022
3 *3943:A *3944:A2 9.30054e-05
4 *111:88 *3944:A2 5.3304e-05
*RES
1 *3943:Y *3944:A2 49.48 
*END

*D_NET *169 0.00154238
*CONN
*I *3945:B2 I *D sky130_fd_sc_hd__a32o_2
*I *3944:X O *D sky130_fd_sc_hd__a21o_2
*CAP
1 *3945:B2 4.09526e-05
2 *3944:X 0.0002267
3 *169:10 0.000267653
4 *169:10 *3944:A1 3.22879e-05
5 *169:10 *500:47 5.50049e-05
6 *26:8 *169:10 0.000133553
7 *107:128 *169:10 0.000562267
8 *111:73 *3945:B2 5.3304e-05
9 *111:73 *169:10 0.000114083
10 *163:14 *169:10 5.6572e-05
*RES
1 *3944:X *169:10 46.1614 
2 *169:10 *3945:B2 38.6214 
*END

*D_NET *170 0.000504451
*CONN
*I *3947:B1 I *D sky130_fd_sc_hd__a32o_2
*I *3946:Y O *D sky130_fd_sc_hd__nand2_2
*CAP
1 *3947:B1 1.58798e-05
2 *3946:Y 0.000173775
3 *170:8 0.000189654
4 *3947:B1 *665:22 6.25714e-05
5 *170:8 *665:65 0
6 *89:23 *170:8 0
7 *108:10 *3947:B1 6.25714e-05
*RES
1 *3946:Y *170:8 40.61 
2 *170:8 *3947:B1 38.7043 
*END

*D_NET *171 0.00597512
*CONN
*I *4363:C1 I *D sky130_fd_sc_hd__a221o_2
*I *3949:B1 I *D sky130_fd_sc_hd__a21o_2
*I *4365:C1 I *D sky130_fd_sc_hd__a221o_2
*I *3948:X O *D sky130_fd_sc_hd__and3b_2
*CAP
1 *4363:C1 1.69765e-05
2 *3949:B1 0.000258303
3 *4365:C1 0.000525953
4 *3948:X 0.000371868
5 *171:20 0.00107568
6 *171:10 0.000680266
7 *3949:B1 *3949:A1 2.50118e-05
8 *3949:B1 *4427:RESET_B 0.000140731
9 *3949:B1 *449:27 2.95423e-05
10 *3949:B1 *449:125 9.53319e-05
11 *4363:C1 *742:68 1.11909e-05
12 *4365:C1 *4427:CLK 0.000276552
13 *171:10 *520:12 0.000102092
14 *171:10 *521:66 0.00010186
15 *171:10 *622:6 2.02872e-05
16 *171:10 *622:16 0.000760853
17 *171:10 *706:24 0.000269823
18 *171:10 *742:68 9.5148e-05
19 *171:10 *984:36 0.000311789
20 *171:20 *4363:B1 3.28357e-06
21 *171:20 *4427:RESET_B 0.000157287
22 *171:20 *622:16 4.74053e-05
23 *171:20 *703:25 0.000238921
24 *171:20 *742:68 2.95423e-05
25 *110:6 *3949:B1 0.000100477
26 *165:16 *3949:B1 3.53698e-05
27 *165:16 *171:20 0.000193571
*RES
1 *3948:X *171:10 36.1743 
2 *171:10 *171:20 22.1671 
3 *171:20 *4365:C1 45.685 
4 *171:20 *3949:B1 44.1936 
5 *171:10 *4363:C1 23.4971 
*END

*D_NET *172 0.00290444
*CONN
*I *3952:A2 I *D sky130_fd_sc_hd__a21o_2
*I *3951:Y O *D sky130_fd_sc_hd__nand2_2
*CAP
1 *3952:A2 0
2 *3951:Y 4.47013e-05
3 *172:14 0.000623113
4 *172:8 0.000667815
5 *172:14 *3868:B1 1.40958e-05
6 *172:14 *3952:A1 0.000308635
7 *172:14 *520:42 0.000204165
8 *172:14 *585:8 0.000710629
9 *3864:B *172:14 5.5792e-05
10 *22:10 *172:14 2.93747e-05
11 *89:23 *172:14 4.69488e-06
12 *89:36 *172:14 6.331e-05
13 *103:42 *172:14 0.00015508
14 *108:10 *172:14 2.30292e-05
*RES
1 *3951:Y *172:8 38.6214 
2 *172:8 *172:14 31.6543 
3 *172:14 *3952:A2 23 
*END

*D_NET *173 0.00366184
*CONN
*I *3973:C I *D sky130_fd_sc_hd__or4_2
*I *4346:A2 I *D sky130_fd_sc_hd__o31a_2
*I *3972:A I *D sky130_fd_sc_hd__nor2_2
*I *3955:X O *D sky130_fd_sc_hd__or2_2
*CAP
1 *3973:C 0.000114418
2 *4346:A2 0.000426116
3 *3972:A 0
4 *3955:X 0.000175116
5 *173:19 0.000793098
6 *173:8 0.00042768
7 *3973:C *189:77 0.000191255
8 *3973:C *632:8 7.12098e-05
9 *3973:C *972:27 0.0002778
10 *4346:A2 *4346:A1 0.000157228
11 *4346:A2 *424:10 0
12 *4346:A2 *952:10 0.00019747
13 *4346:A2 *972:27 0.00011271
14 *4346:A2 *974:16 2.13869e-05
15 *173:8 *3972:B 5.90675e-06
16 *173:8 *4340:B 5.47808e-05
17 *173:8 *189:54 2.63049e-05
18 *173:8 *189:77 4.9486e-05
19 *173:19 *189:77 0.000390187
20 *173:19 *952:10 0.000169683
*RES
1 *3955:X *173:8 26.9771 
2 *173:8 *3972:A 23 
3 *173:8 *173:19 21.9186 
4 *173:19 *4346:A2 47.8393 
5 *173:19 *3973:C 41.9564 
*END

*D_NET *174 0.00471647
*CONN
*I *3957:B I *D sky130_fd_sc_hd__or2_2
*I *4310:B I *D sky130_fd_sc_hd__nand2_2
*I *4309:A1 I *D sky130_fd_sc_hd__a21oi_2
*I *3956:X O *D sky130_fd_sc_hd__or2_2
*CAP
1 *3957:B 0
2 *4310:B 0
3 *4309:A1 0
4 *3956:X 0.00103775
5 *174:37 0.000487997
6 *174:27 0.00089486
7 *174:14 0.000453466
8 *174:10 0.00108435
9 *174:10 *3956:B 0.000116201
10 *174:10 *4577:CLK 5.41385e-05
11 *174:10 *4577:D 2.14371e-05
12 *174:14 *4309:A2 0.000141879
13 *174:14 *471:23 0.000141879
14 *174:27 *4313:B1 5.50106e-05
15 *174:27 *4576:CLK 0.000188256
16 *174:27 *471:23 3.92407e-05
17 *174:37 *407:12 0
18 *174:37 *643:10 0
*RES
1 *3956:X *174:10 37.1271 
2 *174:10 *174:14 16.9057 
3 *174:14 *4309:A1 38 
4 *174:14 *174:27 23.4307 
5 *174:27 *174:37 38.4721 
6 *174:37 *4310:B 23 
7 *174:27 *3957:B 23 
*END

*D_NET *175 0.00302918
*CONN
*I *4312:B I *D sky130_fd_sc_hd__nand2_2
*I *4311:A1 I *D sky130_fd_sc_hd__a21oi_2
*I *3957:X O *D sky130_fd_sc_hd__or2_2
*CAP
1 *4312:B 0.000155973
2 *4311:A1 0
3 *3957:X 5.62349e-05
4 *175:12 0.000325558
5 *175:6 0.000537765
6 *4312:B *3957:A 0.000339279
7 *4312:B *4835:A 8.60475e-05
8 *4312:B *176:16 0.000487153
9 *4312:B *408:8 4.95081e-05
10 *175:6 *3957:A 4.5051e-05
11 *175:6 *4313:B1 5.50049e-05
12 *175:6 *955:10 9.75779e-05
13 *175:12 *4313:A1 1.22803e-05
14 *175:12 *176:10 0.000372968
15 *175:12 *407:12 0.000408777
16 *175:12 *647:43 0
17 *175:12 *690:73 0
*RES
1 *3957:X *175:6 24.5743 
2 *175:6 *175:12 41.0614 
3 *175:12 *4311:A1 23 
4 *175:6 *4312:B 29.8357 
*END

*D_NET *176 0.00895828
*CONN
*I *4313:A1 I *D sky130_fd_sc_hd__a21oi_2
*I *3960:D I *D sky130_fd_sc_hd__or4_2
*I *4314:B I *D sky130_fd_sc_hd__and2_2
*I *3959:B I *D sky130_fd_sc_hd__nor2_2
*I *4318:A3 I *D sky130_fd_sc_hd__o31ai_2
*I *3958:X O *D sky130_fd_sc_hd__or4_2
*CAP
1 *4313:A1 4.69399e-05
2 *3960:D 3.80122e-05
3 *4314:B 6.05393e-05
4 *3959:B 0.00027784
5 *4318:A3 3.92607e-05
6 *3958:X 0.000363847
7 *176:37 0.000411034
8 *176:35 0.000597988
9 *176:16 0.00153198
10 *176:10 0.00141618
11 *3959:B *3959:A 5.67058e-05
12 *3959:B *4315:A1 0.000242404
13 *3959:B *4316:A 0.000191505
14 *3959:B *177:10 0.000236667
15 *3959:B *688:36 0
16 *3959:B *979:23 2.40336e-05
17 *3960:D *3960:C 5.3304e-05
18 *4313:A1 *976:23 0
19 *4314:B *409:10 5.3304e-05
20 *4314:B *472:50 4.79641e-05
21 *4314:B *979:8 5.3304e-05
22 *4318:A3 *979:38 0
23 *176:10 *4576:RESET_B 0.000283088
24 *176:10 *407:12 7.53384e-06
25 *176:10 *647:18 8.84817e-06
26 *176:10 *690:73 9.98891e-05
27 *176:10 *690:82 5.71927e-05
28 *176:10 *976:23 0
29 *176:16 *408:8 1.76557e-05
30 *176:16 *411:10 0.000227417
31 *176:35 *4315:A1 0.000367958
32 *176:35 *4315:B1 0.000164495
33 *176:35 *4318:A1 9.21796e-05
34 *176:35 *956:10 0.000228909
35 *176:35 *979:23 8.62876e-05
36 *176:35 *979:38 0.000330766
37 *176:37 *4315:A1 0.000181934
38 *176:37 *979:23 0.000188916
39 *4312:B *176:16 0.000487153
40 *175:12 *4313:A1 1.22803e-05
41 *175:12 *176:10 0.000372968
*RES
1 *3958:X *176:10 48.7507 
2 *176:10 *176:16 30.4114 
3 *176:16 *4318:A3 24.1186 
4 *176:16 *176:35 28.0086 
5 *176:35 *176:37 2.61 
6 *176:37 *3959:B 45.4986 
7 *176:37 *4314:B 39.5743 
8 *176:35 *3960:D 38.6214 
9 *176:10 *4313:A1 38.8493 
*END

*D_NET *177 0.00293121
*CONN
*I *4315:A1 I *D sky130_fd_sc_hd__o21a_2
*I *4316:B I *D sky130_fd_sc_hd__xnor2_2
*I *3959:Y O *D sky130_fd_sc_hd__nor2_2
*CAP
1 *4315:A1 0.00035036
2 *4316:B 2.44744e-05
3 *3959:Y 0.000194502
4 *177:10 0.000569337
5 *4315:A1 *4580:RESET_B 0
6 *4315:A1 *409:10 0.000585981
7 *4315:A1 *979:38 2.49836e-05
8 *4316:B *4316:A 9.84794e-05
9 *4316:B *4585:RESET_B 5.41288e-05
10 *177:10 *4580:RESET_B 0
11 *177:10 *688:36 0
12 *3959:B *4315:A1 0.000242404
13 *3959:B *177:10 0.000236667
14 *176:35 *4315:A1 0.000367958
15 *176:37 *4315:A1 0.000181934
*RES
1 *3959:Y *177:10 41.48 
2 *177:10 *4316:B 39.0979 
3 *177:10 *4315:A1 49.4136 
*END

*D_NET *178 0.0055003
*CONN
*I *3963:D I *D sky130_fd_sc_hd__or4_2
*I *3961:B I *D sky130_fd_sc_hd__or2_2
*I *4320:B I *D sky130_fd_sc_hd__nand2_2
*I *4322:A2 I *D sky130_fd_sc_hd__o21ai_2
*I *4319:A1 I *D sky130_fd_sc_hd__a21oi_2
*I *3960:X O *D sky130_fd_sc_hd__or4_2
*CAP
1 *3963:D 0.000134062
2 *3961:B 0
3 *4320:B 0.000223131
4 *4322:A2 0.000180503
5 *4319:A1 0.000400158
6 *3960:X 0.000728955
7 *178:38 0.000357193
8 *178:25 0.000647748
9 *178:10 0.00159636
10 *3963:D *3963:A 7.59794e-05
11 *3963:D *981:25 4.5051e-05
12 *4319:A1 *4581:D 0.000117961
13 *4320:B *4320:A 0.000187129
14 *4320:B *981:25 4.6595e-05
15 *4322:A2 *3963:B 5.26101e-05
16 *4322:A2 *179:8 0
17 *4322:A2 *412:8 0
18 *4322:A2 *413:8 6.48142e-05
19 *4322:A2 *647:84 0
20 *4322:A2 *649:24 0
21 *4322:A2 *690:49 5.50049e-05
22 *4322:A2 *981:21 7.55491e-05
23 *4322:A2 *982:25 4.21594e-06
24 *178:10 *3960:A 2.93747e-05
25 *178:10 *3960:C 0.000307126
26 *178:10 *980:22 5.67058e-05
27 *178:25 *4579:CLK 0
28 *178:25 *4669:A 0
29 *178:25 *472:56 0
30 *178:25 *647:84 0
31 *178:25 *649:24 0
32 *178:25 *957:8 0.000114074
*RES
1 *3960:X *178:10 34.745 
2 *178:10 *4319:A1 29.2557 
3 *178:10 *178:25 23.9486 
4 *178:25 *4322:A2 42.2879 
5 *178:25 *178:38 15 
6 *178:38 *4320:B 27.4536 
7 *178:38 *3961:B 23 
8 *178:38 *3963:D 25.5271 
*END

*D_NET *179 0.00292491
*CONN
*I *4321:A1 I *D sky130_fd_sc_hd__a21oi_2
*I *3962:B I *D sky130_fd_sc_hd__or2_2
*I *3961:X O *D sky130_fd_sc_hd__or2_2
*CAP
1 *4321:A1 4.21364e-05
2 *3962:B 0
3 *3961:X 0.000113357
4 *179:12 0.000383015
5 *179:8 0.000538509
6 *4321:A1 *4321:A2 5.50049e-05
7 *4321:A1 *690:49 4.50058e-05
8 *4321:A1 *959:10 5.41288e-05
9 *179:8 *3963:B 0.000153218
10 *179:8 *4323:B1 7.75329e-06
11 *179:8 *412:8 0.000166522
12 *179:8 *647:84 7.76364e-06
13 *179:8 *982:25 3.70094e-05
14 *179:12 *4323:B1 0.000204851
15 *179:12 *4841:A 0
16 *179:12 *180:14 0.000443548
17 *179:12 *463:8 0
18 *179:12 *469:60 0
19 *179:12 *960:10 0.000169674
20 *179:12 *982:25 0.000503418
21 *4322:A2 *179:8 0
*RES
1 *3961:X *179:8 40.9621 
2 *179:8 *179:12 28.5264 
3 *179:12 *3962:B 23 
4 *179:8 *4321:A1 39.595 
*END

*D_NET *180 0.00125879
*CONN
*I *4324:B I *D sky130_fd_sc_hd__nand2_2
*I *4323:A1 I *D sky130_fd_sc_hd__a21oi_2
*I *3962:X O *D sky130_fd_sc_hd__or2_2
*CAP
1 *4324:B 2.97706e-05
2 *4323:A1 0
3 *3962:X 0
4 *180:14 0.000235416
5 *180:4 0.000265186
6 *180:14 *3962:A 0.000173827
7 *180:14 *414:10 0
8 *180:14 *469:60 0
9 *180:14 *649:24 0
10 *180:14 *982:25 0.000111045
11 *179:12 *180:14 0.000443548
*RES
1 *3962:X *180:4 23 
2 *180:4 *180:14 38.2029 
3 *180:14 *4323:A1 23 
4 *180:4 *4324:B 23.6214 
*END

*D_NET *181 0.00850498
*CONN
*I *4326:B I *D sky130_fd_sc_hd__and2_2
*I *3970:A I *D sky130_fd_sc_hd__or4_2
*I *3966:B I *D sky130_fd_sc_hd__or3_2
*I *4330:A1 I *D sky130_fd_sc_hd__o21ai_2
*I *3964:B I *D sky130_fd_sc_hd__nor2_2
*I *4325:A1 I *D sky130_fd_sc_hd__a21oi_2
*I *3963:X O *D sky130_fd_sc_hd__or4_2
*CAP
1 *4326:B 0.000216172
2 *3970:A 0.000230375
3 *3966:B 0
4 *4330:A1 0
5 *3964:B 0
6 *4325:A1 0
7 *3963:X 0.000110693
8 *181:57 0.000360878
9 *181:49 0.000787637
10 *181:40 0.000474426
11 *181:36 0.000534421
12 *181:27 0.00112806
13 *181:16 0.000601547
14 *181:10 0.00180009
15 *3970:A *4330:A2 6.7063e-05
16 *3970:A *4337:A1 3.45967e-05
17 *3970:A *4819:A 0.000129522
18 *3970:A *188:10 1.32314e-05
19 *4326:B *3964:A 8.08615e-05
20 *4326:B *4327:A2 6.17437e-06
21 *4326:B *4328:B 6.07611e-06
22 *4326:B *4586:RESET_B 0
23 *4326:B *182:8 0.000110116
24 *181:10 *3963:C 0
25 *181:10 *688:36 8.4047e-05
26 *181:16 *3963:C 0
27 *181:16 *4583:RESET_B 0
28 *181:16 *4584:RESET_B 0.000545265
29 *181:16 *414:10 5.67058e-05
30 *181:16 *649:24 0
31 *181:16 *688:36 0.000136746
32 *181:16 *961:8 0.000354778
33 *181:16 *983:10 0
34 *181:40 *3964:A 2.76611e-06
35 *181:40 *3967:B 0.000224345
36 *181:40 *4586:RESET_B 0
37 *181:40 *484:12 0
38 *181:49 *4330:A2 6.82514e-05
39 *181:49 *4331:A2 3.91386e-05
40 *181:49 *4819:A 0.000183733
41 *181:57 *3966:A 7.88926e-05
42 *181:57 *3966:C 0
43 *181:57 *3967:B 0
44 *181:57 *183:12 0
45 *181:57 *184:10 3.83778e-05
46 *181:57 *484:42 0
*RES
1 *3963:X *181:10 39.8229 
2 *181:10 *181:16 30.5564 
3 *181:16 *4325:A1 23 
4 *181:10 *181:27 29.21 
5 *181:27 *3964:B 23 
6 *181:27 *181:36 15.6214 
7 *181:36 *181:40 20.4271 
8 *181:40 *4330:A1 23 
9 *181:40 *181:49 3.97714 
10 *181:49 *181:57 35.945 
11 *181:57 *3966:B 23 
12 *181:49 *3970:A 27.8057 
13 *181:36 *4326:B 42.4121 
*END

*D_NET *182 0.00138281
*CONN
*I *4328:B I *D sky130_fd_sc_hd__xnor2_2
*I *4327:A1 I *D sky130_fd_sc_hd__o21a_2
*I *3964:Y O *D sky130_fd_sc_hd__nor2_2
*CAP
1 *4328:B 0.000359654
2 *4327:A1 0
3 *3964:Y 8.76212e-05
4 *182:8 0.000447275
5 *4328:B *4586:RESET_B 0.000227023
6 *4328:B *606:10 0
7 *4328:B *648:41 0
8 *4328:B *939:12 3.14274e-05
9 *4328:B *939:27 0
10 *4328:B *963:10 0
11 *182:8 *4586:RESET_B 0.000113614
12 *4326:B *4328:B 6.07611e-06
13 *4326:B *182:8 0.000110116
*RES
1 *3964:Y *182:8 40.9621 
2 *182:8 *4327:A1 38 
3 *182:8 *4328:B 46.2443 
*END

*D_NET *183 0.00327637
*CONN
*I *3970:B I *D sky130_fd_sc_hd__or4_2
*I *4330:A2 I *D sky130_fd_sc_hd__o21ai_2
*I *3966:C I *D sky130_fd_sc_hd__or3_2
*I *3965:X O *D sky130_fd_sc_hd__or2_2
*CAP
1 *3970:B 0
2 *4330:A2 0.000304802
3 *3966:C 0.000165928
4 *3965:X 0.000488153
5 *183:12 0.000510684
6 *183:10 0.000528108
7 *3966:C *484:36 7.80354e-05
8 *3966:C *484:42 4.6318e-06
9 *4330:A2 *4330:B1 5.50106e-05
10 *4330:A2 *4331:A2 1.32314e-05
11 *4330:A2 *4819:A 0.000294535
12 *4330:A2 *184:14 0.000114846
13 *183:10 *3971:A 0
14 *183:10 *4338:B 0.000185104
15 *183:10 *4805:A 0
16 *183:10 *185:10 7.48331e-05
17 *183:10 *187:10 1.12487e-05
18 *183:10 *188:10 0.000168754
19 *183:10 *484:12 0
20 *183:12 *185:10 6.38845e-05
21 *183:12 *187:10 1.47563e-05
22 *183:12 *188:10 1.14452e-05
23 *183:12 *484:36 5.30621e-05
24 *3970:A *4330:A2 6.7063e-05
25 *181:49 *4330:A2 6.82514e-05
26 *181:57 *3966:C 0
27 *181:57 *183:12 0
*RES
1 *3965:X *183:10 48.6264 
2 *183:10 *183:12 1.55357 
3 *183:12 *3966:C 41.3557 
4 *183:12 *4330:A2 45.9336 
5 *183:10 *3970:B 38 
*END

*D_NET *184 0.00386912
*CONN
*I *4331:A1 I *D sky130_fd_sc_hd__a21oi_2
*I *4332:B I *D sky130_fd_sc_hd__nand2_2
*I *3968:B I *D sky130_fd_sc_hd__or2_2
*I *3966:X O *D sky130_fd_sc_hd__or3_2
*CAP
1 *4331:A1 4.01155e-05
2 *4332:B 9.80377e-05
3 *3968:B 0.000291309
4 *3966:X 0.000173291
5 *184:18 0.000606731
6 *184:14 0.000647975
7 *184:10 0.000563767
8 *3968:B *4586:RESET_B 0.000100533
9 *3968:B *4706:A 1.58805e-05
10 *3968:B *470:64 0
11 *3968:B *648:30 1.58805e-05
12 *3968:B *691:32 9.67842e-05
13 *4332:B *4332:A 5.50106e-05
14 *4332:B *418:8 1.72202e-05
15 *4332:B *648:30 9.67842e-05
16 *184:10 *3966:A 5.2894e-05
17 *184:10 *965:22 3.83778e-05
18 *184:14 *4330:B1 5.50106e-05
19 *184:14 *4331:A2 4.94192e-05
20 *184:18 *4586:RESET_B 0.000286494
21 *184:18 *4588:RESET_B 0.000277705
22 *184:18 *648:30 0.000136672
23 *4330:A2 *184:14 0.000114846
24 *181:57 *184:10 3.83778e-05
*RES
1 *3966:X *184:10 40.7757 
2 *184:10 *184:14 20.3857 
3 *184:14 *184:18 22.54 
4 *184:18 *3968:B 43.8414 
5 *184:18 *4332:B 40.0507 
6 *184:14 *4331:A1 23.8493 
*END

*D_NET *185 0.00112572
*CONN
*I *3970:C I *D sky130_fd_sc_hd__or4_2
*I *3967:X O *D sky130_fd_sc_hd__or2_2
*CAP
1 *3970:C 0
2 *3967:X 0.00037846
3 *185:10 0.00037846
4 *185:10 *187:10 0.000192022
5 *185:10 *484:12 3.80641e-05
6 *183:10 *185:10 7.48331e-05
7 *183:12 *185:10 6.38845e-05
*RES
1 *3967:X *185:10 44.3386 
2 *185:10 *3970:C 38 
*END

*D_NET *186 0.00259727
*CONN
*I *4333:A1 I *D sky130_fd_sc_hd__a21oi_2
*I *4336:A2 I *D sky130_fd_sc_hd__o21ai_2
*I *4334:B I *D sky130_fd_sc_hd__xor2_2
*I *3968:X O *D sky130_fd_sc_hd__or2_2
*CAP
1 *4333:A1 0.00028681
2 *4336:A2 0
3 *4334:B 0.000480196
4 *3968:X 0.000469571
5 *186:8 0.000662957
6 *4333:A1 *4335:A 1.14154e-05
7 *4333:A1 *4335:B 0.00010018
8 *4333:A1 *418:8 5.70419e-05
9 *4333:A1 *648:18 0.000165744
10 *4333:A1 *648:24 0.000298832
11 *4334:B *4336:A1 0
12 *4334:B *420:8 5.86165e-05
13 *186:8 *4336:A1 5.90675e-06
*RES
1 *3968:X *186:8 31.7414 
2 *186:8 *4334:B 33.3143 
3 *186:8 *4336:A2 23 
4 *4334:B *4333:A1 31.8346 
*END

*D_NET *187 0.00106362
*CONN
*I *3970:D I *D sky130_fd_sc_hd__or4_2
*I *3969:X O *D sky130_fd_sc_hd__or2_2
*CAP
1 *3970:D 0
2 *3969:X 0.000335508
3 *187:10 0.000335508
4 *187:10 *3967:A 0
5 *187:10 *3971:A 4.95081e-05
6 *187:10 *189:8 5.67058e-05
7 *187:10 *484:6 1.03955e-05
8 *187:10 *484:12 5.79715e-05
9 *183:10 *187:10 1.12487e-05
10 *183:12 *187:10 1.47563e-05
11 *185:10 *187:10 0.000192022
*RES
1 *3969:X *187:10 44.5664 
2 *187:10 *3970:D 38 
*END

*D_NET *188 0.00177183
*CONN
*I *4337:A1 I *D sky130_fd_sc_hd__a21oi_2
*I *4338:B I *D sky130_fd_sc_hd__nand2_2
*I *3971:B I *D sky130_fd_sc_hd__or2_2
*I *3970:X O *D sky130_fd_sc_hd__or4_2
*CAP
1 *4337:A1 0.000149859
2 *4338:B 0.000274876
3 *3971:B 0
4 *3970:X 0
5 *188:10 0.000423957
6 *188:4 0.00029894
7 *4337:A1 *946:10 7.53384e-06
8 *4338:B *3971:A 0
9 *4338:B *484:36 3.70094e-05
10 *188:10 *484:36 0.000166522
11 *3970:A *4337:A1 3.45967e-05
12 *3970:A *188:10 1.32314e-05
13 *183:10 *4338:B 0.000185104
14 *183:10 *188:10 0.000168754
15 *183:12 *188:10 1.14452e-05
*RES
1 *3970:X *188:4 23 
2 *188:4 *188:10 18.3557 
3 *188:10 *3971:B 38 
4 *188:10 *4338:B 43.6136 
5 *188:4 *4337:A1 26.2521 
*END

*D_NET *189 0.00886138
*CONN
*I *4346:A3 I *D sky130_fd_sc_hd__o31a_2
*I *3973:D I *D sky130_fd_sc_hd__or4_2
*I *3972:B I *D sky130_fd_sc_hd__nor2_2
*I *4340:B I *D sky130_fd_sc_hd__xor2_2
*I *4342:A2 I *D sky130_fd_sc_hd__o21a_2
*I *4339:A1 I *D sky130_fd_sc_hd__a21oi_2
*I *3971:X O *D sky130_fd_sc_hd__or2_2
*CAP
1 *4346:A3 0.000269482
2 *3973:D 0
3 *3972:B 2.14194e-05
4 *4340:B 0.000424782
5 *4342:A2 0
6 *4339:A1 0.000193588
7 *3971:X 0.000333769
8 *189:77 0.000485312
9 *189:54 0.000611373
10 *189:38 0.000827357
11 *189:16 0.000288989
12 *189:12 0.000513299
13 *189:10 0.000773942
14 *189:8 0.000718263
15 *4339:A1 *4342:A1 5.56539e-06
16 *4339:A1 *423:8 8.31367e-05
17 *4346:A3 *649:58 1.32314e-05
18 *4346:A3 *649:70 6.17437e-06
19 *4346:A3 *974:16 2.07484e-05
20 *189:8 *3969:A 5.50049e-05
21 *189:8 *3969:B 0.000484545
22 *189:8 *3971:A 0.00010018
23 *189:8 *484:6 3.28964e-05
24 *189:10 *3969:B 3.47781e-05
25 *189:10 *4591:RESET_B 0
26 *189:10 *421:10 0
27 *189:10 *424:10 2.08324e-05
28 *189:10 *485:51 0
29 *189:10 *649:70 0.000408138
30 *189:10 *706:59 0.000107548
31 *189:12 *421:10 0
32 *189:12 *424:10 4.35963e-05
33 *189:12 *649:58 7.46212e-05
34 *189:16 *423:8 7.24365e-05
35 *189:38 *3955:A 0
36 *189:38 *190:8 0.000130424
37 *189:38 *190:18 0.0003055
38 *189:38 *424:10 8.04953e-05
39 *189:38 *629:10 0.000170889
40 *189:38 *947:10 0
41 *189:77 *632:8 0.000188934
42 *189:77 *952:10 0.000185502
43 *3973:C *189:77 0.000191255
44 *173:8 *3972:B 5.90675e-06
45 *173:8 *4340:B 5.47808e-05
46 *173:8 *189:54 2.63049e-05
47 *173:8 *189:77 4.9486e-05
48 *173:19 *189:77 0.000390187
49 *187:10 *189:8 5.67058e-05
*RES
1 *3971:X *189:8 46.2443 
2 *189:8 *189:10 8.94857 
3 *189:10 *189:12 2.25786 
4 *189:12 *189:16 17.0507 
5 *189:16 *4339:A1 26.8943 
6 *189:16 *4342:A2 23 
7 *189:12 *189:38 23.2443 
8 *189:38 *4340:B 5.97607 
9 *189:38 *189:54 1.595 
10 *189:54 *3972:B 23.4971 
11 *189:54 *189:77 41.7864 
12 *189:77 *3973:D 23 
13 *189:10 *4346:A3 42.5779 
*END

*D_NET *190 0.00320376
*CONN
*I *4344:B I *D sky130_fd_sc_hd__xnor2_2
*I *4343:A1 I *D sky130_fd_sc_hd__o21a_2
*I *3972:Y O *D sky130_fd_sc_hd__nor2_2
*CAP
1 *4344:B 0.000212439
2 *4343:A1 0
3 *3972:Y 0.000102489
4 *190:18 0.000690572
5 *190:8 0.0010055
6 *4344:B *424:10 0.000187976
7 *4344:B *629:10 1.21972e-05
8 *190:8 *3955:A 0
9 *190:18 *4342:A1 0
10 *190:18 *4831:A 1.5769e-05
11 *190:18 *424:10 0.000277705
12 *190:18 *705:52 0.000137788
13 *190:18 *947:10 0
14 *190:18 *970:6 0.000125404
15 *189:38 *190:8 0.000130424
16 *189:38 *190:18 0.0003055
*RES
1 *3972:Y *190:8 40.2579 
2 *190:8 *190:18 42.7393 
3 *190:18 *4343:A1 38 
4 *190:8 *4344:B 42.4329 
*END

*D_NET *191 0.00444458
*CONN
*I *4347:S I *D sky130_fd_sc_hd__mux2_1
*I *4348:B I *D sky130_fd_sc_hd__and2_2
*I *3974:B I *D sky130_fd_sc_hd__nor2_2
*I *3973:X O *D sky130_fd_sc_hd__or4_2
*CAP
1 *4347:S 0.000221941
2 *4348:B 0.000182006
3 *3974:B 0.000332055
4 *3973:X 5.43738e-05
5 *191:10 0.00063385
6 *191:8 0.000396105
7 *3974:B *3974:A 0.000275932
8 *3974:B *4595:RESET_B 0.00014065
9 *3974:B *4596:RESET_B 0.000141888
10 *3974:B *192:10 0.000191255
11 *3974:B *425:14 0.000218962
12 *3974:B *974:16 2.05858e-05
13 *4347:S *4347:A0 0.000348004
14 *4347:S *425:14 0.000206587
15 *4348:B *4348:A 0.000355822
16 *4348:B *939:40 2.18506e-05
17 *191:8 *4826:A 2.64616e-05
18 *191:10 *4347:A0 7.48331e-05
19 *191:10 *4348:A 0.00024897
20 *191:10 *4595:RESET_B 1.22906e-05
21 *191:10 *425:14 0.000340153
*RES
1 *3973:X *191:8 38.6214 
2 *191:8 *191:10 4.72286 
3 *191:10 *3974:B 47.8807 
4 *191:10 *4348:B 42.4329 
5 *191:8 *4347:S 44.0693 
*END

*D_NET *192 0.00277227
*CONN
*I *4671:A I *D sky130_fd_sc_hd__clkdlybuf4s25_1
*I *3974:Y O *D sky130_fd_sc_hd__nor2_2
*CAP
1 *4671:A 0.000581311
2 *3974:Y 0.000417385
3 *192:10 0.000998695
4 *4671:A *4595:CLK 2.07484e-05
5 *192:10 *4594:RESET_B 0.000111665
6 *192:10 *4596:RESET_B 3.11916e-05
7 *192:10 *974:16 0.000420022
8 *3974:B *192:10 0.000191255
*RES
1 *3974:Y *192:10 46.8864 
2 *192:10 *4671:A 45.1879 
*END

*D_NET *193 0.00486669
*CONN
*I *4267:B I *D sky130_fd_sc_hd__nand2_2
*I *3977:B I *D sky130_fd_sc_hd__or2_2
*I *4266:A1 I *D sky130_fd_sc_hd__a21oi_2
*I *3976:X O *D sky130_fd_sc_hd__or2_2
*CAP
1 *4267:B 0.000167134
2 *3977:B 0
3 *4266:A1 0.00085097
4 *3976:X 9.75624e-05
5 *193:27 0.000495845
6 *193:10 0.00127724
7 *4266:A1 *4488:CLK 4.65192e-05
8 *4266:A1 *4488:D 0.000229797
9 *4266:A1 *4488:RESET_B 4.83893e-05
10 *4266:A1 *928:10 4.5849e-05
11 *4267:B *3977:A 5.56279e-05
12 *4267:B *194:8 1.82703e-05
13 *193:10 *4488:RESET_B 0.000180224
14 *193:10 *194:10 5.94125e-05
15 *193:10 *387:14 1.77552e-05
16 *193:10 *917:42 9.5877e-05
17 *193:10 *928:10 2.79543e-05
18 *193:27 *3977:A 0.000122397
19 *193:27 *194:8 1.94693e-05
20 *193:27 *194:10 0.000719585
21 *193:27 *195:23 4.07715e-05
22 *193:27 *387:14 3.66306e-05
23 *193:27 *931:17 0.00021341
*RES
1 *3976:X *193:10 40.9 
2 *193:10 *4266:A1 49.4757 
3 *193:10 *193:27 26.3307 
4 *193:27 *3977:B 23 
5 *193:27 *4267:B 26.5214 
*END

*D_NET *194 0.00424955
*CONN
*I *4268:A1 I *D sky130_fd_sc_hd__a21oi_2
*I *4269:B I *D sky130_fd_sc_hd__nand2_2
*I *3977:X O *D sky130_fd_sc_hd__or2_2
*CAP
1 *4268:A1 0
2 *4269:B 4.26063e-05
3 *3977:X 0.000201482
4 *194:31 0.000264394
5 *194:10 0.000717773
6 *194:8 0.000612255
7 *4269:B *917:42 6.16439e-05
8 *194:8 *3977:A 1.83327e-05
9 *194:10 *195:10 0.000410369
10 *194:10 *195:23 0.000129504
11 *194:10 *613:10 7.20415e-05
12 *194:10 *675:48 0
13 *194:10 *917:42 0.000163352
14 *194:31 *386:16 5.59326e-05
15 *194:31 *387:8 0.000186051
16 *194:31 *466:6 0.000497081
17 *4267:B *194:8 1.82703e-05
18 *193:10 *194:10 5.94125e-05
19 *193:27 *194:8 1.94693e-05
20 *193:27 *194:10 0.000719585
*RES
1 *3977:X *194:8 40.5271 
2 *194:8 *194:10 12.8221 
3 *194:10 *4269:B 38.8493 
4 *194:10 *194:31 37.0014 
5 *194:31 *4268:A1 38 
*END

*D_NET *195 0.00738462
*CONN
*I *4271:B I *D sky130_fd_sc_hd__nand2_2
*I *3983:C I *D sky130_fd_sc_hd__or4_2
*I *4273:A2 I *D sky130_fd_sc_hd__o21ai_2
*I *3979:B I *D sky130_fd_sc_hd__or2_2
*I *4270:A1 I *D sky130_fd_sc_hd__a21oi_2
*I *3978:X O *D sky130_fd_sc_hd__or4_2
*CAP
1 *4271:B 0.000429616
2 *3983:C 0
3 *4273:A2 1.76212e-05
4 *3979:B 0.000193248
5 *4270:A1 0.000370587
6 *3978:X 0.000477759
7 *195:47 0.000731208
8 *195:25 0.000210869
9 *195:23 0.000531259
10 *195:10 0.00107801
11 *3979:B *3979:A 0.000154998
12 *3979:B *3980:A 0.000140259
13 *3979:B *3980:B 0.000102389
14 *3979:B *197:12 3.59538e-05
15 *3979:B *199:8 5.50049e-05
16 *3979:B *389:10 4.5051e-05
17 *4270:A1 *4270:B1 1.24376e-05
18 *4270:A1 *387:14 0.000277792
19 *4271:B *3983:D 5.33597e-05
20 *4271:B *4271:A 0.000277792
21 *4271:B *4494:CLK 0.000101554
22 *4271:B *200:8 0
23 *4271:B *488:10 6.07611e-06
24 *4273:A2 *197:12 3.56477e-05
25 *4273:A2 *199:8 2.32101e-05
26 *195:10 *3978:C 0.000139357
27 *195:10 *3978:D 0.000119313
28 *195:10 *675:46 6.11286e-05
29 *195:10 *675:48 7.06124e-05
30 *195:23 *675:46 0.00013172
31 *195:23 *933:29 6.16531e-05
32 *195:47 *3980:A 1.89075e-05
33 *195:47 *3983:D 0.000579668
34 *195:47 *4491:RESET_B 4.99753e-06
35 *195:47 *488:10 0.000184634
36 *195:47 *675:46 7.02777e-05
37 *193:27 *195:23 4.07715e-05
38 *194:10 *195:10 0.000410369
39 *194:10 *195:23 0.000129504
*RES
1 *3978:X *195:10 49.2893 
2 *195:10 *4270:A1 44.8357 
3 *195:10 *195:23 5.42714 
4 *195:23 *195:25 15 
5 *195:25 *3979:B 28.9243 
6 *195:25 *4273:A2 23.6214 
7 *195:23 *195:47 8.59643 
8 *195:47 *3983:C 38 
9 *195:47 *4271:B 46.3479 
*END

*D_NET *196 0.00203004
*CONN
*I *4272:A1 I *D sky130_fd_sc_hd__a21oi_2
*I *3980:B I *D sky130_fd_sc_hd__or2_2
*I *3979:X O *D sky130_fd_sc_hd__or2_2
*CAP
1 *4272:A1 0
2 *3980:B 0.000124653
3 *3979:X 0.00063745
4 *196:22 0.000512797
5 *3980:B *3979:A 4.72245e-05
6 *196:22 *388:10 5.58975e-06
7 *196:22 *488:40 0
8 *196:22 *619:44 8.63961e-05
9 *196:22 *911:10 0.000164851
10 *196:22 *912:10 0.000348686
11 *3979:B *3980:B 0.000102389
*RES
1 *3979:X *3980:B 49.0036 
2 *3979:X *196:22 47.4664 
3 *196:22 *4272:A1 38 
*END

*D_NET *197 0.00477851
*CONN
*I *3981:B I *D sky130_fd_sc_hd__or2_2
*I *4274:A1 I *D sky130_fd_sc_hd__a21oi_2
*I *4275:B I *D sky130_fd_sc_hd__nand2_2
*I *3980:X O *D sky130_fd_sc_hd__or2_2
*CAP
1 *3981:B 0.000537545
2 *4274:A1 0
3 *4275:B 8.63649e-05
4 *3980:X 0.00025809
5 *197:33 0.000588941
6 *197:25 0.00135287
7 *197:12 0.000570838
8 *3981:B *3981:A 8.43466e-05
9 *3981:B *198:8 8.08108e-05
10 *3981:B *913:10 4.06849e-05
11 *3981:B *935:25 9.5877e-05
12 *4275:B *390:10 0
13 *4275:B *675:46 7.03663e-05
14 *197:12 *3980:A 5.67058e-05
15 *197:12 *4273:B1 6.17437e-06
16 *197:12 *199:8 4.20975e-05
17 *197:12 *933:29 9.84794e-05
18 *197:25 *4491:RESET_B 7.91596e-05
19 *197:25 *390:10 0
20 *197:25 *631:8 0.000123998
21 *197:25 *675:36 0
22 *197:25 *675:46 0.000144802
23 *197:33 *4271:A 2.45027e-05
24 *197:33 *4491:RESET_B 0.000177145
25 *197:33 *4825:A 0.000136743
26 *197:33 *933:12 3.13396e-05
27 *197:33 *933:36 1.90253e-05
28 *3979:B *197:12 3.59538e-05
29 *4273:A2 *197:12 3.56477e-05
*RES
1 *3980:X *197:12 42.5986 
2 *197:12 *4275:B 39.9057 
3 *197:12 *197:25 21.1314 
4 *197:25 *197:33 40.005 
5 *197:33 *4274:A1 23 
6 *197:25 *3981:B 32.1971 
*END

*D_NET *198 0.00268211
*CONN
*I *4277:B I *D sky130_fd_sc_hd__nand2_2
*I *4276:A1 I *D sky130_fd_sc_hd__a21oi_2
*I *3981:X O *D sky130_fd_sc_hd__or2_2
*CAP
1 *4277:B 0.000429334
2 *4276:A1 3.70152e-05
3 *3981:X 0.000492486
4 *198:8 0.000958835
5 *4276:A1 *390:10 6.07611e-06
6 *4276:A1 *675:36 5.03449e-05
7 *4276:A1 *677:14 0
8 *4277:B *4276:B1 0
9 *4277:B *4493:RESET_B 4.59027e-05
10 *4277:B *391:8 1.80023e-05
11 *4277:B *610:10 0.000141879
12 *4277:B *619:10 0
13 *4277:B *642:57 0
14 *4277:B *675:10 8.05868e-05
15 *4277:B *675:36 9.3813e-05
16 *4277:B *677:14 0
17 *4277:B *714:16 9.88575e-05
18 *4277:B *914:10 0
19 *198:8 *3981:A 1.57571e-05
20 *198:8 *457:25 0.000100733
21 *198:8 *935:25 3.16784e-05
22 *3981:B *198:8 8.08108e-05
*RES
1 *3981:X *198:8 44.815 
2 *198:8 *4276:A1 39.2014 
3 *198:8 *4277:B 48.3571 
*END

*D_NET *199 0.00278037
*CONN
*I *3983:D I *D sky130_fd_sc_hd__or4_2
*I *3982:X O *D sky130_fd_sc_hd__or2_2
*CAP
1 *3983:D 0.000289948
2 *3982:X 0.000206802
3 *199:8 0.00049675
4 *3983:D *3980:A 0.000110913
5 *3983:D *3983:A 0.000244517
6 *3983:D *200:8 1.02387e-05
7 *3983:D *619:25 9.5877e-05
8 *3983:D *934:21 0.000272312
9 *199:8 *4273:B1 7.59794e-05
10 *199:8 *389:10 0.000223698
11 *3979:B *199:8 5.50049e-05
12 *4271:B *3983:D 5.33597e-05
13 *4273:A2 *199:8 2.32101e-05
14 *195:47 *3983:D 0.000579668
15 *197:12 *199:8 4.20975e-05
*RES
1 *3982:X *199:8 42.9093 
2 *199:8 *3983:D 47.6943 
*END

*D_NET *200 0.00463697
*CONN
*I *4278:A1 I *D sky130_fd_sc_hd__a21oi_2
*I *3988:C I *D sky130_fd_sc_hd__or4_2
*I *3986:A I *D sky130_fd_sc_hd__or2_2
*I *3984:B I *D sky130_fd_sc_hd__or2_2
*I *4279:B I *D sky130_fd_sc_hd__nand2_2
*I *3983:X O *D sky130_fd_sc_hd__or4_2
*CAP
1 *4278:A1 8.54011e-05
2 *3988:C 0.000188411
3 *3986:A 7.30444e-05
4 *3984:B 0
5 *4279:B 0
6 *3983:X 0.000309972
7 *200:23 7.30444e-05
8 *200:21 0.000595255
9 *200:17 0.000610955
10 *200:10 0.00011871
11 *200:8 0.000309972
12 *3986:A *202:18 5.3304e-05
13 *3986:A *203:10 0.000136743
14 *3988:C *3988:A 0.000270392
15 *3988:C *202:8 3.47781e-05
16 *3988:C *202:18 0
17 *3988:C *205:8 0.000123893
18 *3988:C *205:10 6.25829e-05
19 *3988:C *683:72 7.80354e-05
20 *200:8 *3983:A 1.37349e-05
21 *200:8 *4271:A 0.000267289
22 *200:8 *389:10 3.70094e-05
23 *200:8 *914:10 0
24 *200:17 *4279:A 0.000183733
25 *200:21 *4280:A1 0
26 *200:21 *4820:A 0.000276784
27 *200:21 *201:8 0
28 *200:21 *202:8 0.000166513
29 *200:21 *625:8 0.000141888
30 *200:21 *642:57 0
31 *200:21 *683:72 3.71714e-05
32 *200:21 *937:25 0.000130433
33 *200:21 *937:35 0.000247678
34 *3983:D *200:8 1.02387e-05
35 *4271:B *200:8 0
*RES
1 *3983:X *200:8 44.4836 
2 *200:8 *200:10 15 
3 *200:10 *4279:B 23 
4 *200:10 *200:17 2.52714 
5 *200:17 *200:21 26.4136 
6 *200:21 *200:23 15 
7 *200:23 *3984:B 23 
8 *200:23 *3986:A 24.5743 
9 *200:21 *3988:C 43.6136 
10 *200:17 *4278:A1 24.5743 
*END

*D_NET *201 0.00258076
*CONN
*I *4280:A1 I *D sky130_fd_sc_hd__a21oi_2
*I *4281:B I *D sky130_fd_sc_hd__nand2_2
*I *3984:X O *D sky130_fd_sc_hd__or2_2
*CAP
1 *4280:A1 0.00021772
2 *4281:B 0.000609121
3 *3984:X 0.000261892
4 *201:8 0.00108873
5 *4280:A1 *642:57 0.000199203
6 *4281:B *4281:A 4.344e-05
7 *201:8 *4496:RESET_B 6.47558e-05
8 *201:8 *937:35 6.53445e-05
9 *201:8 *938:22 3.0556e-05
10 *200:21 *4280:A1 0
11 *200:21 *201:8 0
*RES
1 *3984:X *201:8 44.3075 
2 *201:8 *4281:B 46.7725 
3 *201:8 *4280:A1 42.2775 
*END

*D_NET *202 0.0012317
*CONN
*I *3986:B I *D sky130_fd_sc_hd__or2_2
*I *3988:D I *D sky130_fd_sc_hd__or4_2
*I *3985:X O *D sky130_fd_sc_hd__or2_2
*CAP
1 *3986:B 0
2 *3988:D 0
3 *3985:X 7.62027e-05
4 *202:18 0.000251474
5 *202:10 0.000251474
6 *202:8 7.62027e-05
7 *202:8 *683:72 0.000191148
8 *202:18 *203:10 6.36209e-05
9 *202:18 *205:10 1.19796e-05
10 *202:18 *937:35 5.50049e-05
11 *3986:A *202:18 5.3304e-05
12 *3988:C *202:8 3.47781e-05
13 *3988:C *202:18 0
14 *200:21 *202:8 0.000166513
*RES
1 *3985:X *202:8 40.61 
2 *202:8 *202:10 15 
3 *202:10 *202:18 34.4329 
4 *202:18 *3988:D 23 
5 *202:10 *3986:B 23 
*END

*D_NET *203 0.00326878
*CONN
*I *4283:B I *D sky130_fd_sc_hd__nand2_2
*I *3987:B I *D sky130_fd_sc_hd__or2_2
*I *4282:A1 I *D sky130_fd_sc_hd__a21oi_2
*I *3986:X O *D sky130_fd_sc_hd__or2_2
*CAP
1 *4283:B 0
2 *3987:B 0
3 *4282:A1 0.000107612
4 *3986:X 0.000544971
5 *203:38 0.000395699
6 *203:21 0.00048794
7 *203:10 0.000744825
8 *4282:A1 *611:10 2.81066e-05
9 *203:10 *611:10 2.68258e-05
10 *203:10 *937:35 5.50049e-05
11 *203:21 *496:24 0.000167123
12 *203:38 *4498:D 3.7122e-06
13 *203:38 *394:10 2.72789e-05
14 *203:38 *496:22 3.43144e-05
15 *203:38 *496:24 0.000292875
16 *203:38 *496:46 9.64943e-05
17 *203:38 *496:54 5.56356e-05
18 *3986:A *203:10 0.000136743
19 *202:18 *203:10 6.36209e-05
*RES
1 *3986:X *203:10 33.3157 
2 *203:10 *4282:A1 24.5743 
3 *203:10 *203:21 17.2579 
4 *203:21 *3987:B 38 
5 *203:21 *203:38 37.2707 
6 *203:38 *4283:B 38 
*END

*D_NET *204 0.00291958
*CONN
*I *4285:B I *D sky130_fd_sc_hd__nand2_2
*I *4284:A1 I *D sky130_fd_sc_hd__a21oi_2
*I *3987:X O *D sky130_fd_sc_hd__or2_2
*CAP
1 *4285:B 0
2 *4284:A1 8.8493e-05
3 *3987:X 0.000126442
4 *204:16 0.000448698
5 *204:8 0.000486647
6 *4284:A1 *4284:A2 0.000102389
7 *4284:A1 *496:22 2.19764e-05
8 *4284:A1 *683:36 2.64616e-05
9 *204:8 *3987:A 0.000279493
10 *204:8 *3988:A 0.000232185
11 *204:8 *205:8 1.96141e-05
12 *204:16 *4498:RESET_B 7.03766e-05
13 *204:16 *205:10 0.000593233
14 *204:16 *496:8 9.41704e-05
15 *204:16 *496:22 9.41704e-05
16 *204:16 *615:10 0.000136486
17 *204:16 *683:36 3.65917e-05
18 *204:16 *918:8 6.21538e-05
*RES
1 *3987:X *204:8 42.4329 
2 *204:8 *204:16 25.44 
3 *204:16 *4284:A1 25.0507 
4 *204:16 *4285:B 23 
*END

*D_NET *205 0.00816131
*CONN
*I *3991:D I *D sky130_fd_sc_hd__or4_2
*I *4289:A2 I *D sky130_fd_sc_hd__o21ai_2
*I *3989:B I *D sky130_fd_sc_hd__or2_2
*I *4287:B I *D sky130_fd_sc_hd__nand2_2
*I *4286:A1 I *D sky130_fd_sc_hd__a21oi_2
*I *3988:X O *D sky130_fd_sc_hd__or4_2
*CAP
1 *3991:D 0
2 *4289:A2 0.000132861
3 *3989:B 2.68471e-05
4 *4287:B 8.29942e-05
5 *4286:A1 0.00025195
6 *3988:X 0.00026766
7 *205:64 0.000184386
8 *205:49 0.000928021
9 *205:34 0.00072084
10 *205:23 0.000314028
11 *205:10 0.000835016
12 *205:8 0.00070291
13 *3989:B *3989:A 5.5792e-05
14 *4286:A1 *4286:A2 0.000144494
15 *4286:A1 *897:14 0.000187323
16 *4287:B *4288:A1 0.000138859
17 *4289:A2 *4289:A1 0.000233359
18 *4289:A2 *397:10 5.56356e-05
19 *4289:A2 *604:10 6.50258e-05
20 *4289:A2 *628:6 0.000228558
21 *205:8 *3988:A 1.57104e-05
22 *205:10 *3988:A 0.000140671
23 *205:10 *4811:A 6.67764e-05
24 *205:10 *496:72 1.26815e-05
25 *205:10 *615:10 1.31888e-05
26 *205:10 *683:36 5.0518e-05
27 *205:10 *683:72 3.95159e-06
28 *205:23 *4288:A1 1.51481e-05
29 *205:23 *683:36 0.00012667
30 *205:34 *4288:A1 7.52305e-05
31 *205:34 *683:36 7.30768e-05
32 *205:49 *3990:B 5.68297e-05
33 *205:49 *4288:A1 5.93605e-05
34 *205:49 *628:6 0.000177731
35 *205:49 *683:10 9.98635e-05
36 *205:49 *683:36 3.08441e-05
37 *205:49 *921:24 0.000277792
38 *205:64 *3991:C 0.000100061
39 *205:64 *467:16 7.43114e-05
40 *205:64 *630:50 0.000237921
41 *205:64 *921:24 2.02872e-05
42 *205:64 *922:10 6.48263e-05
43 *3988:C *205:8 0.000123893
44 *3988:C *205:10 6.25829e-05
45 *202:18 *205:10 1.19796e-05
46 *204:8 *205:8 1.96141e-05
47 *204:16 *205:10 0.000593233
*RES
1 *3988:X *205:8 41.9564 
2 *205:8 *205:10 11.7657 
3 *205:10 *4286:A1 42.93 
4 *205:10 *205:23 3.66643 
5 *205:23 *4287:B 39.5743 
6 *205:23 *205:34 2.25786 
7 *205:34 *3989:B 38.6214 
8 *205:34 *205:49 27.9464 
9 *205:49 *4289:A2 27.4329 
10 *205:49 *205:64 34.8886 
11 *205:64 *3991:D 23 
*END

*D_NET *206 0.00211991
*CONN
*I *3990:B I *D sky130_fd_sc_hd__or2_2
*I *4288:A1 I *D sky130_fd_sc_hd__a21oi_2
*I *3989:X O *D sky130_fd_sc_hd__or2_2
*CAP
1 *3990:B 0.000173151
2 *4288:A1 0.000473482
3 *3989:X 0
4 *206:6 0.000646633
5 *3990:B *3990:A 5.00237e-05
6 *3990:B *207:12 0.0001296
7 *3990:B *921:12 8.26478e-05
8 *4288:A1 *4288:A2 5.79559e-05
9 *4288:A1 *898:10 0.000117343
10 *4288:A1 *920:44 4.36497e-05
11 *4287:B *4288:A1 0.000138859
12 *205:23 *4288:A1 1.51481e-05
13 *205:34 *4288:A1 7.52305e-05
14 *205:49 *3990:B 5.68297e-05
15 *205:49 *4288:A1 5.93605e-05
*RES
1 *3989:X *206:6 38 
2 *206:6 *4288:A1 48.5229 
3 *206:6 *3990:B 42.93 
*END

*D_NET *207 0.00257662
*CONN
*I *4290:A1 I *D sky130_fd_sc_hd__a21oi_2
*I *4291:B I *D sky130_fd_sc_hd__nand2_2
*I *3990:X O *D sky130_fd_sc_hd__or2_2
*CAP
1 *4290:A1 1.39525e-05
2 *4291:B 7.35254e-05
3 *3990:X 0.00103799
4 *207:12 0.00112547
5 *4291:B *4500:CLK 8.15864e-05
6 *207:12 *3990:A 2.19667e-05
7 *207:12 *4500:CLK 4.62424e-05
8 *207:12 *4500:D 1.17505e-05
9 *207:12 *921:12 3.45411e-05
10 *3990:B *207:12 0.0001296
*RES
1 *3990:X *207:12 38.9293 
2 *207:12 *4291:B 25.0714 
3 *207:12 *4290:A1 23.4971 
*END

*D_NET *208 0.00845894
*CONN
*I *4292:A1 I *D sky130_fd_sc_hd__a21oi_2
*I *3992:B I *D sky130_fd_sc_hd__or2_2
*I *4293:B I *D sky130_fd_sc_hd__nand2_2
*I *3994:D I *D sky130_fd_sc_hd__or4_2
*I *3991:X O *D sky130_fd_sc_hd__or4_2
*CAP
1 *4292:A1 0
2 *3992:B 0.000115934
3 *4293:B 0
4 *3994:D 0
5 *3991:X 0.000401982
6 *208:38 0.000634781
7 *208:30 0.00082841
8 *208:24 0.0012607
9 *208:14 0.00111415
10 *208:10 0.000564991
11 *3992:B *3992:A 0.000119565
12 *3992:B *4298:A1 0.000100061
13 *3992:B *4298:A2 5.79559e-05
14 *3992:B *4298:B1 0.00016167
15 *3992:B *685:21 2.50756e-05
16 *208:10 *398:8 0.000469121
17 *208:10 *467:16 2.31641e-05
18 *208:10 *717:10 1.22803e-05
19 *208:14 *4292:A2 9.41704e-05
20 *208:24 *4456:CLK 6.09194e-05
21 *208:24 *4456:RESET_B 2.33053e-05
22 *208:24 *530:18 0
23 *208:24 *685:21 7.28116e-05
24 *208:24 *740:10 0.00027592
25 *208:24 *900:8 3.2527e-05
26 *208:30 *4298:A1 1.85531e-05
27 *208:30 *4298:B1 8.59439e-05
28 *208:30 *903:10 5.14746e-06
29 *208:38 *3994:A 0.000103212
30 *208:38 *3994:C 3.22051e-05
31 *208:38 *4298:A1 0.000192087
32 *208:38 *211:10 0.000899755
33 *208:38 *399:8 0.000672538
*RES
1 *3991:X *208:10 47.0107 
2 *208:10 *208:14 17.5271 
3 *208:14 *208:24 30.37 
4 *208:24 *208:30 18.2521 
5 *208:30 *208:38 47.4829 
6 *208:38 *3994:D 23 
7 *208:30 *4293:B 23 
8 *208:24 *3992:B 42.0186 
9 *208:14 *4292:A1 23 
*END

*D_NET *209 0.00336968
*CONN
*I *4295:B I *D sky130_fd_sc_hd__nand2_2
*I *3993:B I *D sky130_fd_sc_hd__or2_2
*I *4297:A2 I *D sky130_fd_sc_hd__o21ai_2
*I *4294:A1 I *D sky130_fd_sc_hd__a21oi_2
*I *3992:X O *D sky130_fd_sc_hd__or2_2
*CAP
1 *4295:B 0
2 *3993:B 1.87926e-05
3 *4297:A2 0
4 *4294:A1 0
5 *3992:X 0.000144282
6 *209:32 0.000384419
7 *209:18 0.000116529
8 *209:12 0.000314989
9 *209:8 0.000708367
10 *3993:B *400:12 2.93335e-05
11 *3993:B *924:34 5.56279e-05
12 *209:8 *401:10 8.76248e-05
13 *209:8 *630:34 0.000404337
14 *209:8 *901:10 0.000216567
15 *209:12 *4297:A1 0.000144494
16 *209:12 *925:10 5.3304e-05
17 *209:18 *4503:CLK 5.50587e-05
18 *209:32 *4297:A1 5.17163e-05
19 *209:32 *630:25 0.000191267
20 *209:32 *630:34 0.000192261
21 *209:32 *901:10 0.000154843
22 *209:32 *924:23 4.587e-05
*RES
1 *3992:X *209:8 43.4271 
2 *209:8 *209:12 18.48 
3 *209:12 *209:18 32.61 
4 *209:18 *4294:A1 23 
5 *209:12 *4297:A2 23 
6 *209:8 *209:32 23.2443 
7 *209:32 *3993:B 23.6214 
8 *209:32 *4295:B 23 
*END

*D_NET *210 0.000625765
*CONN
*I *4296:A1 I *D sky130_fd_sc_hd__a21oi_2
*I *3993:X O *D sky130_fd_sc_hd__or2_2
*CAP
1 *4296:A1 0
2 *3993:X 0.000183232
3 *210:10 0.000183232
4 *210:10 *400:12 0.000259301
*RES
1 *3993:X *210:10 42.3086 
2 *210:10 *4296:A1 38 
*END

*D_NET *211 0.00864034
*CONN
*I *3995:C I *D sky130_fd_sc_hd__or3_2
*I *4299:B I *D sky130_fd_sc_hd__or2_2
*I *3996:D I *D sky130_fd_sc_hd__or4_2
*I *4300:B I *D sky130_fd_sc_hd__nand2_2
*I *4298:A1 I *D sky130_fd_sc_hd__a21oi_2
*I *3994:X O *D sky130_fd_sc_hd__or4_2
*CAP
1 *3995:C 0
2 *4299:B 0.000147028
3 *3996:D 0
4 *4300:B 0
5 *4298:A1 0.000139333
6 *3994:X 0.000331405
7 *211:54 0.000468089
8 *211:44 0.000615117
9 *211:42 0.000468217
10 *211:25 0.0008505
11 *211:10 0.00085302
12 *4298:A1 *3992:A 0.000146195
13 *4298:A1 *4298:B1 6.1353e-05
14 *4298:A1 *685:21 0.000164291
15 *4298:A1 *685:31 3.70187e-05
16 *4298:A1 *903:10 4.21281e-05
17 *4299:B *4299:A 0.000142562
18 *4299:B *402:10 0.000128583
19 *211:10 *3994:A 6.07826e-05
20 *211:10 *4503:RESET_B 0.000381653
21 *211:10 *685:31 0.000293134
22 *211:25 *4829:A 5.3304e-05
23 *211:42 *4300:A 2.16583e-05
24 *211:42 *4303:A1 2.93747e-05
25 *211:42 *4667:A 0
26 *211:42 *212:8 0.000114092
27 *211:42 *212:26 7.15126e-05
28 *211:42 *402:10 9.39262e-05
29 *211:42 *403:10 0.00018282
30 *211:42 *468:54 4.5051e-05
31 *211:42 *468:69 3.3123e-05
32 *211:42 *905:6 2.44913e-05
33 *211:42 *927:16 5.3304e-05
34 *211:54 *4299:A 6.7177e-06
35 *211:54 *4302:B 0.000122386
36 *211:54 *260:41 4.9662e-05
37 *211:54 *402:10 0.000352375
38 *211:54 *468:50 2.70469e-05
39 *211:54 *642:18 0.000166568
40 *211:54 *642:26 0.000408138
41 *211:54 *685:73 9.41704e-05
42 *211:54 *714:10 0
43 *211:54 *926:34 1.42006e-05
44 *211:54 *927:16 0.000135547
45 *3992:B *4298:A1 0.000100061
46 *208:30 *4298:A1 1.85531e-05
47 *208:38 *4298:A1 0.000192087
48 *208:38 *211:10 0.000899755
*RES
1 *3994:X *211:10 49.8071 
2 *211:10 *4298:A1 43.1371 
3 *211:10 *211:25 21.3386 
4 *211:25 *4300:B 23 
5 *211:25 *211:42 40.4193 
6 *211:42 *211:44 15 
7 *211:44 *211:54 28.2779 
8 *211:54 *3996:D 23 
9 *211:44 *4299:B 41.5007 
10 *211:42 *3995:C 23 
*END

*D_NET *212 0.00455586
*CONN
*I *4304:B I *D sky130_fd_sc_hd__and2_2
*I *4303:A1 I *D sky130_fd_sc_hd__a21oi_2
*I *3995:X O *D sky130_fd_sc_hd__or3_2
*CAP
1 *4304:B 0
2 *4303:A1 1.39194e-05
3 *3995:X 0.00103766
4 *212:32 0.000474418
5 *212:26 0.00143301
6 *212:8 9.29789e-05
7 *4303:A1 *905:6 5.67058e-05
8 *212:8 *4667:A 3.96156e-05
9 *212:8 *402:10 1.42006e-05
10 *212:8 *403:10 1.83564e-05
11 *212:8 *404:10 1.01436e-05
12 *212:26 *3995:B 2.92911e-06
13 *212:26 *468:54 1.95443e-05
14 *212:26 *927:16 1.21972e-05
15 *212:32 *3996:C 3.22879e-05
16 *212:32 *214:10 0.000302339
17 *212:32 *692:18 0
18 *212:32 *929:10 0.000780577
19 *211:42 *4303:A1 2.93747e-05
20 *211:42 *212:8 0.000114092
21 *211:42 *212:26 7.15126e-05
*RES
1 *3995:X *212:8 40.2579 
2 *212:8 *4303:A1 38.6214 
3 *3995:X *212:26 49.5793 
4 *212:26 *212:32 27.7393 
5 *212:32 *4304:B 23 
*END

*D_NET *213 0.00383835
*CONN
*I *3997:B I *D sky130_fd_sc_hd__nor2_2
*I *4305:S I *D sky130_fd_sc_hd__mux2_1
*I *4306:B I *D sky130_fd_sc_hd__and2_2
*I *3996:X O *D sky130_fd_sc_hd__or4_2
*CAP
1 *3997:B 0.000187925
2 *4305:S 0
3 *4306:B 0
4 *3996:X 4.66306e-05
5 *213:20 0.000259581
6 *213:12 0.000908184
7 *213:8 0.000507308
8 *213:8 *3996:C 5.3304e-05
9 *213:12 *4299:A 0
10 *213:12 *4508:RESET_B 0.000194309
11 *213:12 *4703:A 0
12 *213:12 *260:41 4.6318e-06
13 *213:12 *405:20 0.000987146
14 *213:12 *579:12 1.83564e-05
15 *213:12 *640:8 0.000192087
16 *213:12 *692:18 0.000375277
17 *213:20 *4508:RESET_B 0
18 *213:20 *468:69 0
19 *213:20 *579:12 9.98995e-05
20 *213:20 *907:10 3.7122e-06
*RES
1 *3996:X *213:8 38.6214 
2 *213:8 *213:12 30.2871 
3 *213:12 *213:20 35.0129 
4 *213:20 *4306:B 23 
5 *213:12 *4305:S 23 
6 *213:12 *3997:B 26.0243 
*END

*D_NET *214 0.00112588
*CONN
*I *4668:A I *D sky130_fd_sc_hd__clkdlybuf4s25_1
*I *3997:Y O *D sky130_fd_sc_hd__nor2_2
*CAP
1 *4668:A 0
2 *3997:Y 0.000357954
3 *214:10 0.000357954
4 *214:10 *4508:RESET_B 0
5 *214:10 *692:18 0
6 *214:10 *692:54 0.00010763
7 *212:32 *214:10 0.000302339
*RES
1 *3997:Y *214:10 45.1257 
2 *214:10 *4668:A 38 
*END

*D_NET *215 0.00303197
*CONN
*I *4210:A I *D sky130_fd_sc_hd__nor2_2
*I *4212:B I *D sky130_fd_sc_hd__xnor2_2
*I *3999:Y O *D sky130_fd_sc_hd__nor2_2
*CAP
1 *4210:A 0
2 *4212:B 7.60359e-05
3 *3999:Y 0.000295676
4 *215:32 0.000500522
5 *215:26 0.000576558
6 *215:10 0.000295676
7 *215:10 *4000:D 5.3304e-05
8 *215:10 *4214:B1 2.45092e-05
9 *215:10 *597:43 2.33782e-05
10 *215:10 *849:10 1.70326e-05
11 *215:10 *886:10 4.41821e-06
12 *215:10 *887:8 3.673e-05
13 *215:26 *4000:B 2.95423e-05
14 *215:26 *4000:C 0.000137533
15 *215:26 *597:43 0.000141355
16 *215:26 *886:14 8.55549e-05
17 *215:32 *4000:B 0.000214412
18 *215:32 *352:8 0
19 *215:32 *597:33 0.000232328
20 *215:32 *597:43 2.70366e-05
21 *215:32 *597:73 5.85885e-05
22 *215:32 *662:14 0
23 *215:32 *872:24 4.49603e-05
24 *215:32 *883:10 0.00015682
*RES
1 *3999:Y *215:10 42.3293 
2 *215:10 *4212:B 38 
3 *4212:B *215:26 40.5271 
4 *215:26 *215:32 27.3871 
5 *215:32 *4210:A 23 
*END

*D_NET *216 0.00552843
*CONN
*I *4217:B I *D sky130_fd_sc_hd__and2_2
*I *4002:D I *D sky130_fd_sc_hd__or4_2
*I *4001:B I *D sky130_fd_sc_hd__nor2_2
*I *4222:A3 I *D sky130_fd_sc_hd__o31ai_2
*I *4215:A I *D sky130_fd_sc_hd__and2_2
*I *4000:X O *D sky130_fd_sc_hd__or4_2
*CAP
1 *4217:B 0
2 *4002:D 0.000393282
3 *4001:B 0
4 *4222:A3 0.000409483
5 *4215:A 0.000457834
6 *4000:X 7.11356e-05
7 *216:42 0.000624284
8 *216:27 0.000640485
9 *216:25 0.000554318
10 *216:8 0.00108329
11 *4002:D *4519:RESET_B 0
12 *4215:A *4216:A2 8.1796e-05
13 *4215:A *4216:B1 0.000118466
14 *4215:A *4512:CLK 0.000138593
15 *4222:A3 *4222:A1 0.000225911
16 *4222:A3 *4222:A2 5.5792e-05
17 *4222:A3 *356:8 5.27824e-05
18 *216:8 *4512:CLK 3.67392e-05
19 *216:8 *353:12 0.000167522
20 *216:8 *492:18 0.000156141
21 *216:25 *4213:A1 5.07601e-05
22 *216:42 *4222:A1 1.39826e-05
23 *216:42 *888:12 0.000195836
*RES
1 *4000:X *216:8 40.61 
2 *216:8 *4215:A 47.5079 
3 *216:8 *216:25 24.6943 
4 *216:25 *216:27 15 
5 *216:27 *4222:A3 45.6643 
6 *216:27 *216:42 5.77929 
7 *216:42 *4001:B 38 
8 *216:42 *4002:D 44.7943 
9 *216:25 *4217:B 23 
*END

*D_NET *217 0.00322015
*CONN
*I *4220:B I *D sky130_fd_sc_hd__xnor2_2
*I *4218:A I *D sky130_fd_sc_hd__nor2_2
*I *4001:Y O *D sky130_fd_sc_hd__nor2_2
*CAP
1 *4220:B 0
2 *4218:A 0
3 *4001:Y 0.000697641
4 *217:18 0.000592043
5 *217:10 0.00128968
6 *217:10 *4002:C 3.56295e-05
7 *217:10 *4513:RESET_B 9.36858e-05
8 *217:10 *575:24 5.72633e-05
9 *217:10 *674:79 4.70852e-05
10 *217:10 *888:8 3.46216e-05
11 *217:10 *888:46 1.04049e-05
12 *217:18 *4002:C 2.271e-05
13 *217:18 *4218:B 4.37033e-05
14 *217:18 *4221:A1 0.000112322
15 *217:18 *4222:B1 9.44325e-05
16 *217:18 *357:16 7.88926e-05
17 *217:18 *575:24 1.00286e-05
*RES
1 *4001:Y *217:10 47.6736 
2 *217:10 *217:18 27.8014 
3 *217:18 *4218:A 23 
4 *217:10 *4220:B 38 
*END

*D_NET *218 0.00783086
*CONN
*I *4230:A3 I *D sky130_fd_sc_hd__o31ai_2
*I *4004:D I *D sky130_fd_sc_hd__or4_2
*I *4003:B I *D sky130_fd_sc_hd__nor2_2
*I *4225:B I *D sky130_fd_sc_hd__and2_2
*I *4223:A I *D sky130_fd_sc_hd__and2_2
*I *4002:X O *D sky130_fd_sc_hd__or4_2
*CAP
1 *4230:A3 8.19589e-05
2 *4004:D 4.93597e-05
3 *4003:B 0.000172235
4 *4225:B 0.00029145
5 *4223:A 0
6 *4002:X 7.51353e-05
7 *218:56 0.000641721
8 *218:35 0.000828864
9 *218:33 0.000552893
10 *218:25 0.00141563
11 *218:8 0.000973199
12 *4003:B *4003:A 7.62249e-05
13 *4003:B *219:8 3.87833e-05
14 *4004:D *4228:A 6.17437e-06
15 *4225:B *4225:A 0.000186108
16 *4225:B *674:53 0.000241365
17 *4225:B *894:12 0.000116424
18 *4230:A3 *4230:A2 0
19 *4230:A3 *4230:B1 0.000141954
20 *4230:A3 *364:10 3.71251e-05
21 *218:8 *4519:RESET_B 0
22 *218:8 *359:12 0.000141879
23 *218:25 *4519:RESET_B 0
24 *218:25 *477:20 6.70017e-05
25 *218:25 *661:12 0.000111852
26 *218:25 *661:18 0.000129963
27 *218:25 *852:10 0.000111852
28 *218:33 *4230:A2 2.06822e-05
29 *218:33 *4230:B1 0.000314157
30 *218:33 *674:53 0.000165156
31 *218:33 *892:10 0.000101708
32 *218:35 *674:53 0.000195238
33 *218:35 *892:10 0.000117244
34 *218:35 *894:12 3.01561e-05
35 *218:56 *4003:A 5.97265e-06
36 *218:56 *4226:A 4.78741e-05
37 *218:56 *363:10 8.50366e-05
38 *218:56 *575:53 0.000168744
39 *218:56 *870:10 8.97377e-05
40 *218:56 *894:12 0
*RES
1 *4002:X *218:8 39.9057 
2 *218:8 *4223:A 38 
3 *218:8 *218:25 30.3907 
4 *218:25 *218:33 22.4364 
5 *218:33 *218:35 2.61 
6 *218:35 *4225:B 44.815 
7 *218:35 *218:56 36.815 
8 *218:56 *4003:B 41.045 
9 *218:33 *4004:D 38.6214 
10 *218:25 *4230:A3 25.5479 
*END

*D_NET *219 0.00141653
*CONN
*I *4228:B I *D sky130_fd_sc_hd__xnor2_2
*I *4226:A I *D sky130_fd_sc_hd__nor2_2
*I *4003:Y O *D sky130_fd_sc_hd__nor2_2
*CAP
1 *4228:B 0.000162596
2 *4226:A 0.000261502
3 *4003:Y 8.67882e-05
4 *219:8 0.000510886
5 *4226:A *870:10 1.00084e-05
6 *4228:B *363:10 9.65021e-05
7 *4228:B *870:10 0.000189157
8 *219:8 *4003:A 1.24376e-05
9 *4003:B *219:8 3.87833e-05
10 *218:56 *4226:A 4.78741e-05
*RES
1 *4003:Y *219:8 39.5743 
2 *219:8 *4226:A 41.9357 
3 *219:8 *4228:B 41.7079 
*END

*D_NET *220 0.00588017
*CONN
*I *4006:D I *D sky130_fd_sc_hd__or4_2
*I *4238:A3 I *D sky130_fd_sc_hd__o31ai_2
*I *4005:B I *D sky130_fd_sc_hd__nor2_2
*I *4233:B I *D sky130_fd_sc_hd__and2_2
*I *4231:A I *D sky130_fd_sc_hd__and2_2
*I *4004:X O *D sky130_fd_sc_hd__or4_2
*CAP
1 *4006:D 0.000224734
2 *4238:A3 0
3 *4005:B 0
4 *4233:B 0
5 *4231:A 0
6 *4004:X 0.000534983
7 *220:55 0.000173281
8 *220:47 0.000591527
9 *220:38 0.00086125
10 *220:21 0.000808891
11 *220:12 0.000141153
12 *220:10 0.000534983
13 *4006:D *4005:A 1.72202e-05
14 *4006:D *4006:A 7.84283e-05
15 *4006:D *4236:A 5.50049e-05
16 *4006:D *873:25 2.18409e-05
17 *4006:D *874:28 9.91895e-05
18 *4006:D *874:32 0.000135037
19 *220:10 *4004:C 0
20 *220:10 *364:10 7.03766e-05
21 *220:10 *366:10 0
22 *220:10 *367:8 0
23 *220:10 *893:8 0
24 *220:21 *4233:A 5.90675e-06
25 *220:21 *366:10 5.70419e-05
26 *220:38 *4233:A 0.000168445
27 *220:38 *4235:A1 1.02387e-05
28 *220:38 *4240:A2 9.67842e-05
29 *220:38 *4630:A 6.93553e-05
30 *220:38 *366:10 1.40958e-05
31 *220:38 *477:10 0.00015954
32 *220:38 *477:12 0.000231212
33 *220:38 *477:20 1.01436e-05
34 *220:38 *586:43 0
35 *220:38 *663:26 2.96646e-05
36 *220:38 *851:8 0.00020394
37 *220:47 *4005:A 0.000130729
38 *220:47 *4236:B 0.000139352
39 *220:55 *663:26 0
40 *220:55 *873:44 1.37349e-05
41 *220:55 *874:49 0.000192087
*RES
1 *4004:X *220:10 45.7264 
2 *220:10 *220:12 15 
3 *220:12 *4231:A 23 
4 *220:12 *220:21 3.02429 
5 *220:21 *4233:B 23 
6 *220:21 *220:38 44.1479 
7 *220:38 *4005:B 23 
8 *220:38 *220:47 4.45357 
9 *220:47 *220:55 33.5836 
10 *220:55 *4238:A3 23 
11 *220:47 *4006:D 27.93 
*END

*D_NET *221 0.00252184
*CONN
*I *4236:B I *D sky130_fd_sc_hd__xnor2_2
*I *4234:A I *D sky130_fd_sc_hd__nor2_2
*I *4005:Y O *D sky130_fd_sc_hd__nor2_2
*CAP
1 *4236:B 3.79925e-05
2 *4234:A 0.000346959
3 *4005:Y 0.000244694
4 *221:8 0.00055366
5 *4234:A *367:8 0.000667898
6 *4234:A *477:24 3.92407e-05
7 *4234:A *575:14 6.61054e-05
8 *4234:A *586:43 0.000273353
9 *4236:B *4005:A 0.000139352
10 *221:8 *4005:A 1.32314e-05
11 *220:47 *4236:B 0.000139352
*RES
1 *4005:Y *221:8 40.5271 
2 *221:8 *4234:A 48.7093 
3 *4005:Y *4236:B 47.5743 
*END

*D_NET *222 0.005444
*CONN
*I *4239:A I *D sky130_fd_sc_hd__and2_2
*I *4008:D I *D sky130_fd_sc_hd__or4_2
*I *4246:A3 I *D sky130_fd_sc_hd__o31ai_2
*I *4241:B I *D sky130_fd_sc_hd__and2_2
*I *4007:B I *D sky130_fd_sc_hd__nor2_2
*I *4006:X O *D sky130_fd_sc_hd__or4_2
*CAP
1 *4239:A 0
2 *4008:D 0.000147553
3 *4246:A3 0
4 *4241:B 0.000515787
5 *4007:B 0.000560186
6 *4006:X 9.84393e-05
7 *222:41 0.000679198
8 *222:33 0.000683315
9 *222:14 0.000966526
10 *222:12 0.00012845
11 *222:8 0.000192901
12 *4007:B *4238:B1 1.22822e-05
13 *4007:B *4239:B 0.000240324
14 *4007:B *873:44 4.75087e-05
15 *4007:B *874:49 9.58714e-05
16 *4008:D *224:14 0
17 *4008:D *663:10 0
18 *4008:D *878:20 2.93747e-05
19 *4241:B *4241:A 0.000227221
20 *4241:B *4247:B 0
21 *4241:B *371:8 2.13733e-05
22 *4241:B *375:10 0.00014196
23 *4241:B *876:16 2.9938e-05
24 *4241:B *876:20 0.00016778
25 *4241:B *877:27 5.25848e-05
26 *222:8 *4238:B1 5.61311e-05
27 *222:8 *874:8 3.70094e-05
28 *222:12 *4238:B1 6.17437e-06
29 *222:14 *4238:B1 2.64616e-05
30 *222:33 *4238:B1 6.25829e-05
31 *222:33 *224:14 0
32 *222:33 *375:10 0
33 *222:33 *663:16 0
34 *222:33 *677:33 0
35 *222:41 *4247:B 0.000187129
36 *222:41 *375:10 2.9938e-05
*RES
1 *4006:X *222:8 40.2579 
2 *222:8 *222:12 16.5743 
3 *222:12 *222:14 0.621429 
4 *222:14 *4007:B 33.3571 
5 *222:14 *222:33 21.3075 
6 *222:33 *222:41 18.9461 
7 *222:41 *4241:B 33.4193 
8 *222:41 *4246:A3 23 
9 *222:33 *4008:D 40.7032 
10 *222:12 *4239:A 23 
*END

*D_NET *223 0.00334957
*CONN
*I *4242:A I *D sky130_fd_sc_hd__nor2_2
*I *4244:B I *D sky130_fd_sc_hd__xnor2_2
*I *4007:Y O *D sky130_fd_sc_hd__nor2_2
*CAP
1 *4242:A 0
2 *4244:B 0.000250479
3 *4007:Y 0.000409833
4 *223:26 0.000250479
5 *223:10 0.000409833
6 *223:10 *4523:CLK 0.000196549
7 *223:10 *371:14 7.90568e-05
8 *223:10 *373:12 0.000383503
9 *223:10 *586:39 0.000194327
10 *223:10 *586:43 0.000194309
11 *223:10 *677:14 2.54646e-05
12 *223:10 *876:37 0
13 *223:10 *877:14 1.37349e-05
14 *223:26 *372:10 1.02387e-05
15 *223:26 *450:10 0.000597695
16 *223:26 *457:10 0.000169683
17 *223:26 *488:67 0
18 *223:26 *491:18 0
19 *223:26 *586:18 8.02832e-05
20 *223:26 *854:8 8.41012e-05
*RES
1 *4007:Y *223:10 49.3307 
2 *223:10 *4244:B 38 
3 *4244:B *223:26 46.2443 
4 *223:26 *4242:A 38 
*END

*D_NET *224 0.00730664
*CONN
*I *4011:C I *D sky130_fd_sc_hd__or4_2
*I *4010:A I *D sky130_fd_sc_hd__nor2_2
*I *4260:A2 I *D sky130_fd_sc_hd__o31a_2
*I *4255:A3 I *D sky130_fd_sc_hd__o31a_2
*I *4249:B I *D sky130_fd_sc_hd__nor2_2
*I *4250:B I *D sky130_fd_sc_hd__nand2_2
*I *4247:A I *D sky130_fd_sc_hd__and2_2
*I *4008:X O *D sky130_fd_sc_hd__or4_2
*CAP
1 *4011:C 7.35195e-05
2 *4010:A 0
3 *4260:A2 4.29806e-05
4 *4255:A3 0.000519616
5 *4249:B 0
6 *4250:B 0
7 *4247:A 0
8 *4008:X 0.000117203
9 *224:59 0.000206045
10 *224:49 0.000669323
11 *224:43 0.00118309
12 *224:39 0.000535491
13 *224:29 0.000497922
14 *224:23 0.000796366
15 *224:14 0.000222091
16 *224:6 0.000856536
17 *4011:C *4260:B1 4.50117e-05
18 *4255:A3 *4255:A1 1.32939e-05
19 *4255:A3 *879:25 4.32626e-05
20 *4255:A3 *881:8 8.1796e-05
21 *4260:A2 *225:20 3.3123e-05
22 *4260:A2 *608:16 0
23 *224:6 *878:12 2.30292e-05
24 *224:14 *663:10 0.000129504
25 *224:14 *663:16 1.01436e-05
26 *224:23 *4011:A 3.7122e-06
27 *224:23 *227:10 2.21565e-05
28 *224:29 *4260:B1 0.000181412
29 *224:29 *225:34 7.76364e-06
30 *224:29 *663:57 0.000129402
31 *224:39 *4260:B1 2.4754e-05
32 *224:39 *225:20 1.40958e-05
33 *224:39 *225:26 0.000203962
34 *224:39 *225:34 2.88979e-05
35 *224:43 *225:20 0.000101554
36 *224:43 *608:16 0
37 *224:43 *608:28 0
38 *224:43 *679:10 8.62876e-05
39 *224:49 *494:66 9.4713e-05
40 *224:49 *879:25 4.58535e-05
41 *224:59 *4249:A 2.55642e-05
42 *224:59 *4250:A 0.000140383
43 *224:59 *879:25 9.67842e-05
44 *4008:D *224:14 0
45 *222:33 *224:14 0
*RES
1 *4008:X *224:6 24.5743 
2 *224:6 *224:14 34.4329 
3 *224:14 *4247:A 23 
4 *224:6 *224:23 21.815 
5 *224:23 *224:29 20.6964 
6 *224:29 *224:39 20.0957 
7 *224:39 *224:43 19.0186 
8 *224:43 *224:49 6.73214 
9 *224:49 *224:59 34.3293 
10 *224:59 *4250:B 23 
11 *224:49 *4249:B 23 
12 *224:43 *4255:A3 30.3121 
13 *224:39 *4260:A2 38.8493 
14 *224:29 *4010:A 23 
15 *224:23 *4011:C 39.6157 
*END

*D_NET *225 0.00455924
*CONN
*I *4260:A3 I *D sky130_fd_sc_hd__o31a_2
*I *4010:B I *D sky130_fd_sc_hd__nor2_2
*I *4011:D I *D sky130_fd_sc_hd__or4_2
*I *4009:X O *D sky130_fd_sc_hd__or3_2
*CAP
1 *4260:A3 0
2 *4010:B 0
3 *4011:D 0
4 *4009:X 0.000594767
5 *225:34 0.000143636
6 *225:26 0.000232222
7 *225:20 0.000502809
8 *225:14 0.00100899
9 *225:14 *4253:A 0.000167421
10 *225:14 *4253:B 2.30292e-05
11 *225:14 *663:87 3.58358e-05
12 *225:14 *679:83 6.17437e-06
13 *225:14 *880:14 3.70071e-06
14 *225:20 *4260:A1 5.50049e-05
15 *225:20 *226:26 0.00010018
16 *225:20 *383:8 2.18409e-05
17 *225:20 *458:8 0
18 *225:20 *608:16 0
19 *225:20 *679:10 0.000194299
20 *225:20 *679:12 0.000113153
21 *225:20 *682:14 0
22 *225:26 *4260:B1 0.000111393
23 *225:26 *226:26 1.22822e-05
24 *225:34 *4260:B1 0.000439039
25 *225:34 *494:66 0.000404066
26 *4260:A2 *225:20 3.3123e-05
27 *224:29 *225:34 7.76364e-06
28 *224:39 *225:20 1.40958e-05
29 *224:39 *225:26 0.000203962
30 *224:39 *225:34 2.88979e-05
31 *224:43 *225:20 0.000101554
*RES
1 *4009:X *225:14 47.6114 
2 *225:14 *225:20 24.4664 
3 *225:20 *225:26 3.39714 
4 *225:26 *225:34 36.0486 
5 *225:34 *4011:D 23 
6 *225:26 *4010:B 23 
7 *225:20 *4260:A3 23 
*END

*D_NET *226 0.00120107
*CONN
*I *4258:B I *D sky130_fd_sc_hd__xnor2_2
*I *4256:A I *D sky130_fd_sc_hd__nor2_2
*I *4010:Y O *D sky130_fd_sc_hd__nor2_2
*CAP
1 *4258:B 0
2 *4256:A 0
3 *4010:Y 0.000325864
4 *226:26 0.000239508
5 *226:8 8.63559e-05
6 *226:8 *494:66 7.28526e-05
7 *226:8 *663:57 0
8 *226:26 *4260:A1 0
9 *226:26 *4260:B1 0.000139352
10 *226:26 *383:8 5.50049e-05
11 *226:26 *383:12 0.000169674
12 *226:26 *608:16 0
13 *225:20 *226:26 0.00010018
14 *225:26 *226:26 1.22822e-05
*RES
1 *4010:Y *226:8 39.9057 
2 *226:8 *4256:A 38 
3 *4010:Y *226:26 43.6136 
4 *226:26 *4258:B 38 
*END

*D_NET *227 0.00280575
*CONN
*I *4263:A2 I *D sky130_fd_sc_hd__a21bo_2
*I *4012:B I *D sky130_fd_sc_hd__nor2_2
*I *4261:A2 I *D sky130_fd_sc_hd__o21ai_2
*I *4011:X O *D sky130_fd_sc_hd__or4_2
*CAP
1 *4263:A2 0.000106779
2 *4012:B 0
3 *4261:A2 0
4 *4011:X 0.000268931
5 *227:29 0.000173146
6 *227:21 0.000559169
7 *227:10 0.000548176
8 *4263:A2 *4263:A1 5.50106e-05
9 *4263:A2 *4263:B1_N 1.28818e-05
10 *4263:A2 *350:12 0.000226306
11 *4263:A2 *608:57 0.000182723
12 *4263:A2 *663:6 8.39276e-05
13 *227:10 *494:60 0
14 *227:10 *663:10 0
15 *227:10 *884:10 0
16 *227:21 *4261:B1 0
17 *227:21 *4263:B1_N 0
18 *227:21 *4524:RESET_B 0
19 *227:21 *663:10 0
20 *227:21 *676:20 0
21 *227:21 *863:8 8.41012e-05
22 *227:29 *4263:B1_N 0
23 *227:29 *608:57 0.000125488
24 *227:29 *663:6 0.000128391
25 *227:29 *676:20 0.000224345
26 *61:10 *227:29 4.21594e-06
27 *92:14 *227:10 0
28 *92:14 *227:21 0
29 *224:23 *227:10 2.21565e-05
*RES
1 *4011:X *227:10 42.3086 
2 *227:10 *4261:A2 38 
3 *227:10 *227:21 20.4271 
4 *227:21 *227:29 35.4893 
5 *227:29 *4012:B 23 
6 *227:21 *4263:A2 27.4329 
*END

*D_NET *228 0.00398595
*CONN
*I *4665:A I *D sky130_fd_sc_hd__clkdlybuf4s25_1
*I *4012:Y O *D sky130_fd_sc_hd__nor2_2
*CAP
1 *4665:A 0
2 *4012:Y 0.000908476
3 *228:14 0.000245148
4 *228:6 0.00115362
5 *228:6 *4012:A 0.000914085
6 *228:6 *449:266 9.06965e-05
7 *228:14 *449:226 6.17437e-06
8 *228:14 *449:228 3.3123e-05
9 *228:14 *449:266 0.000153574
10 *228:14 *681:63 9.84794e-05
11 *228:14 *682:14 0.000382564
*RES
1 *4012:Y *228:6 36.9614 
2 *228:6 *228:14 36.1729 
3 *228:14 *4665:A 23 
*END

*D_NET *229 0.0026698
*CONN
*I *4156:B I *D sky130_fd_sc_hd__xnor2_2
*I *4154:A I *D sky130_fd_sc_hd__nor2_2
*I *4014:Y O *D sky130_fd_sc_hd__nor2_2
*CAP
1 *4156:B 0
2 *4154:A 0
3 *4014:Y 1.90553e-05
4 *229:27 0.000263225
5 *229:16 0.00034128
6 *229:6 0.00062356
7 *229:6 *4155:B1 5.67058e-05
8 *229:6 *553:27 1.56762e-05
9 *229:6 *827:27 9.84851e-05
10 *229:16 *4154:B 0.00010018
11 *229:16 *4155:A2 0.000223692
12 *229:16 *318:12 0.000141954
13 *229:16 *473:68 0.000164291
14 *229:16 *553:16 2.93845e-05
15 *229:16 *553:27 2.93747e-05
16 *229:16 *653:36 2.45549e-06
17 *229:16 *827:27 0.000308946
18 *229:27 *4152:B1 7.75329e-06
19 *229:27 *4158:A1 0
20 *229:27 *473:68 0
21 *229:27 *553:16 3.0647e-05
22 *229:27 *553:27 0.000203919
23 *229:27 *653:70 9.21347e-06
24 *229:27 *816:10 0
*RES
1 *4014:Y *229:6 24.0979 
2 *229:6 *229:16 38.7414 
3 *229:16 *4154:A 23 
4 *229:6 *229:27 36.1314 
5 *229:27 *4156:B 23 
*END

*D_NET *230 0.0099166
*CONN
*I *4016:B I *D sky130_fd_sc_hd__nor2_2
*I *4161:B I *D sky130_fd_sc_hd__and2_2
*I *4017:D I *D sky130_fd_sc_hd__or4_2
*I *4166:A3 I *D sky130_fd_sc_hd__o31ai_2
*I *4159:A I *D sky130_fd_sc_hd__and2_2
*I *4015:X O *D sky130_fd_sc_hd__or4_2
*CAP
1 *4016:B 0
2 *4161:B 0.000394866
3 *4017:D 0
4 *4166:A3 0
5 *4159:A 0
6 *4015:X 6.90262e-05
7 *230:47 0.000447059
8 *230:33 0.00068988
9 *230:31 0.000656797
10 *230:27 0.000469335
11 *230:12 0.000353456
12 *230:8 0.000872707
13 *4161:B *4162:A 7.56417e-05
14 *4161:B *4164:B 1.22803e-05
15 *4161:B *653:36 0.000249136
16 *4161:B *682:27 0.000415995
17 *4161:B *843:42 0.000173442
18 *230:8 *4015:C 4.74809e-05
19 *230:8 *4015:D 2.79167e-05
20 *230:8 *838:12 6.07611e-06
21 *230:12 *4015:C 1.83564e-05
22 *230:12 *4015:D 2.72055e-05
23 *230:12 *320:8 7.31578e-05
24 *230:12 *321:10 0.000149423
25 *230:12 *693:8 0.00039048
26 *230:12 *693:10 0.000132665
27 *230:12 *693:16 0.000283088
28 *230:12 *841:10 6.95156e-05
29 *230:12 *841:21 0.000107651
30 *230:12 *842:8 7.75329e-06
31 *230:27 *4016:A 1.14154e-05
32 *230:27 *4158:A1 0.000103647
33 *230:27 *4158:A3 2.18409e-05
34 *230:27 *4158:B1 2.98648e-05
35 *230:27 *553:59 0.000114431
36 *230:27 *655:32 0.00130096
37 *230:27 *838:31 0.000180218
38 *230:27 *843:14 2.4754e-05
39 *230:27 *843:29 2.93747e-05
40 *230:31 *655:32 1.41077e-05
41 *230:31 *843:14 5.50106e-05
42 *230:33 *4017:C 2.55642e-05
43 *230:33 *4164:B 0.000186309
44 *230:33 *843:29 0.000123663
45 *230:47 *4017:C 0.000379413
46 *230:47 *4166:B1 0.000462783
47 *230:47 *232:8 0
48 *230:47 *325:10 0.000472066
49 *230:47 *652:6 1.72202e-05
50 *230:47 *652:52 1.14876e-05
51 *230:47 *655:14 2.93845e-05
52 *230:47 *820:8 0
53 *230:47 *843:29 4.21594e-06
54 *230:47 *844:18 9.84794e-05
*RES
1 *4015:X *230:8 39.5536 
2 *230:8 *230:12 27.1179 
3 *230:12 *4159:A 23 
4 *230:8 *230:27 31.0536 
5 *230:27 *230:31 15.6214 
6 *230:31 *230:33 5.77929 
7 *230:33 *230:47 30.08 
8 *230:47 *4166:A3 23 
9 *230:33 *4017:D 38 
10 *230:31 *4161:B 48.4193 
11 *230:27 *4016:B 23 
*END

*D_NET *231 0.00244262
*CONN
*I *4162:A I *D sky130_fd_sc_hd__nor2_2
*I *4164:B I *D sky130_fd_sc_hd__xnor2_2
*I *4016:Y O *D sky130_fd_sc_hd__nor2_2
*CAP
1 *4162:A 0.000440456
2 *4164:B 0.000191651
3 *4016:Y 2.10561e-05
4 *231:8 0.000653163
5 *4162:A *4471:RESET_B 8.26672e-05
6 *4162:A *4675:A 0.000163352
7 *4162:A *4699:A 1.22803e-05
8 *4162:A *655:14 5.33597e-05
9 *4164:B *4017:C 3.92407e-05
10 *4164:B *655:14 0.000452396
11 *231:8 *655:8 6.17437e-06
12 *231:8 *655:32 2.32101e-05
13 *231:8 *843:14 2.93845e-05
14 *4161:B *4162:A 7.56417e-05
15 *4161:B *4164:B 1.22803e-05
16 *230:33 *4164:B 0.000186309
*RES
1 *4016:Y *231:8 38.6214 
2 *231:8 *4164:B 44.1314 
3 *231:8 *4162:A 46.9071 
*END

*D_NET *232 0.00508917
*CONN
*I *4167:A I *D sky130_fd_sc_hd__and2_2
*I *4169:B I *D sky130_fd_sc_hd__and2_2
*I *4018:B I *D sky130_fd_sc_hd__nor2_2
*I *4174:A3 I *D sky130_fd_sc_hd__o31ai_2
*I *4019:D I *D sky130_fd_sc_hd__or4_2
*I *4017:X O *D sky130_fd_sc_hd__or4_2
*CAP
1 *4167:A 0
2 *4169:B 0
3 *4018:B 0.000390368
4 *4174:A3 0
5 *4019:D 0
6 *4017:X 0.000100492
7 *232:31 0.000513958
8 *232:24 0.000147469
9 *232:16 0.00112326
10 *232:8 0.000952691
11 *4018:B *4018:A 0.000423375
12 *4018:B *233:8 3.91445e-05
13 *4018:B *327:10 0.000184707
14 *4018:B *542:62 0.000226902
15 *232:8 *4157:B1 0
16 *232:8 *820:8 0
17 *232:16 *4017:C 0
18 *232:16 *4157:B1 0
19 *232:16 *4182:A1 0
20 *232:16 *325:10 8.51329e-05
21 *232:16 *330:10 0.000242595
22 *232:16 *473:24 0
23 *232:16 *845:8 0
24 *232:24 *4019:B 4.91172e-06
25 *232:24 *4174:B1 0.000135616
26 *232:24 *846:30 9.66585e-05
27 *232:24 *846:43 0.000138747
28 *232:31 *4174:B1 0.000145163
29 *232:31 *327:10 3.95777e-05
30 *232:31 *330:10 9.84034e-05
31 *230:47 *232:8 0
*RES
1 *4017:X *232:8 39.9057 
2 *232:8 *232:16 32.255 
3 *232:16 *232:24 33.3557 
4 *232:24 *4019:D 23 
5 *232:16 *232:31 3.48 
6 *232:31 *4174:A3 23 
7 *232:31 *4018:B 32.9429 
8 *232:16 *4169:B 23 
9 *232:8 *4167:A 38 
*END

*D_NET *233 0.00296821
*CONN
*I *4170:A I *D sky130_fd_sc_hd__nor2_2
*I *4172:B I *D sky130_fd_sc_hd__xnor2_2
*I *4018:Y O *D sky130_fd_sc_hd__nor2_2
*CAP
1 *4170:A 0.000219583
2 *4172:B 0.00024479
3 *4018:Y 0.00047405
4 *233:8 0.000938424
5 *4170:A *327:10 0.00035793
6 *4170:A *328:10 0
7 *4170:A *680:27 0
8 *4170:A *680:29 0
9 *4170:A *846:12 1.61983e-05
10 *4170:A *847:10 0.00015374
11 *4170:A *847:16 6.43792e-05
12 *4172:B *4176:A2 5.58003e-05
13 *4172:B *329:8 4.41504e-05
14 *4172:B *846:12 1.94812e-05
15 *4172:B *847:16 0.000193178
16 *233:8 *4018:A 0.000114732
17 *233:8 *4171:A2 3.26241e-05
18 *4018:B *233:8 3.91445e-05
*RES
1 *4018:Y *233:8 44.3386 
2 *233:8 *4172:B 43.6964 
3 *233:8 *4170:A 44.4836 
*END

*D_NET *234 0.00591001
*CONN
*I *4182:A3 I *D sky130_fd_sc_hd__o31ai_2
*I *4177:B I *D sky130_fd_sc_hd__and2_2
*I *4021:D I *D sky130_fd_sc_hd__or4_2
*I *4020:B I *D sky130_fd_sc_hd__nor2_2
*I *4175:A I *D sky130_fd_sc_hd__and2_2
*I *4019:X O *D sky130_fd_sc_hd__or4_2
*CAP
1 *4182:A3 0
2 *4177:B 0
3 *4021:D 0
4 *4020:B 0.000243787
5 *4175:A 0
6 *4019:X 0.000208665
7 *234:62 0.000520023
8 *234:47 0.000663302
9 *234:40 0.000811017
10 *234:19 0.00108719
11 *234:17 0.00036324
12 *234:8 0.00039624
13 *4020:B *4020:A 1.12796e-05
14 *4020:B *4541:CLK 0.000167296
15 *4020:B *828:6 1.09834e-05
16 *234:17 *4542:CLK 5.3304e-05
17 *234:19 *4541:CLK 5.29888e-05
18 *234:40 *4021:B 2.53095e-05
19 *234:40 *4542:CLK 1.47795e-05
20 *234:40 *4542:D 0.000170182
21 *234:40 *829:22 0.000117875
22 *234:47 *4541:CLK 2.45092e-05
23 *234:47 *473:26 0.00019288
24 *234:62 *4182:A1 0.000268074
25 *234:62 *4182:A2 4.37033e-05
26 *234:62 *473:24 0.000222123
27 *234:62 *473:26 0.000241259
28 *234:62 *652:56 0
29 *234:62 *808:10 0
*RES
1 *4019:X *234:8 26.9771 
2 *234:8 *4175:A 23 
3 *234:8 *234:17 18.0036 
4 *234:17 *234:19 0.849286 
5 *234:19 *4020:B 42.6814 
6 *234:19 *234:40 27.325 
7 *234:40 *4021:D 23 
8 *234:17 *234:47 2.96214 
9 *234:47 *4177:B 38 
10 *234:47 *234:62 27.0143 
11 *234:62 *4182:A3 23 
*END

*D_NET *235 0.00174037
*CONN
*I *4178:A I *D sky130_fd_sc_hd__nor2_2
*I *4180:B I *D sky130_fd_sc_hd__xnor2_2
*I *4020:Y O *D sky130_fd_sc_hd__nor2_2
*CAP
1 *4178:A 9.05375e-05
2 *4180:B 0.000373246
3 *4020:Y 0.000198894
4 *235:8 0.000481602
5 *4178:A *4180:A 5.5792e-05
6 *4178:A *332:8 0.000229395
7 *4180:B *332:8 0.000147656
8 *235:8 *4541:CLK 8.52094e-06
9 *235:8 *828:17 0.00015473
*RES
1 *4020:Y *235:8 42.7229 
2 *235:8 *4180:B 43.075 
3 *4180:B *4178:A 48.5271 
*END

*D_NET *236 0.00688665
*CONN
*I *4024:B I *D sky130_fd_sc_hd__or3_2
*I *4183:A I *D sky130_fd_sc_hd__and2_2
*I *4022:B I *D sky130_fd_sc_hd__nor2_2
*I *4185:B I *D sky130_fd_sc_hd__and2_2
*I *4026:B I *D sky130_fd_sc_hd__or4_2
*I *4190:A3 I *D sky130_fd_sc_hd__o31ai_2
*I *4021:X O *D sky130_fd_sc_hd__or4_2
*CAP
1 *4024:B 0
2 *4183:A 0.000558686
3 *4022:B 0.000184103
4 *4185:B 1.27776e-05
5 *4026:B 0.000589266
6 *4190:A3 0.000131459
7 *4021:X 0.000701005
8 *236:80 6.48689e-05
9 *236:65 0.000975643
10 *236:38 0.000302746
11 *236:14 0.00058343
12 *236:10 0.00102166
13 *4022:B *4022:A 5.2938e-05
14 *4022:B *4188:B 2.95423e-05
15 *4022:B *237:8 2.46235e-05
16 *4026:B *4023:A 4.89774e-05
17 *4026:B *4023:B 0
18 *4026:B *4024:A 2.3164e-05
19 *4026:B *240:8 0
20 *4026:B *831:25 8.16757e-06
21 *4026:B *832:21 4.46962e-05
22 *4185:B *4022:A 1.34966e-05
23 *4185:B *4188:B 1.12796e-05
24 *4190:A3 *4190:A1 6.17437e-06
25 *4190:A3 *4191:B 5.50049e-05
26 *4190:A3 *341:8 6.36995e-05
27 *236:10 *4188:A 5.3304e-05
28 *236:10 *4188:B 5.5792e-05
29 *236:10 *4189:A1 0.000191255
30 *236:10 *4189:A2 0.000143423
31 *236:10 *655:54 1.34995e-05
32 *236:10 *810:10 0.000140927
33 *236:14 *4546:RESET_B 9.14776e-05
34 *236:14 *832:10 1.46784e-05
35 *236:14 *832:21 0.000178232
36 *236:14 *833:10 0
37 *236:38 *4188:B 0.000211052
38 *236:65 *238:14 0.000199306
39 *236:80 *474:25 8.62876e-05
40 *236:80 *564:26 0
*RES
1 *4021:X *236:10 36.1743 
2 *236:10 *236:14 20.4271 
3 *236:14 *4190:A3 40.5686 
4 *236:14 *4026:B 42.3707 
5 *236:10 *236:38 2.52714 
6 *236:38 *4185:B 23.4971 
7 *236:38 *4022:B 27.0186 
8 *4026:B *236:65 27.9093 
9 *236:65 *4183:A 33.0464 
10 *236:65 *236:80 31.2014 
11 *236:80 *4024:B 23 
*END

*D_NET *237 0.00183481
*CONN
*I *4186:A I *D sky130_fd_sc_hd__nor2_2
*I *4188:B I *D sky130_fd_sc_hd__xnor2_2
*I *4022:Y O *D sky130_fd_sc_hd__nor2_2
*CAP
1 *4186:A 0
2 *4188:B 0.00018476
3 *4022:Y 9.71308e-05
4 *237:25 0.000320769
5 *237:8 0.00060266
6 *4188:B *4022:A 7.03623e-07
7 *237:8 *4022:A 6.07413e-05
8 *237:25 *337:8 0.000100143
9 *237:25 *831:55 0.000135616
10 *4022:B *4188:B 2.95423e-05
11 *4022:B *237:8 2.46235e-05
12 *4185:B *4188:B 1.12796e-05
13 *236:10 *4188:B 5.5792e-05
14 *236:38 *4188:B 0.000211052
*RES
1 *4022:Y *237:8 25.0714 
2 *237:8 *4188:B 27.1221 
3 *237:8 *237:25 36.1314 
4 *237:25 *4186:A 23 
*END

*D_NET *238 0.00139461
*CONN
*I *4026:C I *D sky130_fd_sc_hd__or4_2
*I *4024:C I *D sky130_fd_sc_hd__or3_2
*I *4023:X O *D sky130_fd_sc_hd__or2_2
*CAP
1 *4026:C 0
2 *4024:C 0
3 *4023:X 7.13392e-05
4 *238:14 0.000365692
5 *238:6 0.000437032
6 *238:6 *4023:A 3.88766e-05
7 *238:6 *4026:D 5.50106e-05
8 *238:14 *4023:A 6.17437e-06
9 *238:14 *474:25 0.000221184
10 *236:65 *238:14 0.000199306
*RES
1 *4023:X *238:6 24.5743 
2 *238:6 *238:14 37.395 
3 *238:14 *4024:C 23 
4 *238:6 *4026:C 23 
*END

*D_NET *239 0.00607628
*CONN
*I *4194:B I *D sky130_fd_sc_hd__nand2_2
*I *4193:B I *D sky130_fd_sc_hd__nor2_2
*I *4197:C I *D sky130_fd_sc_hd__or3_2
*I *4191:A I *D sky130_fd_sc_hd__and2_2
*I *4024:X O *D sky130_fd_sc_hd__or3_2
*CAP
1 *4194:B 0.000528994
2 *4193:B 0
3 *4197:C 0
4 *4191:A 0.000263371
5 *4024:X 0.000573846
6 *239:46 0.000663379
7 *239:31 0.000481392
8 *239:14 0.00118422
9 *4191:A *4023:B 8.02307e-05
10 *4191:A *4025:B 4.41722e-05
11 *4191:A *240:8 0.000169683
12 *4191:A *345:8 0
13 *4191:A *833:10 1.34542e-05
14 *4194:B *474:82 0.000209729
15 *4194:B *474:95 0.000225265
16 *4194:B *834:44 1.14452e-05
17 *239:14 *4024:A 3.96299e-05
18 *239:14 *4200:A1 0.000187968
19 *239:14 *4200:A2 0.000103831
20 *239:14 *4200:B1_N 0.000233359
21 *239:14 *347:10 0.000275934
22 *239:31 *4025:B 0.000161147
23 *239:31 *4197:B 2.80394e-05
24 *239:31 *344:14 1.83667e-05
25 *239:31 *345:8 0
26 *239:31 *474:71 9.63918e-05
27 *239:31 *474:82 6.67764e-05
28 *239:31 *835:8 1.32314e-05
29 *239:46 *4197:B 6.17437e-06
30 *239:46 *474:82 0.00019654
31 *239:46 *834:44 0.000199701
*RES
1 *4024:X *239:14 49.7657 
2 *239:14 *4191:A 44.4836 
3 *239:14 *239:31 23.7829 
4 *239:31 *4197:C 23 
5 *239:31 *239:46 19.2257 
6 *239:46 *4193:B 38 
7 *239:46 *4194:B 48.6886 
*END

*D_NET *240 0.000827454
*CONN
*I *4026:D I *D sky130_fd_sc_hd__or4_2
*I *4025:X O *D sky130_fd_sc_hd__or3_2
*CAP
1 *4026:D 0.000132591
2 *4025:X 9.47709e-05
3 *240:8 0.000227362
4 *4026:D *4023:A 0.00014196
5 *240:8 *4025:B 6.07611e-06
6 *4026:B *240:8 0
7 *4191:A *240:8 0.000169683
8 *238:6 *4026:D 5.50106e-05
*RES
1 *4025:X *240:8 40.2579 
2 *240:8 *4026:D 41.0036 
*END

*D_NET *241 0.00720976
*CONN
*I *4204:A2 I *D sky130_fd_sc_hd__o21ai_2
*I *4027:C I *D sky130_fd_sc_hd__or3_2
*I *4202:B I *D sky130_fd_sc_hd__xor2_2
*I *4200:B1_N I *D sky130_fd_sc_hd__a21boi_2
*I *4026:X O *D sky130_fd_sc_hd__or4_2
*CAP
1 *4204:A2 0
2 *4027:C 8.50819e-05
3 *4202:B 0.00148767
4 *4200:B1_N 5.53502e-05
5 *4026:X 0.000158329
6 *241:57 0.000355986
7 *241:40 0.000661826
8 *241:8 0.0014806
9 *4027:C *4027:A 9.84851e-05
10 *4200:B1_N *4024:A 8.19612e-05
11 *4202:B *4549:RESET_B 6.15872e-05
12 *4202:B *343:8 0.000119742
13 *4202:B *347:10 0
14 *4202:B *464:10 0
15 *4202:B *464:31 0
16 *4202:B *474:25 0
17 *4202:B *591:10 8.84898e-05
18 *4202:B *696:81 2.84835e-05
19 *4202:B *834:12 0.000304171
20 *241:8 *4024:A 4.80733e-05
21 *241:40 *4202:A 0.000354581
22 *241:40 *4550:RESET_B 4.21594e-06
23 *241:40 *242:12 1.65191e-05
24 *241:57 *4202:A 3.70187e-05
25 *241:57 *4204:B1 9.58714e-05
26 *241:57 *4550:RESET_B 8.93593e-05
27 *241:57 *465:25 0.000143836
28 *241:57 *476:42 6.7177e-06
29 *241:57 *539:8 0.000107641
30 *241:57 *695:26 5.19255e-05
31 *241:57 *837:25 0.000952877
32 *239:14 *4200:B1_N 0.000233359
*RES
1 *4026:X *241:8 40.61 
2 *241:8 *4200:B1_N 40.5271 
3 *241:8 *4202:B 38.925 
4 *4202:B *241:40 20.2096 
5 *241:40 *4027:C 39.5743 
6 *241:40 *241:57 28.05 
7 *241:57 *4204:A2 23 
*END

*D_NET *242 0.00330168
*CONN
*I *4205:A2 I *D sky130_fd_sc_hd__o211ai_2
*I *4206:A2 I *D sky130_fd_sc_hd__a21bo_2
*I *4028:B I *D sky130_fd_sc_hd__nor2_2
*I *4027:X O *D sky130_fd_sc_hd__or3_2
*CAP
1 *4205:A2 2.13128e-05
2 *4206:A2 0.000156089
3 *4028:B 0
4 *4027:X 0.000146735
5 *242:25 0.000200458
6 *242:18 0.000134703
7 *242:12 0.00101813
8 *242:8 0.0010071
9 *4205:A2 *4205:B1 5.47983e-06
10 *4206:A2 *4205:B1 0.000104318
11 *4206:A2 *4206:B1_N 6.17437e-06
12 *242:8 *4202:A 0
13 *242:8 *474:95 3.47781e-05
14 *242:12 *4202:A 0.000131304
15 *242:12 *4205:B1 3.05357e-05
16 *242:12 *4205:C1 0.000134009
17 *242:12 *474:95 5.3304e-05
18 *242:18 *817:8 1.14452e-05
19 *242:18 *840:12 8.92841e-05
20 *241:40 *242:12 1.65191e-05
*RES
1 *4027:X *242:8 40.61 
2 *242:8 *242:12 29.9143 
3 *242:12 *242:18 32.61 
4 *242:18 *4028:B 23 
5 *242:12 *242:25 0.497143 
6 *242:25 *4206:A2 25.5271 
7 *242:25 *4205:A2 23.4971 
*END

*D_NET *243 0.00116641
*CONN
*I *4661:A I *D sky130_fd_sc_hd__clkdlybuf4s25_1
*I *4028:Y O *D sky130_fd_sc_hd__nor2_2
*CAP
1 *4661:A 0
2 *4028:Y 0.000236281
3 *243:12 0.000236281
4 *243:12 *4203:B1 5.79559e-05
5 *243:12 *564:10 5.40337e-05
6 *243:12 *815:12 1.73041e-05
7 *243:12 *840:33 0.000240372
8 *93:10 *243:12 0.000324186
*RES
1 *4028:Y *243:12 29.525 
2 *243:12 *4661:A 23 
*END

*D_NET *244 0.00268417
*CONN
*I *4097:A I *D sky130_fd_sc_hd__nor2_2
*I *4099:B I *D sky130_fd_sc_hd__xnor2_2
*I *4030:Y O *D sky130_fd_sc_hd__nor2_2
*CAP
1 *4097:A 0.000457286
2 *4099:B 0.000113737
3 *4030:Y 0.000258268
4 *244:8 0.000829292
5 *4097:A *4031:B 6.12484e-05
6 *4097:A *4098:A2 7.73389e-05
7 *4097:A *4098:B1 3.7122e-06
8 *4097:A *282:12 4.83201e-05
9 *4097:A *711:27 6.52736e-05
10 *4097:A *771:10 2.30292e-05
11 *4097:A *793:18 0.000179304
12 *4099:B *4031:B 0.000162254
13 *4099:B *711:27 4.41504e-05
14 *244:8 *4030:B 0.000360958
*RES
1 *4030:Y *244:8 41.9564 
2 *244:8 *4099:B 40.2579 
3 *244:8 *4097:A 47.0729 
*END

*D_NET *245 0.00535062
*CONN
*I *4102:A I *D sky130_fd_sc_hd__and2_2
*I *4032:B I *D sky130_fd_sc_hd__nor2_2
*I *4033:D I *D sky130_fd_sc_hd__or4_2
*I *4109:A3 I *D sky130_fd_sc_hd__o31ai_2
*I *4104:B I *D sky130_fd_sc_hd__and2_2
*I *4031:X O *D sky130_fd_sc_hd__or4_2
*CAP
1 *4102:A 0.000178494
2 *4032:B 6.44381e-05
3 *4033:D 0.000154245
4 *4109:A3 0
5 *4104:B 2.18824e-05
6 *4031:X 9.85415e-05
7 *245:47 0.00033753
8 *245:27 0.000707099
9 *245:14 0.00140456
10 *245:8 0.00102297
11 *4032:B *657:31 5.58003e-05
12 *4032:B *711:55 0.000179567
13 *4033:D *4033:A 0.000145171
14 *4033:D *799:12 0.000159425
15 *4102:A *657:31 0.000166233
16 *245:8 *711:55 0.000145163
17 *245:27 *4104:A 0.000450127
18 *245:27 *290:12 2.2385e-05
19 *245:27 *798:21 2.56091e-05
20 *245:27 *799:12 1.13812e-05
*RES
1 *4031:X *245:8 39.5743 
2 *245:8 *245:14 30.225 
3 *245:14 *4104:B 23.4971 
4 *245:14 *245:27 27.47 
5 *245:27 *4109:A3 38 
6 *245:27 *4033:D 41.8321 
7 *245:8 *245:47 1.20143 
8 *245:47 *4032:B 40.0507 
9 *245:47 *4102:A 41.7079 
*END

*D_NET *246 0.00153583
*CONN
*I *4107:B I *D sky130_fd_sc_hd__xnor2_2
*I *4105:A I *D sky130_fd_sc_hd__nor2_2
*I *4032:Y O *D sky130_fd_sc_hd__nor2_2
*CAP
1 *4107:B 0.000277753
2 *4105:A 0
3 *4032:Y 9.98971e-05
4 *246:14 0.000111172
5 *246:8 0.000488822
6 *4107:B *289:10 0.000100486
7 *4107:B *711:95 0.000102742
8 *4107:B *798:33 0.000171093
9 *246:8 *4106:A1 2.19403e-05
10 *246:8 *711:55 6.17437e-06
11 *246:8 *798:33 0.000102971
12 *246:14 *288:8 5.27824e-05
*RES
1 *4032:Y *246:8 25.0714 
2 *246:8 *246:14 32.2579 
3 *246:14 *4105:A 23 
4 *246:8 *4107:B 28.8829 
*END

*D_NET *247 0.00567826
*CONN
*I *4110:A I *D sky130_fd_sc_hd__and2_2
*I *4034:B I *D sky130_fd_sc_hd__nor2_2
*I *4035:D I *D sky130_fd_sc_hd__or4_2
*I *4117:A3 I *D sky130_fd_sc_hd__o31ai_2
*I *4112:B I *D sky130_fd_sc_hd__and2_2
*I *4033:X O *D sky130_fd_sc_hd__or4_2
*CAP
1 *4110:A 0
2 *4034:B 0
3 *4035:D 1.70457e-05
4 *4117:A3 0
5 *4112:B 0.000123121
6 *4033:X 0.000401555
7 *247:45 0.000319472
8 *247:37 0.000471272
9 *247:31 0.000255339
10 *247:16 0.000345481
11 *247:12 0.000342169
12 *247:8 0.000641949
13 *4035:D *4035:A 4.2573e-05
14 *4035:D *4035:B 1.94812e-05
15 *4112:B *4112:A 0.00010018
16 *247:8 *4559:RESET_B 0
17 *247:8 *290:12 0
18 *247:8 *800:8 0
19 *247:16 *4113:A 0
20 *247:16 *4559:RESET_B 0.000223043
21 *247:16 *290:12 2.08324e-05
22 *247:31 *4034:A 9.5877e-05
23 *247:31 *4112:A 0.000195248
24 *247:31 *4113:A 0
25 *247:31 *4559:RESET_B 0.000247678
26 *247:31 *4560:RESET_B 5.3304e-05
27 *247:31 *248:8 2.02872e-05
28 *247:31 *801:19 3.70187e-05
29 *247:37 *4559:RESET_B 3.47781e-05
30 *247:37 *698:25 0.000161121
31 *247:45 *4035:A 0.000137651
32 *247:45 *4035:B 1.21972e-05
33 *247:45 *4115:B 0
34 *247:45 *4117:A2 0.000192087
35 *247:45 *4561:RESET_B 0.000137651
36 *247:45 *801:38 0.000674154
37 *247:45 *802:10 0.000355699
*RES
1 *4033:X *247:8 45.54 
2 *247:8 *247:12 18.9564 
3 *247:12 *247:16 17.9621 
4 *247:16 *4112:B 40.5271 
5 *247:16 *247:31 19.4121 
6 *247:31 *247:37 32.61 
7 *247:37 *247:45 40.9993 
8 *247:45 *4117:A3 23 
9 *247:37 *4035:D 23.6214 
10 *247:31 *4034:B 23 
11 *247:12 *4110:A 23 
*END

*D_NET *248 0.00223047
*CONN
*I *4115:B I *D sky130_fd_sc_hd__xnor2_2
*I *4113:A I *D sky130_fd_sc_hd__nor2_2
*I *4034:Y O *D sky130_fd_sc_hd__nor2_2
*CAP
1 *4115:B 0.00041165
2 *4113:A 0.00026424
3 *4034:Y 0.000319357
4 *248:8 0.000995247
5 *4113:A *4112:A 0
6 *4113:A *293:10 0
7 *4113:A *779:10 0
8 *4113:A *801:19 0
9 *4115:B *4116:B1 0
10 *4115:B *658:36 0
11 *4115:B *779:10 0
12 *4115:B *780:8 0
13 *4115:B *801:19 0
14 *4115:B *801:38 0
15 *4115:B *802:10 0
16 *248:8 *4560:RESET_B 0.000219685
17 *247:16 *4113:A 0
18 *247:31 *4113:A 0
19 *247:31 *248:8 2.02872e-05
20 *247:45 *4115:B 0
*RES
1 *4034:Y *248:8 42.4329 
2 *248:8 *4113:A 43.2614 
3 *248:8 *4115:B 45.54 
*END

*D_NET *249 0.00400918
*CONN
*I *4125:A3 I *D sky130_fd_sc_hd__o31ai_2
*I *4037:D I *D sky130_fd_sc_hd__or4_2
*I *4036:B I *D sky130_fd_sc_hd__nor2_2
*I *4120:B I *D sky130_fd_sc_hd__and2_2
*I *4118:A I *D sky130_fd_sc_hd__and2_2
*I *4035:X O *D sky130_fd_sc_hd__or4_2
*CAP
1 *4125:A3 0.000117967
2 *4037:D 0.000109583
3 *4036:B 2.71001e-05
4 *4120:B 0.000368635
5 *4118:A 0
6 *4035:X 0.000162474
7 *249:41 0.000239035
8 *249:30 0.000345891
9 *249:17 0.00106799
10 *249:8 0.000554526
11 *4036:B *4037:C 5.50106e-05
12 *4036:B *250:10 6.17437e-06
13 *4037:D *297:10 0
14 *4037:D *300:12 0
15 *4120:B *4120:A 5.50049e-05
16 *4120:B *297:10 0.000184527
17 *4125:A3 *4037:C 0
18 *4125:A3 *297:10 0
19 *4125:A3 *783:38 5.26101e-05
20 *249:8 *4035:C 0.000113624
21 *249:8 *4117:B1 7.03766e-05
22 *249:8 *698:8 0.000169683
23 *249:17 *4117:B1 0.000137061
24 *249:17 *698:8 0.000171906
25 *249:30 *297:10 0
26 *249:41 *4037:C 0
*RES
1 *4035:X *249:8 42.7229 
2 *249:8 *4118:A 38 
3 *249:8 *249:17 9.30071 
4 *249:17 *4120:B 45.3121 
5 *249:17 *249:30 5.42714 
6 *249:30 *4036:B 38.6214 
7 *249:30 *249:41 0.321071 
8 *249:41 *4037:D 39.4189 
9 *249:41 *4125:A3 40.4339 
*END

*D_NET *250 0.00181949
*CONN
*I *4123:B I *D sky130_fd_sc_hd__xnor2_2
*I *4121:A I *D sky130_fd_sc_hd__nor2_2
*I *4036:Y O *D sky130_fd_sc_hd__nor2_2
*CAP
1 *4123:B 0.000260819
2 *4121:A 0
3 *4036:Y 0.000323237
4 *250:10 0.000584056
5 *4123:B *4125:A2 0.000370742
6 *4123:B *298:8 1.57571e-05
7 *4123:B *783:38 0
8 *250:10 *4036:A 9.5877e-05
9 *250:10 *4037:C 1.03836e-05
10 *250:10 *297:10 4.58924e-05
11 *250:10 *783:23 5.70419e-05
12 *250:10 *783:32 4.95081e-05
13 *250:10 *783:38 0
14 *4036:B *250:10 6.17437e-06
*RES
1 *4036:Y *250:10 43.3857 
2 *250:10 *4121:A 38 
3 *250:10 *4123:B 43.7793 
*END

*D_NET *251 0.00718613
*CONN
*I *4039:D I *D sky130_fd_sc_hd__or4_2
*I *4128:B I *D sky130_fd_sc_hd__and2_2
*I *4133:A3 I *D sky130_fd_sc_hd__o31ai_2
*I *4038:B I *D sky130_fd_sc_hd__nor2_2
*I *4126:A I *D sky130_fd_sc_hd__and2_2
*I *4037:X O *D sky130_fd_sc_hd__or4_2
*CAP
1 *4039:D 0.000202893
2 *4128:B 0
3 *4133:A3 0
4 *4038:B 0.000483612
5 *4126:A 0
6 *4037:X 0.000460119
7 *251:46 0.000163968
8 *251:40 0.000332429
9 *251:32 0.000528334
10 *251:19 0.000734157
11 *251:10 0.000354812
12 *251:8 0.000721366
13 *4038:B *4038:A 4.37033e-05
14 *4038:B *4634:A 9.84851e-05
15 *4038:B *253:12 0.000108567
16 *4039:D *253:12 0
17 *4039:D *701:37 8.16356e-05
18 *251:8 *4037:B 0.00014196
19 *251:8 *783:23 1.21972e-05
20 *251:8 *784:24 1.98182e-05
21 *251:10 *4564:RESET_B 0.000206416
22 *251:10 *297:10 0
23 *251:10 *299:10 0.000114635
24 *251:10 *452:14 0
25 *251:10 *659:74 0
26 *251:10 *783:23 0
27 *251:19 *4564:RESET_B 2.08324e-05
28 *251:19 *452:14 0
29 *251:19 *701:37 6.43005e-05
30 *251:32 *253:12 0
31 *251:32 *452:29 0
32 *251:32 *701:37 0.000123428
33 *251:40 *4127:A1 0.000554047
34 *251:40 *4127:B1 0.000301719
35 *251:40 *659:98 0.000456361
36 *251:40 *720:92 0.000230604
37 *251:46 *252:10 0.000434083
38 *251:46 *302:8 0.000191649
39 *251:46 *306:10 0
*RES
1 *4037:X *251:8 44.3386 
2 *251:8 *251:10 6.83571 
3 *251:10 *4126:A 38 
4 *251:10 *251:19 2.25786 
5 *251:19 *4038:B 47.2179 
6 *251:19 *251:32 3.31429 
7 *251:32 *251:40 24.3629 
8 *251:40 *251:46 35.7793 
9 *251:46 *4133:A3 23 
10 *251:40 *4128:B 23 
11 *251:32 *4039:D 41.8529 
*END

*D_NET *252 0.00244019
*CONN
*I *4129:A I *D sky130_fd_sc_hd__nor2_2
*I *4131:B I *D sky130_fd_sc_hd__xnor2_2
*I *4038:Y O *D sky130_fd_sc_hd__nor2_2
*CAP
1 *4129:A 0
2 *4131:B 4.996e-05
3 *4038:Y 0
4 *252:10 0.000518581
5 *252:6 0.000468621
6 *4131:B *303:8 5.41288e-05
7 *252:10 *4038:A 0.000193388
8 *252:10 *4131:A 0.000121943
9 *252:10 *4133:A1 0.000247678
10 *252:10 *302:8 0.000129697
11 *252:10 *481:53 0
12 *252:10 *786:10 0.000222113
13 *251:46 *252:10 0.000434083
*RES
1 *4038:Y *252:6 38 
2 *252:6 *252:10 28.8786 
3 *252:10 *4131:B 24.0979 
4 *252:10 *4129:A 23 
*END

*D_NET *253 0.0137156
*CONN
*I *4134:A I *D sky130_fd_sc_hd__and2_2
*I *4142:A3 I *D sky130_fd_sc_hd__o31a_2
*I *4041:A I *D sky130_fd_sc_hd__nor2_2
*I *4042:C I *D sky130_fd_sc_hd__or4_2
*I *4147:A2 I *D sky130_fd_sc_hd__o31a_2
*I *4137:B I *D sky130_fd_sc_hd__nand2_2
*I *4136:B I *D sky130_fd_sc_hd__nor2_2
*I *4039:X O *D sky130_fd_sc_hd__or4_2
*CAP
1 *4134:A 0.000380407
2 *4142:A3 0.000388392
3 *4041:A 0
4 *4042:C 0
5 *4147:A2 0.000156098
6 *4137:B 0.000112423
7 *4136:B 0.000665091
8 *4039:X 0
9 *253:78 0.00105191
10 *253:56 0.000367579
11 *253:52 0.00183065
12 *253:46 0.00110877
13 *253:16 0.00101416
14 *253:12 0.00110172
15 *253:6 0.00109236
16 *4134:A *4479:CLK 0.00010514
17 *4134:A *4568:RESET_B 7.20519e-05
18 *4134:A *272:28 0
19 *4134:A *305:10 0
20 *4134:A *452:29 0.000340163
21 *4134:A *481:53 1.34354e-05
22 *4134:A *988:8 0
23 *4136:B *4136:A 0.000154038
24 *4136:B *4137:A 6.33767e-05
25 *4136:B *307:6 1.76557e-05
26 *4136:B *308:8 0.000642997
27 *4136:B *309:10 3.22879e-05
28 *4137:B *4137:A 0
29 *4142:A3 *791:14 9.84794e-05
30 *4142:A3 *791:31 2.4754e-05
31 *4147:A2 *4042:A 0.000283668
32 *4147:A2 *4042:D 0.000583024
33 *4147:A2 *4147:A1 1.14154e-05
34 *4147:A2 *254:14 5.50049e-05
35 *253:12 *4038:A 7.88926e-05
36 *253:12 *4568:RESET_B 2.8936e-05
37 *253:12 *4634:A 1.94812e-05
38 *253:12 *452:29 0.000394573
39 *253:12 *701:37 0
40 *253:46 *4038:A 6.48049e-05
41 *253:46 *702:27 0.000102083
42 *253:52 *481:24 0
43 *253:52 *481:32 0.000339242
44 *253:52 *702:27 0.000536103
45 *253:56 *4715:A 9.85586e-06
46 *253:56 *481:32 6.48049e-05
47 *253:56 *531:32 7.76364e-06
48 *253:56 *702:27 9.65492e-05
49 *253:78 *4041:B 9.68547e-05
50 *4038:B *253:12 0.000108567
51 *4039:D *253:12 0
52 *251:32 *253:12 0
*RES
1 *4039:X *253:6 38 
2 *253:6 *253:12 27.2421 
3 *253:12 *253:16 3.02429 
4 *253:16 *4136:B 38.1421 
5 *253:16 *4137:B 25.4236 
6 *253:12 *253:46 19.0186 
7 *253:46 *253:52 13.9407 
8 *253:52 *253:56 19.0186 
9 *253:56 *4147:A2 29.8357 
10 *253:56 *4042:C 23 
11 *253:52 *253:78 28.8786 
12 *253:78 *4041:A 23 
13 *253:46 *4142:A3 44.3386 
14 *253:6 *4134:A 46.5136 
*END

*D_NET *254 0.00482373
*CONN
*I *4041:B I *D sky130_fd_sc_hd__nor2_2
*I *4042:D I *D sky130_fd_sc_hd__or4_2
*I *4147:A3 I *D sky130_fd_sc_hd__o31a_2
*I *4040:X O *D sky130_fd_sc_hd__or3_2
*CAP
1 *4041:B 0.000157755
2 *4042:D 0.000328966
3 *4147:A3 0
4 *4040:X 0
5 *254:14 0.000598064
6 *254:8 0.00118249
7 *254:6 0.000755632
8 *4042:D *4042:A 0.000108568
9 *4042:D *697:10 5.50106e-05
10 *254:8 *4142:A1 0.000140958
11 *254:8 *4145:A 0.000211578
12 *254:8 *449:362 0
13 *254:8 *451:8 0
14 *254:8 *531:42 0
15 *254:8 *659:37 0.000118715
16 *254:8 *660:12 0
17 *254:8 *660:14 0
18 *254:8 *790:12 0.000157455
19 *254:14 *4042:A 1.22822e-05
20 *254:14 *4145:A 3.31127e-05
21 *254:14 *314:10 0.00010018
22 *254:14 *451:8 0
23 *254:14 *660:14 0
24 *254:14 *792:12 0.000128079
25 *4147:A2 *4042:D 0.000583024
26 *4147:A2 *254:14 5.50049e-05
27 *253:78 *4041:B 9.68547e-05
*RES
1 *4040:X *254:6 38 
2 *254:6 *254:8 16.3436 
3 *254:8 *254:14 21.3179 
4 *254:14 *4147:A3 23 
5 *254:14 *4042:D 31.2857 
6 *254:8 *4041:B 41.0036 
*END

*D_NET *255 0.0015897
*CONN
*I *4145:B I *D sky130_fd_sc_hd__xnor2_2
*I *4143:A I *D sky130_fd_sc_hd__nor2_2
*I *4041:Y O *D sky130_fd_sc_hd__nor2_2
*CAP
1 *4145:B 0.000124687
2 *4143:A 0.000169904
3 *4041:Y 0.000220862
4 *255:10 0.000294591
5 *255:8 0.000220862
6 *4143:A *4144:A1 2.93747e-05
7 *4143:A *4144:A2 8.28854e-05
8 *4145:B *4144:A1 3.13428e-05
9 *4145:B *4145:A 5.50106e-05
10 *4145:B *659:37 9.58714e-05
11 *255:8 *660:14 0.000203929
12 *255:8 *769:8 6.03841e-05
*RES
1 *4041:Y *255:8 43.4271 
2 *255:8 *255:10 15 
3 *255:10 *4143:A 26.5007 
4 *255:10 *4145:B 25.5271 
*END

*D_NET *256 0.00441039
*CONN
*I *4148:A2 I *D sky130_fd_sc_hd__o21ai_2
*I *4150:A2 I *D sky130_fd_sc_hd__a21bo_2
*I *4043:B I *D sky130_fd_sc_hd__nor2_2
*I *4042:X O *D sky130_fd_sc_hd__or4_2
*CAP
1 *4148:A2 2.34823e-05
2 *4150:A2 0
3 *4043:B 0.000337178
4 *4042:X 0.000277173
5 *256:33 0.000355904
6 *256:25 0.00104541
7 *256:8 0.00128038
8 *4043:B *4043:A 5.67058e-05
9 *4043:B *4114:B1 5.76076e-05
10 *4043:B *479:23 0.000195248
11 *4043:B *594:8 0
12 *4043:B *660:28 0
13 *256:8 *3845:A 0
14 *256:8 *4114:A1 0
15 *256:8 *4114:B1 6.7177e-06
16 *256:8 *4116:A1 0
17 *256:8 *479:23 1.01436e-05
18 *256:8 *531:22 0
19 *256:8 *531:32 0
20 *256:8 *794:12 4.59027e-05
21 *256:25 *4114:A1 0.000227208
22 *256:25 *4632:A 5.41288e-05
23 *256:25 *315:10 5.70419e-05
24 *256:25 *658:8 0.000193729
25 *256:25 *658:36 0.000186431
26 *256:33 *345:8 0
27 *256:33 *658:20 0
*RES
1 *4042:X *256:8 43.075 
2 *256:8 *4043:B 44.67 
3 *256:8 *256:25 29.9143 
4 *256:25 *256:33 36.525 
5 *256:33 *4150:A2 23 
6 *256:25 *4148:A2 23.4971 
*END

*D_NET *257 0.000605979
*CONN
*I *4658:A I *D sky130_fd_sc_hd__clkdlybuf4s25_1
*I *4043:Y O *D sky130_fd_sc_hd__nor2_2
*CAP
1 *4658:A 0
2 *4043:Y 0.000205411
3 *257:8 0.000205411
4 *257:8 *4114:B1 0
5 *257:8 *657:92 0
6 *257:8 *660:28 0.000195157
*RES
1 *4043:Y *257:8 43.075 
2 *257:8 *4658:A 38 
*END

*D_NET *258 0.00136593
*CONN
*I *4052:C I *D sky130_fd_sc_hd__or3_2
*I *4046:C I *D sky130_fd_sc_hd__or3_2
*I *4045:X O *D sky130_fd_sc_hd__or3b_2
*CAP
1 *4052:C 0
2 *4046:C 0.000187545
3 *4045:X 0.000305612
4 *258:12 0.000187545
5 *258:10 0.000305612
6 *4046:C *4052:A 2.93747e-05
7 *4046:C *261:8 5.29672e-05
8 *258:10 *750:25 0.000274078
9 *4052:B *4046:C 2.3191e-05
10 *149:18 *258:10 0
*RES
1 *4045:X *258:10 42.9093 
2 *258:10 *258:12 15 
3 *258:12 *4046:C 26.9979 
4 *258:12 *4052:C 23 
*END

*D_NET *259 0.00940758
*CONN
*I *4063:A3 I *D sky130_fd_sc_hd__o31a_2
*I *4050:A2 I *D sky130_fd_sc_hd__o21a_2
*I *4051:A2 I *D sky130_fd_sc_hd__o21a_2
*I *4047:B I *D sky130_fd_sc_hd__or2_2
*I *4060:C I *D sky130_fd_sc_hd__or3_2
*I *4064:A3 I *D sky130_fd_sc_hd__o31a_2
*I *4046:X O *D sky130_fd_sc_hd__or3_2
*CAP
1 *4063:A3 0
2 *4050:A2 0
3 *4051:A2 0
4 *4047:B 0.00042559
5 *4060:C 5.58531e-05
6 *4064:A3 0.000124458
7 *4046:X 0
8 *259:50 0.000595323
9 *259:44 0.000315384
10 *259:38 0.000673174
11 *259:21 0.000803368
12 *259:8 0.000969543
13 *259:6 0.000625094
14 *4047:B *449:67 9.67908e-05
15 *4047:B *666:81 0.000122053
16 *4047:B *668:52 0
17 *4047:B *672:106 1.47563e-05
18 *4047:B *721:14 0
19 *4060:C *4060:A 0.000186038
20 *4060:C *4459:RESET_B 0.000168852
21 *4064:A3 *3901:B 5.74176e-05
22 *4064:A3 *4064:A1 0.000135037
23 *4064:A3 *4064:A2 5.63425e-05
24 *4064:A3 *4064:B1 4.83798e-05
25 *4064:A3 *668:31 9.41704e-05
26 *259:8 *4469:RESET_B 4.83778e-05
27 *259:8 *261:12 0
28 *259:8 *757:26 0
29 *259:8 *758:27 0
30 *259:38 *449:113 6.7911e-05
31 *259:38 *505:28 6.25038e-05
32 *259:38 *714:61 8.30505e-05
33 *259:44 *535:10 6.48142e-05
34 *259:44 *668:52 3.3123e-05
35 *259:44 *686:10 5.61611e-05
36 *259:44 *721:14 5.15908e-05
37 *259:50 *3902:C_N 0.000142036
38 *259:50 *4050:B1 9.84794e-05
39 *259:50 *666:81 1.88972e-05
40 *259:50 *721:14 0
41 *3953:A *259:8 0.000225265
42 *4047:A *4047:B 1.35999e-05
43 *42:10 *259:50 0.000136486
44 *49:10 *4047:B 0.000166444
45 *50:14 *4060:C 3.96473e-05
46 *50:14 *4064:A3 0.000135037
47 *50:14 *259:21 0.000167262
48 *50:14 *259:38 9.49424e-05
49 *86:8 *259:8 0.00100807
50 *86:8 *259:21 0.000228829
51 *86:65 *259:21 0.000198071
52 *86:65 *259:38 8.52083e-06
53 *86:103 *259:38 0.000178329
54 *86:103 *259:44 4.70953e-05
55 *86:103 *259:50 2.02872e-05
56 *131:10 *4047:B 1.14452e-05
57 *131:10 *259:50 0.000165593
58 *131:17 *259:50 0.00026808
59 *137:14 *259:38 0
60 *149:18 *259:8 0
*RES
1 *4046:X *259:6 38 
2 *259:6 *259:8 16.3436 
3 *259:8 *4064:A3 41.48 
4 *259:8 *259:21 6.47321 
5 *259:21 *4060:C 40.6204 
6 *259:21 *259:38 26.2996 
7 *259:38 *259:44 33.3143 
8 *259:44 *259:50 21.09 
9 *259:50 *4047:B 47.1764 
10 *259:50 *4051:A2 38 
11 *259:44 *4050:A2 23 
12 *259:38 *4063:A3 23 
*END

*D_NET *260 0.00386532
*CONN
*I *4048:B I *D sky130_fd_sc_hd__and2_2
*I *4049:B I *D sky130_fd_sc_hd__and2_2
*I *4047:X O *D sky130_fd_sc_hd__or2_2
*CAP
1 *4048:B 0
2 *4049:B 0.000117978
3 *4047:X 0.000315387
4 *260:41 0.00069528
5 *260:14 0.000875053
6 *260:10 0.000377181
7 *4049:B *4049:A 0.000356724
8 *4049:B *532:10 0.000358425
9 *4049:B *714:61 4.95081e-05
10 *260:10 *515:8 9.84794e-05
11 *260:10 *642:26 0
12 *260:10 *684:8 0.000167452
13 *260:14 *4049:A 0.000140259
14 *260:41 *3996:C 0.0001082
15 *260:41 *4703:A 5.67309e-05
16 *260:41 *461:20 0
17 *260:41 *642:26 9.48381e-06
18 *260:41 *684:8 0
19 *260:41 *685:73 6.53303e-05
20 *260:41 *692:18 1.95604e-05
21 *211:54 *260:41 4.9662e-05
22 *213:12 *260:41 4.6318e-06
*RES
1 *4047:X *260:10 43.7379 
2 *260:10 *260:14 16.5743 
3 *260:14 *4049:B 28.4064 
4 *260:14 *260:41 41.7657 
5 *260:41 *4048:B 23 
*END

*D_NET *261 0.016083
*CONN
*I *4068:C I *D sky130_fd_sc_hd__or3_2
*I *4055:B I *D sky130_fd_sc_hd__nor2_2
*I *4056:B I *D sky130_fd_sc_hd__or2_2
*I *4054:A2 I *D sky130_fd_sc_hd__o21a_2
*I *4053:A2 I *D sky130_fd_sc_hd__o21a_2
*I *4065:C I *D sky130_fd_sc_hd__or3_2
*I *4052:X O *D sky130_fd_sc_hd__or3_2
*CAP
1 *4068:C 0.000620567
2 *4055:B 0.000310101
3 *4056:B 8.6348e-05
4 *4054:A2 0.000221019
5 *4053:A2 0.000205372
6 *4065:C 9.81512e-05
7 *4052:X 6.00117e-05
8 *261:69 0.00115023
9 *261:65 0.00196641
10 *261:41 0.00153005
11 *261:22 0.00253922
12 *261:12 0.00239818
13 *261:8 0.000528716
14 *4053:A2 *4053:B1 0.000100477
15 *4055:B *4753:A 0.000120644
16 *4055:B *449:27 4.80423e-06
17 *4055:B *462:12 0
18 *4055:B *558:10 0
19 *4056:B *4623:A 2.19403e-05
20 *4056:B *4759:A 9.91548e-05
21 *4065:C *666:42 0.000166522
22 *4065:C *672:37 0
23 *4068:C *4068:B 1.31042e-05
24 *4068:C *4349:B1 0.000115
25 *4068:C *4349:B2 2.93845e-05
26 *4068:C *4736:A 7.97636e-05
27 *4068:C *671:40 3.7122e-06
28 *4068:C *671:55 1.89178e-05
29 *261:8 *4052:A 5.67058e-05
30 *261:12 *4052:A 0
31 *261:12 *4420:CLK 0
32 *261:12 *4469:RESET_B 0
33 *261:12 *469:10 0
34 *261:12 *671:8 0.000137788
35 *261:12 *671:16 0
36 *261:12 *757:26 0.000203837
37 *261:12 *758:8 8.51329e-05
38 *261:22 *4692:A 0.000395895
39 *261:22 *666:8 7.88202e-05
40 *261:22 *671:12 1.21972e-05
41 *261:22 *672:10 9.67842e-05
42 *261:41 *497:27 0.000132842
43 *261:41 *497:29 8.87345e-05
44 *261:41 *515:14 3.7122e-06
45 *261:41 *666:42 2.77955e-05
46 *261:41 *672:37 0
47 *261:65 *671:12 0.000220047
48 *261:65 *671:40 0.000148167
49 *261:69 *3910:C 0
50 *261:69 *4460:RESET_B 0.000139006
51 *261:69 *4753:A 4.53474e-05
52 *261:69 *264:8 0
53 *261:69 *449:27 3.41998e-06
54 *261:69 *498:20 1.17049e-05
55 *261:69 *508:12 0.000266674
56 *261:69 *671:55 5.21127e-05
57 *261:69 *673:23 6.48142e-05
58 *261:69 *673:32 8.94487e-05
59 *261:69 *673:45 0.000164203
60 *4046:C *261:8 5.29672e-05
61 *4052:B *261:8 0.00010018
62 *4053:A1 *4053:A2 0.000115619
63 *4054:A1 *4054:A2 0.000380939
64 *4737:A *261:65 5.70419e-05
65 *44:10 *261:41 8.7975e-05
66 *87:8 *261:22 2.38288e-05
67 *111:99 *261:69 3.3123e-05
68 *131:41 *4055:B 0
69 *134:8 *261:41 7.84093e-05
70 *142:20 *4053:A2 5.3304e-05
71 *142:20 *4054:A2 5.19959e-05
72 *142:20 *261:41 3.46013e-05
73 *149:18 *261:12 0
74 *259:8 *261:12 0
*RES
1 *4052:X *261:8 40.0507 
2 *261:8 *261:12 25.3571 
3 *261:12 *261:22 35.3414 
4 *261:22 *4065:C 40.2579 
5 *261:22 *261:41 47.4621 
6 *261:41 *4053:A2 41.9564 
7 *261:41 *4054:A2 43.7793 
8 *261:12 *261:65 10.3157 
9 *261:65 *261:69 32.4 
10 *261:69 *4056:B 39.5743 
11 *261:69 *4055:B 44.1314 
12 *261:65 *4068:C 32.0936 
*END

*D_NET *262 0.00299584
*CONN
*I *4059:B1 I *D sky130_fd_sc_hd__a211oi_2
*I *4055:Y O *D sky130_fd_sc_hd__nor2_2
*CAP
1 *4059:B1 0
2 *4055:Y 0.000340954
3 *262:12 0.000476418
4 *262:8 0.000817372
5 *262:8 *691:32 0.000118143
6 *262:12 *263:8 0
7 *262:12 *470:64 0
8 *262:12 *541:23 0.000411767
9 *45:10 *262:12 8.84375e-05
10 *46:8 *262:12 0.000557323
11 *131:41 *262:8 0.000185428
12 *131:41 *262:12 0
*RES
1 *4055:Y *262:8 43.3857 
2 *262:8 *262:12 28.1743 
3 *262:12 *4059:B1 23 
*END

*D_NET *263 0.0010418
*CONN
*I *4058:A2 I *D sky130_fd_sc_hd__a31o_2
*I *4056:X O *D sky130_fd_sc_hd__or2_2
*CAP
1 *4058:A2 0.000157533
2 *4056:X 0.000113831
3 *263:8 0.000271364
4 *4058:A2 *714:63 0.000227208
5 *263:8 *264:23 0.00019747
6 *45:10 *263:8 4.83778e-05
7 *131:41 *263:8 2.60152e-05
8 *262:12 *263:8 0
*RES
1 *4056:X *263:8 41.3143 
2 *263:8 *4058:A2 40.5271 
*END

*D_NET *264 0.00620423
*CONN
*I *4058:A3 I *D sky130_fd_sc_hd__a31o_2
*I *4059:A2 I *D sky130_fd_sc_hd__a211oi_2
*I *4057:X O *D sky130_fd_sc_hd__or3b_2
*CAP
1 *4058:A3 0
2 *4059:A2 0
3 *4057:X 0
4 *264:23 0.000471468
5 *264:8 0.00132828
6 *264:6 0.000856809
7 *264:8 *3893:A2 4.41821e-06
8 *264:8 *3910:C 0.000163352
9 *264:8 *3910:D 0.000568125
10 *264:8 *4057:B 7.63602e-05
11 *264:8 *4740:A 0.000335527
12 *264:8 *269:10 0
13 *264:8 *470:20 0.000183259
14 *264:8 *499:14 0.000169674
15 *264:8 *508:12 5.71002e-06
16 *264:8 *732:10 0.000188926
17 *264:8 *757:12 0.000177904
18 *264:23 *3893:A2 4.46184e-05
19 *264:23 *4759:A 0.000216926
20 *264:23 *470:18 0.000159425
21 *264:23 *470:20 0.000226087
22 *264:23 *714:63 0.0002263
23 *45:10 *264:23 2.93747e-05
24 *53:10 *264:8 0
25 *111:99 *264:8 0.000298923
26 *131:41 *264:23 0.000250602
27 *160:38 *264:8 2.46933e-05
28 *261:69 *264:8 0
29 *263:8 *264:23 0.00019747
*RES
1 *4057:X *264:6 38 
2 *264:6 *264:8 26.2036 
3 *264:8 *4059:A2 38 
4 *264:8 *264:23 29.9143 
5 *264:23 *4058:A3 23 
*END

*D_NET *265 0.00190588
*CONN
*I *4062:B I *D sky130_fd_sc_hd__and2_2
*I *4061:B I *D sky130_fd_sc_hd__and2_2
*I *4060:X O *D sky130_fd_sc_hd__or3_2
*CAP
1 *4062:B 5.04232e-05
2 *4061:B 0
3 *4060:X 0.000260967
4 *265:12 0.000164776
5 *265:8 0.000375319
6 *4062:B *4061:A 0.000187129
7 *4062:B *714:63 0.000274078
8 *265:8 *469:60 0
9 *265:12 *714:61 9.45591e-05
10 *265:12 *714:63 5.50106e-05
11 *47:8 *265:8 0.00015049
12 *137:14 *265:8 0.000293129
*RES
1 *4060:X *265:8 45.8921 
2 *265:8 *265:12 17.5271 
3 *265:12 *4061:B 23 
4 *265:12 *4062:B 26.0036 
*END

*D_NET *266 0.00241961
*CONN
*I *4066:B I *D sky130_fd_sc_hd__and2_2
*I *4067:B I *D sky130_fd_sc_hd__and2_2
*I *4065:X O *D sky130_fd_sc_hd__or3_2
*CAP
1 *4066:B 0
2 *4067:B 0.000143396
3 *4065:X 0.000344094
4 *266:10 0.00048749
5 *4067:B *4067:A 0.000181919
6 *266:10 *3898:A 0.000229104
7 *266:10 *3898:C 0.000351508
8 *266:10 *4067:A 2.18409e-05
9 *266:10 *545:8 8.82787e-05
10 *266:10 *666:18 4.00259e-06
11 *133:10 *266:10 0.000567979
*RES
1 *4065:X *266:10 34.1443 
2 *266:10 *4067:B 26.0036 
3 *266:10 *4066:B 23 
*END

*D_NET *267 0.00227029
*CONN
*I *4072:B1 I *D sky130_fd_sc_hd__o211a_2
*I *4071:A2 I *D sky130_fd_sc_hd__a31o_2
*I *4068:X O *D sky130_fd_sc_hd__or3_2
*CAP
1 *4072:B1 0
2 *4071:A2 0.000363779
3 *4068:X 0.000440067
4 *267:8 0.000803846
5 *4071:A2 *4071:B1 0.000267167
6 *4071:A2 *268:10 6.16531e-05
7 *267:8 *4475:RESET_B 0.000150461
8 *267:8 *668:10 9.67719e-05
9 *267:8 *669:82 0
10 *267:8 *687:26 3.04021e-05
11 *54:10 *267:8 5.61414e-05
*RES
1 *4068:X *267:8 48.7093 
2 *267:8 *4071:A2 44.4214 
3 *267:8 *4072:B1 38 
*END

*D_NET *268 0.000891087
*CONN
*I *4072:A2 I *D sky130_fd_sc_hd__o211a_2
*I *4069:Y O *D sky130_fd_sc_hd__nor3_2
*CAP
1 *4072:A2 0
2 *4069:Y 0.000414717
3 *268:10 0.000414717
4 *268:10 *669:82 0
5 *4071:A2 *268:10 6.16531e-05
*RES
1 *4069:Y *268:10 45.4779 
2 *268:10 *4072:A2 38 
*END

*D_NET *269 0.00101833
*CONN
*I *4071:A3 I *D sky130_fd_sc_hd__a31o_2
*I *4070:X O *D sky130_fd_sc_hd__or3_2
*CAP
1 *4071:A3 0
2 *4070:X 0.00042939
3 *269:10 0.00042939
4 *269:10 *4069:B 0.000138718
5 *269:10 *560:10 2.08324e-05
6 *269:10 *669:82 0
7 *269:10 *757:12 0
8 *264:8 *269:10 0
*RES
1 *4070:X *269:10 45.8093 
2 *269:10 *4071:A3 38 
*END

*D_NET *270 0.00587703
*CONN
*I *4074:B I *D sky130_fd_sc_hd__or2_2
*I *4085:B1 I *D sky130_fd_sc_hd__o2bb2a_2
*I *4389:A2_N I *D sky130_fd_sc_hd__a2bb2o_2
*I *4073:X O *D sky130_fd_sc_hd__or3_2
*CAP
1 *4074:B 3.61557e-05
2 *4085:B1 0.000402928
3 *4389:A2_N 0
4 *4073:X 0
5 *270:23 0.00102839
6 *270:12 0.000697345
7 *270:4 0.00128665
8 *4085:B1 *993:10 7.74854e-05
9 *270:12 *3891:A1 0.000176092
10 *270:12 *4369:B 8.79125e-05
11 *270:12 *4733:A 0.000516178
12 *270:12 *650:25 9.91798e-05
13 *270:12 *650:34 2.02872e-05
14 *270:12 *1022:59 0
15 *270:12 *1023:29 0.000380333
16 *270:12 *1024:44 0.000310635
17 *270:12 *1024:74 0
18 *270:23 *3891:A1 0.00035717
19 *270:23 *486:10 0
20 *270:23 *486:12 0
21 *270:23 *486:22 0
22 *270:23 *580:16 8.36198e-05
23 *270:23 *710:10 6.50205e-05
24 *270:23 *1024:29 0
25 *4074:A *4074:B 2.95423e-05
26 *122:16 *270:12 0.000222104
*RES
1 *4073:X *270:4 23 
2 *270:4 *270:12 48.8707 
3 *270:12 *4389:A2_N 23 
4 *270:4 *270:23 26.5793 
5 *270:23 *4085:B1 45.8921 
6 *270:23 *4074:B 38.6214 
*END

*D_NET *271 0.00789844
*CONN
*I *4093:C I *D sky130_fd_sc_hd__and3_2
*I *4091:B I *D sky130_fd_sc_hd__nand2_2
*I *4089:B I *D sky130_fd_sc_hd__nand2_2
*I *4084:B I *D sky130_fd_sc_hd__nand3_2
*I *4077:B1 I *D sky130_fd_sc_hd__o21ai_2
*I *4075:B I *D sky130_fd_sc_hd__nand2_2
*I *4074:X O *D sky130_fd_sc_hd__or2_2
*CAP
1 *4093:C 0.000335828
2 *4091:B 0.000136446
3 *4089:B 0.000374789
4 *4084:B 3.80122e-05
5 *4077:B1 0.00039278
6 *4075:B 0
7 *4074:X 0.000243765
8 *271:56 0.000950801
9 *271:43 0.00100106
10 *271:19 0.00107896
11 *271:15 0.000833679
12 *271:6 0.000281534
13 *4077:B1 *4077:A1 5.67058e-05
14 *4077:B1 *4483:D 0.000223043
15 *4077:B1 *272:12 9.27917e-05
16 *4077:B1 *487:8 3.56537e-05
17 *4077:B1 *487:10 2.22079e-05
18 *4077:B1 *487:16 9.88442e-05
19 *4077:B1 *487:73 9.20311e-06
20 *4089:B *279:16 2.69681e-05
21 *4089:B *995:10 8.30457e-05
22 *4091:B *4092:B1 9.84794e-05
23 *4091:B *710:26 6.9805e-05
24 *4093:C *4486:CLK 9.98995e-05
25 *4093:C *997:8 0.000113153
26 *271:19 *4483:D 7.55006e-05
27 *271:19 *487:73 0.000247599
28 *271:19 *992:8 7.03766e-05
29 *271:19 *1003:12 0.000107715
30 *271:43 *486:22 0
31 *271:56 *486:10 0
32 *271:56 *486:12 0
33 *271:56 *486:22 0
34 *271:56 *995:10 4.69696e-05
35 *271:56 *996:10 4.30463e-05
36 *4075:A *271:43 0
37 *118:8 *4084:B 5.3304e-05
38 *119:25 *4089:B 2.64616e-05
39 *119:34 *4089:B 0.000134705
40 *119:47 *4089:B 1.61385e-05
41 *120:26 *4089:B 0.000224892
42 *121:10 *271:56 4.23817e-05
43 *121:19 *4093:C 5.93981e-05
44 *121:19 *271:56 1.19692e-05
45 *121:32 *4093:C 4.05309e-05
46 *123:10 *4093:C 0
47 *123:10 *271:43 0
48 *123:10 *271:56 0
*RES
1 *4074:X *271:6 27.4329 
2 *271:6 *4075:B 23 
3 *271:6 *271:15 15.6214 
4 *271:15 *271:19 12.5114 
5 *271:19 *4077:B1 47.4043 
6 *271:19 *4084:B 38.6214 
7 *271:15 *271:43 2.61 
8 *271:43 *4089:B 46.6171 
9 *271:43 *271:56 9.30071 
10 *271:56 *4091:B 41.0243 
11 *271:56 *4093:C 44.6493 
*END

*D_NET *272 0.00602819
*CONN
*I *4088:B1 I *D sky130_fd_sc_hd__a21oi_2
*I *4082:B1 I *D sky130_fd_sc_hd__a21oi_2
*I *4080:B1 I *D sky130_fd_sc_hd__a21oi_2
*I *4076:B I *D sky130_fd_sc_hd__nor2_2
*I *4075:Y O *D sky130_fd_sc_hd__nand2_2
*CAP
1 *4088:B1 0
2 *4082:B1 0
3 *4080:B1 0
4 *4076:B 0
5 *4075:Y 0.000180352
6 *272:28 0.000493565
7 *272:20 0.000809333
8 *272:12 0.00114364
9 *272:10 0.00100823
10 *272:10 *278:8 3.50862e-06
11 *272:12 *4077:A1 0
12 *272:12 *4480:CLK 0
13 *272:12 *4480:RESET_B 0
14 *272:12 *4482:SET_B 0.000193024
15 *272:12 *4483:D 0.000818638
16 *272:12 *276:10 0
17 *272:12 *278:8 3.75968e-05
18 *272:12 *487:16 0
19 *272:12 *1003:12 1.39826e-05
20 *272:12 *1003:33 1.57794e-05
21 *272:20 *4480:CLK 6.37358e-05
22 *272:20 *4480:RESET_B 0
23 *272:20 *991:10 0.000114092
24 *272:20 *998:36 0
25 *272:28 *4568:RESET_B 0
26 *272:28 *570:10 0.000115529
27 *272:28 *636:6 7.88926e-05
28 *272:28 *701:37 0.00012837
29 *272:28 *988:8 0.000382564
30 *272:28 *990:8 5.45887e-05
31 *272:28 *998:65 0.000140259
32 *3880:D *272:12 0
33 *4075:A *272:10 0.000100477
34 *4077:B1 *272:12 9.27917e-05
35 *4080:A1 *272:20 0
36 *4080:A1 *272:28 3.92407e-05
37 *4134:A *272:28 0
38 *117:28 *272:12 0
*RES
1 *4075:Y *272:10 41.7079 
2 *272:10 *272:12 19.865 
3 *272:12 *272:20 21.1936 
4 *272:20 *272:28 43.34 
5 *272:28 *4076:B 23 
6 *272:20 *4080:B1 23 
7 *272:12 *4082:B1 38 
8 *272:10 *4088:B1 38 
*END

*D_NET *273 0.000849008
*CONN
*I *4078:B1 I *D sky130_fd_sc_hd__a21o_2
*I *4077:Y O *D sky130_fd_sc_hd__o21ai_2
*CAP
1 *4078:B1 6.80978e-05
2 *4077:Y 0.000230762
3 *273:8 0.000298859
4 *273:8 *989:10 0
5 *273:8 *999:12 0.000169683
6 *273:8 *999:49 8.1606e-05
*RES
1 *4077:Y *273:8 43.4271 
2 *273:8 *4078:B1 39.0979 
*END

*D_NET *274 0.000178592
*CONN
*I *4080:A2 I *D sky130_fd_sc_hd__a21oi_2
*I *4079:Y O *D sky130_fd_sc_hd__o21ai_2
*CAP
1 *4080:A2 2.30617e-05
2 *4079:Y 2.30617e-05
3 *4080:A2 *4079:A1 0.00010018
4 *4080:A2 *636:6 3.22879e-05
*RES
1 *4079:Y *4080:A2 47.0979 
*END

*D_NET *275 0.000247929
*CONN
*I *4082:A2 I *D sky130_fd_sc_hd__a21oi_2
*I *4081:Y O *D sky130_fd_sc_hd__nand2_2
*CAP
1 *4082:A2 7.83299e-05
2 *4081:Y 7.83299e-05
3 *4082:A2 *605:8 9.12696e-05
*RES
1 *4081:Y *4082:A2 47.8125 
*END

*D_NET *276 0.00146658
*CONN
*I *4084:C I *D sky130_fd_sc_hd__nand3_2
*I *4083:Y O *D sky130_fd_sc_hd__nand2_2
*CAP
1 *4084:C 5.56923e-05
2 *4083:Y 0.000510413
3 *276:10 0.000566105
4 *276:10 *1004:10 5.14746e-06
5 *3880:D *276:10 7.75329e-06
6 *4083:B *276:10 0.000177909
7 *117:28 *276:10 2.22183e-05
8 *117:41 *276:10 6.46393e-05
9 *118:8 *4084:C 5.67058e-05
10 *272:12 *276:10 0
*RES
1 *4083:Y *276:10 47.0521 
2 *276:10 *4084:C 39.0979 
*END

*D_NET *277 0.00126786
*CONN
*I *4086:B1 I *D sky130_fd_sc_hd__o21ai_2
*I *4085:X O *D sky130_fd_sc_hd__o2bb2a_2
*CAP
1 *4086:B1 0.000225649
2 *4085:X 0.000243628
3 *277:8 0.000469277
4 *4086:B1 *4086:A1 2.64616e-05
5 *4086:B1 *993:10 1.24362e-05
6 *277:8 *486:22 0.000245869
7 *4086:A2 *277:8 2.271e-05
8 *118:14 *277:8 2.35118e-06
9 *118:25 *277:8 1.94812e-05
*RES
1 *4085:X *277:8 43.4271 
2 *277:8 *4086:B1 41.48 
*END

*D_NET *278 0.000516343
*CONN
*I *4088:A2 I *D sky130_fd_sc_hd__a21oi_2
*I *4087:Y O *D sky130_fd_sc_hd__o21ai_2
*CAP
1 *4088:A2 0.000103054
2 *4087:Y 7.32913e-05
3 *278:8 0.000176345
4 *4088:A1 *4088:A2 5.5792e-05
5 *119:10 *278:8 6.67555e-05
6 *272:10 *278:8 3.50862e-06
7 *272:12 *278:8 3.75968e-05
*RES
1 *4087:Y *278:8 39.9057 
2 *278:8 *4088:A2 39.5743 
*END

*D_NET *279 0.00155614
*CONN
*I *4090:B1 I *D sky130_fd_sc_hd__a21o_2
*I *4089:Y O *D sky130_fd_sc_hd__nand2_2
*CAP
1 *4090:B1 0
2 *4089:Y 0.000547105
3 *279:16 0.000547105
4 *4089:B *279:16 2.69681e-05
5 *119:25 *279:16 5.3304e-05
6 *119:34 *279:16 0.000128251
7 *119:47 *279:16 0.000242146
8 *120:26 *279:16 1.1258e-05
*RES
1 *4089:Y *279:16 32.7771 
2 *279:16 *4090:B1 23 
*END

*D_NET *280 0.000380977
*CONN
*I *4092:B1 I *D sky130_fd_sc_hd__a21o_2
*I *4091:Y O *D sky130_fd_sc_hd__nand2_2
*CAP
1 *4092:B1 5.58202e-05
2 *4091:Y 5.58202e-05
3 *4092:B1 *710:26 7.23724e-05
4 *4092:B1 *996:10 9.84851e-05
5 *4091:B *4092:B1 9.84794e-05
*RES
1 *4091:Y *4092:B1 48.0507 
*END

*D_NET *281 0.00566181
*CONN
*I *4681:A I *D sky130_fd_sc_hd__clkdlybuf4s25_1
*I *4094:Y O *D sky130_fd_sc_hd__nand2_2
*CAP
1 *4681:A 0
2 *4094:Y 9.83074e-06
3 *281:20 0.00266898
4 *281:10 0.00267881
5 *281:10 *449:222 9.85586e-06
6 *281:10 *519:10 2.46922e-05
7 *281:20 *309:10 0.000180939
8 *281:20 *531:59 8.87001e-05
*RES
1 *4094:Y *281:10 46.3211 
2 *281:10 *281:20 31.6927 
3 *281:20 *4681:A 23 
*END

*D_NET *282 0.00101146
*CONN
*I *4097:B I *D sky130_fd_sc_hd__nor2_2
*I *4096:X O *D sky130_fd_sc_hd__and2_2
*CAP
1 *4097:B 0
2 *4096:X 0.000362458
3 *282:12 0.000362458
4 *282:12 *4098:A2 8.30364e-05
5 *282:12 *4098:B1 0.00010018
6 *282:12 *771:10 5.50106e-05
7 *4097:A *282:12 4.83201e-05
*RES
1 *4096:X *282:12 29.0486 
2 *282:12 *4097:B 23 
*END

*D_NET *283 0.000244249
*CONN
*I *4098:A2 I *D sky130_fd_sc_hd__o21ai_2
*I *4097:Y O *D sky130_fd_sc_hd__nor2_2
*CAP
1 *4098:A2 4.1937e-05
2 *4097:Y 4.1937e-05
3 *4097:A *4098:A2 7.73389e-05
4 *282:12 *4098:A2 8.30364e-05
*RES
1 *4097:Y *4098:A2 47.5743 
*END

*D_NET *284 0.000520782
*CONN
*I *4100:A2 I *D sky130_fd_sc_hd__o21ai_2
*I *4099:Y O *D sky130_fd_sc_hd__xnor2_2
*CAP
1 *4100:A2 0.000104028
2 *4099:Y 0.000104028
3 *4100:A2 *4100:A1 2.37172e-05
4 *4100:A2 *4100:B1 5.82853e-05
5 *4100:A2 *711:29 0.000230723
*RES
1 *4099:Y *4100:A2 49.0243 
*END

*D_NET *285 0.000346448
*CONN
*I *4102:B I *D sky130_fd_sc_hd__and2_2
*I *4101:Y O *D sky130_fd_sc_hd__o31ai_2
*CAP
1 *4102:B 0.000120935
2 *4101:Y 0.000120935
3 *4102:B *782:29 0.000104578
*RES
1 *4101:Y *4102:B 48.5271 
*END

*D_NET *286 0.00274309
*CONN
*I *4103:A2 I *D sky130_fd_sc_hd__o21ai_2
*I *4102:X O *D sky130_fd_sc_hd__and2_2
*CAP
1 *4103:A2 0.000315741
2 *4102:X 0.000628512
3 *286:8 0.000944253
4 *4103:A2 *478:16 0
5 *4103:A2 *711:44 0.000168515
6 *4103:A2 *774:10 0.000170807
7 *286:8 *4030:A 8.89788e-05
8 *286:8 *4030:B 2.19667e-05
9 *286:8 *782:29 0.000404318
*RES
1 *4102:X *286:8 47.1971 
2 *286:8 *4103:A2 44.8357 
*END

*D_NET *287 0.0015545
*CONN
*I *4105:B I *D sky130_fd_sc_hd__nor2_2
*I *4104:X O *D sky130_fd_sc_hd__and2_2
*CAP
1 *4105:B 0.000308916
2 *4104:X 0.000388057
3 *287:8 0.000696973
4 *4105:B *4558:D 2.95526e-05
5 *287:8 *289:10 0.000111106
6 *287:8 *711:95 1.98991e-05
*RES
1 *4104:X *287:8 45.1879 
2 *287:8 *4105:B 42.4536 
*END

*D_NET *288 0.000273617
*CONN
*I *4106:A2 I *D sky130_fd_sc_hd__o21ai_2
*I *4105:Y O *D sky130_fd_sc_hd__nor2_2
*CAP
1 *4106:A2 0
2 *4105:Y 7.75336e-05
3 *288:8 7.75336e-05
4 *288:8 *4557:CLK 6.57673e-05
5 *246:14 *288:8 5.27824e-05
*RES
1 *4105:Y *288:8 39.9057 
2 *288:8 *4106:A2 38 
*END

*D_NET *289 0.00107541
*CONN
*I *4108:A2 I *D sky130_fd_sc_hd__o21ai_2
*I *4107:Y O *D sky130_fd_sc_hd__xnor2_2
*CAP
1 *4108:A2 0
2 *4107:Y 0.000297299
3 *289:10 0.000297299
4 *289:10 *4106:B1 7.75329e-06
5 *289:10 *4111:B1 2.76611e-06
6 *289:10 *711:95 8.54959e-05
7 *289:10 *711:111 6.07611e-06
8 *289:10 *777:10 0.000167127
9 *4107:B *289:10 0.000100486
10 *287:8 *289:10 0.000111106
*RES
1 *4107:Y *289:10 44.1729 
2 *289:10 *4108:A2 38 
*END

*D_NET *290 0.00189055
*CONN
*I *4110:B I *D sky130_fd_sc_hd__and2_2
*I *4109:Y O *D sky130_fd_sc_hd__o31ai_2
*CAP
1 *4110:B 0
2 *4109:Y 6.56131e-05
3 *290:12 0.000430482
4 *290:8 0.000496095
5 *290:8 *4107:A 5.58003e-05
6 *290:12 *4033:A 0.000193873
7 *290:12 *4559:RESET_B 0.000129279
8 *290:12 *291:8 8.76088e-05
9 *290:12 *778:10 4.34173e-05
10 *290:12 *798:21 1.0092e-05
11 *290:12 *798:40 5.91105e-05
12 *290:12 *799:12 0.000275961
13 *245:27 *290:12 2.2385e-05
14 *247:8 *290:12 0
15 *247:16 *290:12 2.08324e-05
*RES
1 *4109:Y *290:8 39.0979 
2 *290:8 *290:12 27.1179 
3 *290:12 *4110:B 23 
*END

*D_NET *291 0.000269584
*CONN
*I *4111:A2 I *D sky130_fd_sc_hd__o21ai_2
*I *4110:X O *D sky130_fd_sc_hd__and2_2
*CAP
1 *4111:A2 0
2 *4110:X 9.09874e-05
3 *291:8 9.09874e-05
4 *290:12 *291:8 8.76088e-05
*RES
1 *4110:X *291:8 40.2579 
2 *291:8 *4111:A2 38 
*END

*D_NET *292 0.000285322
*CONN
*I *4113:B I *D sky130_fd_sc_hd__nor2_2
*I *4112:X O *D sky130_fd_sc_hd__and2_2
*CAP
1 *4113:B 0.000142661
2 *4112:X 0.000142661
*RES
1 *4112:X *4113:B 48.5479 
*END

*D_NET *293 0.00181183
*CONN
*I *4114:A2 I *D sky130_fd_sc_hd__o21ai_2
*I *4113:Y O *D sky130_fd_sc_hd__nor2_2
*CAP
1 *4114:A2 3.7219e-05
2 *4113:Y 0.000431526
3 *293:10 0.000468745
4 *4114:A2 *4562:CLK 7.88828e-05
5 *4114:A2 *779:10 0.000139352
6 *293:10 *3845:A 0
7 *293:10 *479:27 0.000114645
8 *293:10 *479:33 0.000112737
9 *293:10 *531:95 1.83564e-05
10 *293:10 *779:10 0.000410369
11 *4113:A *293:10 0
*RES
1 *4113:Y *293:10 49.1236 
2 *293:10 *4114:A2 39.5743 
*END

*D_NET *294 0.00100869
*CONN
*I *4116:A2 I *D sky130_fd_sc_hd__o21ai_2
*I *4115:Y O *D sky130_fd_sc_hd__xnor2_2
*CAP
1 *4116:A2 4.24511e-05
2 *4115:Y 0.000224846
3 *294:10 0.000267297
4 *294:10 *4116:A1 7.90939e-05
5 *294:10 *4116:B1 1.62479e-05
6 *294:10 *296:8 0.000180224
7 *294:10 *531:95 4.21594e-06
8 *294:10 *780:8 0.000194318
*RES
1 *4115:Y *294:10 43.365 
2 *294:10 *4116:A2 38.6214 
*END

*D_NET *295 0.000668609
*CONN
*I *4118:B I *D sky130_fd_sc_hd__and2_2
*I *4117:Y O *D sky130_fd_sc_hd__o31ai_2
*CAP
1 *4118:B 0.000117728
2 *4117:Y 0.000103541
3 *295:8 0.000221269
4 *4118:B *296:8 0.00014196
5 *295:8 *4117:B1 0
6 *295:8 *801:38 8.41115e-05
*RES
1 *4117:Y *295:8 40.2579 
2 *295:8 *4118:B 40.5271 
*END

*D_NET *296 0.00158967
*CONN
*I *4119:A2 I *D sky130_fd_sc_hd__o21ai_2
*I *4118:X O *D sky130_fd_sc_hd__and2_2
*CAP
1 *4119:A2 0
2 *4118:X 0.000606239
3 *296:8 0.000606239
4 *296:8 *4115:A 5.50049e-05
5 *4118:B *296:8 0.00014196
6 *294:10 *296:8 0.000180224
*RES
1 *4118:X *296:8 34.1236 
2 *296:8 *4119:A2 23 
*END

*D_NET *297 0.00168718
*CONN
*I *4121:B I *D sky130_fd_sc_hd__nor2_2
*I *4120:X O *D sky130_fd_sc_hd__and2_2
*CAP
1 *4121:B 0
2 *4120:X 0.000532491
3 *297:10 0.000532491
4 *297:10 *4120:A 0.000169674
5 *297:10 *4564:RESET_B 0
6 *297:10 *783:23 0.000222104
7 *297:10 *783:38 0
8 *297:10 *784:24 0
9 *4037:D *297:10 0
10 *4120:B *297:10 0.000184527
11 *4125:A3 *297:10 0
12 *249:30 *297:10 0
13 *250:10 *297:10 4.58924e-05
14 *251:10 *297:10 0
*RES
1 *4120:X *297:10 48.5436 
2 *297:10 *4121:B 38 
*END

*D_NET *298 0.00118024
*CONN
*I *4122:A2 I *D sky130_fd_sc_hd__o21ai_2
*I *4121:Y O *D sky130_fd_sc_hd__nor2_2
*CAP
1 *4122:A2 0
2 *4121:Y 0.000452562
3 *298:8 0.000452562
4 *298:8 *4125:A2 0.000103647
5 *298:8 *299:10 9.84794e-05
6 *298:8 *659:74 4.07902e-05
7 *298:8 *761:12 1.64402e-05
8 *4123:B *298:8 1.57571e-05
*RES
1 *4121:Y *298:8 31.265 
2 *298:8 *4122:A2 23 
*END

*D_NET *299 0.00110842
*CONN
*I *4124:A2 I *D sky130_fd_sc_hd__o21ai_2
*I *4123:Y O *D sky130_fd_sc_hd__xnor2_2
*CAP
1 *4124:A2 0
2 *4123:Y 0.000383903
3 *299:10 0.000383903
4 *299:10 *659:74 0
5 *299:10 *762:8 0.000127498
6 *251:10 *299:10 0.000114635
7 *298:8 *299:10 9.84794e-05
*RES
1 *4123:Y *299:10 46.6379 
2 *299:10 *4124:A2 38 
*END

*D_NET *300 0.00220466
*CONN
*I *4126:B I *D sky130_fd_sc_hd__and2_2
*I *4125:Y O *D sky130_fd_sc_hd__o31ai_2
*CAP
1 *4126:B 0.000643582
2 *4125:Y 0.000215349
3 *300:12 0.000858931
4 *4126:B *4565:RESET_B 0.000475327
5 *4126:B *481:18 1.14762e-05
6 *300:12 *301:10 0
7 *300:12 *785:8 0
8 *4037:D *300:12 0
*RES
1 *4125:Y *300:12 42.0807 
2 *300:12 *4126:B 47.57 
*END

*D_NET *301 0.00151324
*CONN
*I *4127:A2 I *D sky130_fd_sc_hd__o21ai_2
*I *4126:X O *D sky130_fd_sc_hd__and2_2
*CAP
1 *4127:A2 0
2 *4126:X 0.000478514
3 *301:10 0.000478514
4 *301:10 *4564:RESET_B 0
5 *301:10 *4565:RESET_B 4.97675e-05
6 *301:10 *481:18 0.00010018
7 *301:10 *701:37 0
8 *301:10 *763:8 0.000406269
9 *300:12 *301:10 0
*RES
1 *4126:X *301:10 47.8393 
2 *301:10 *4127:A2 38 
*END

*D_NET *302 0.00160338
*CONN
*I *4129:B I *D sky130_fd_sc_hd__nor2_2
*I *4128:X O *D sky130_fd_sc_hd__and2_2
*CAP
1 *4129:B 0
2 *4128:X 0.000370438
3 *302:8 0.000370438
4 *302:8 *305:10 0.000140283
5 *302:8 *306:10 0
6 *302:8 *701:10 0.000400877
7 *251:46 *302:8 0.000191649
8 *252:10 *302:8 0.000129697
*RES
1 *4128:X *302:8 48.7093 
2 *302:8 *4129:B 38 
*END

*D_NET *303 0.00245784
*CONN
*I *4130:A2 I *D sky130_fd_sc_hd__o21ai_2
*I *4129:Y O *D sky130_fd_sc_hd__nor2_2
*CAP
1 *4130:A2 0.000328727
2 *4129:Y 0.000221896
3 *303:8 0.000550623
4 *4130:A2 *4038:A 4.21594e-06
5 *4130:A2 *4039:B 0.000114083
6 *4130:A2 *4131:A 0.000364816
7 *4130:A2 *4133:A1 1.62615e-05
8 *4130:A2 *699:92 2.70366e-05
9 *4130:A2 *702:27 0.000277695
10 *4130:A2 *702:57 0.000349386
11 *4130:A2 *720:69 0
12 *4130:A2 *786:10 6.78359e-05
13 *4130:A2 *787:21 5.46706e-05
14 *303:8 *4131:A 2.64616e-05
15 *4131:B *303:8 5.41288e-05
*RES
1 *4129:Y *303:8 41.48 
2 *303:8 *4130:A2 48.7093 
*END

*D_NET *304 0.00109411
*CONN
*I *4132:A2 I *D sky130_fd_sc_hd__o21ai_2
*I *4131:Y O *D sky130_fd_sc_hd__xnor2_2
*CAP
1 *4132:A2 0
2 *4131:Y 0.000194065
3 *304:8 0.000194065
4 *304:8 *4132:A1 0.000322914
5 *304:8 *4132:B1 5.67058e-05
6 *304:8 *4680:A 6.98147e-05
7 *304:8 *659:21 0.000256544
*RES
1 *4131:Y *304:8 29.8357 
2 *304:8 *4132:A2 23 
*END

*D_NET *305 0.00133436
*CONN
*I *4134:B I *D sky130_fd_sc_hd__and2_2
*I *4133:Y O *D sky130_fd_sc_hd__o31ai_2
*CAP
1 *4134:B 0.000120903
2 *4133:Y 0.000286147
3 *305:10 0.00040705
4 *4134:B *4479:CLK 6.17437e-06
5 *4134:B *306:10 1.94693e-05
6 *305:10 *4133:B1 5.50106e-05
7 *305:10 *4479:CLK 0
8 *305:10 *4568:CLK 9.41704e-05
9 *305:10 *306:10 9.64683e-05
10 *305:10 *701:10 0.000108681
11 *4134:A *305:10 0
12 *302:8 *305:10 0.000140283
*RES
1 *4133:Y *305:10 44.525 
2 *305:10 *4134:B 40.0507 
*END

*D_NET *306 0.00181598
*CONN
*I *4135:A2 I *D sky130_fd_sc_hd__o21ai_2
*I *4134:X O *D sky130_fd_sc_hd__and2_2
*CAP
1 *4135:A2 0
2 *4134:X 0.00046763
3 *306:10 0.00046763
4 *306:10 *4479:CLK 0.000127272
5 *306:10 *481:53 0.000637509
6 *306:10 *701:10 0
7 *4134:B *306:10 1.94693e-05
8 *251:46 *306:10 0
9 *302:8 *306:10 0
10 *305:10 *306:10 9.64683e-05
*RES
1 *4134:X *306:10 48.9786 
2 *306:10 *4135:A2 38 
*END

*D_NET *307 0.00107306
*CONN
*I *4138:A_N I *D sky130_fd_sc_hd__and2b_2
*I *4140:B I *D sky130_fd_sc_hd__xnor2_2
*I *4136:Y O *D sky130_fd_sc_hd__nor2_2
*CAP
1 *4138:A_N 0.000158081
2 *4140:B 0
3 *4136:Y 0.000130921
4 *307:12 7.87325e-05
5 *307:6 0.000367734
6 *4138:A_N *4136:A 9.91798e-05
7 *307:6 *4136:A 7.88828e-05
8 *307:12 *531:59 0.000141869
9 *4136:B *307:6 1.76557e-05
*RES
1 *4136:Y *307:6 25.0507 
2 *307:6 *307:12 31.9057 
3 *307:12 *4140:B 23 
4 *307:6 *4138:A_N 25.5479 
*END

*D_NET *308 0.00148462
*CONN
*I *4138:B I *D sky130_fd_sc_hd__and2b_2
*I *4137:Y O *D sky130_fd_sc_hd__nand2_2
*CAP
1 *4138:B 0
2 *4137:Y 0.000152208
3 *308:8 0.000152208
4 *308:8 *4136:A 0.000484551
5 *308:8 *4137:A 3.75544e-05
6 *308:8 *791:31 1.51028e-05
7 *4136:B *308:8 0.000642997
*RES
1 *4137:Y *308:8 30.3121 
2 *308:8 *4138:B 23 
*END

*D_NET *309 0.00172894
*CONN
*I *4139:A2 I *D sky130_fd_sc_hd__o21ai_2
*I *4138:X O *D sky130_fd_sc_hd__and2b_2
*CAP
1 *4139:A2 0
2 *4138:X 0.000362884
3 *309:10 0.000362884
4 *309:10 *531:59 0.000195931
5 *309:10 *767:8 0.00059401
6 *4136:B *309:10 3.22879e-05
7 *281:20 *309:10 0.000180939
*RES
1 *4138:X *309:10 48.9786 
2 *309:10 *4139:A2 38 
*END

*D_NET *310 0.000570796
*CONN
*I *4141:A2 I *D sky130_fd_sc_hd__o21ai_2
*I *4140:Y O *D sky130_fd_sc_hd__xnor2_2
*CAP
1 *4141:A2 0
2 *4140:Y 0.000182338
3 *310:10 0.000182338
4 *310:10 *4143:B 0
5 *310:10 *311:8 9.84794e-05
6 *310:10 *531:46 6.07611e-06
7 *310:10 *531:59 0.000101564
*RES
1 *4140:Y *310:10 42.06 
2 *310:10 *4141:A2 38 
*END

*D_NET *311 0.00199916
*CONN
*I *4143:B I *D sky130_fd_sc_hd__nor2_2
*I *4142:X O *D sky130_fd_sc_hd__o31a_2
*CAP
1 *4143:B 0.000406996
2 *4142:X 0.000428019
3 *311:8 0.000835015
4 *4143:B *531:46 0
5 *4143:B *768:10 0.00014411
6 *4143:B *769:8 0
7 *311:8 *4140:A 8.65442e-05
8 *310:10 *4143:B 0
9 *310:10 *311:8 9.84794e-05
*RES
1 *4142:X *311:8 45.2914 
2 *311:8 *4143:B 46.2443 
*END

*D_NET *312 0.000505723
*CONN
*I *4144:A2 I *D sky130_fd_sc_hd__o21ai_2
*I *4143:Y O *D sky130_fd_sc_hd__nor2_2
*CAP
1 *4144:A2 0.000201293
2 *4143:Y 0.000201293
3 *4144:A2 *4144:A1 2.02517e-05
4 *4143:A *4144:A2 8.28854e-05
*RES
1 *4143:Y *4144:A2 49.9771 
*END

*D_NET *313 0.00106741
*CONN
*I *4146:A2 I *D sky130_fd_sc_hd__o21ai_2
*I *4145:Y O *D sky130_fd_sc_hd__xnor2_2
*CAP
1 *4146:A2 0
2 *4145:Y 0.000187397
3 *313:10 0.000187397
4 *313:10 *4144:A1 0.00010018
5 *313:10 *659:27 6.48142e-05
6 *313:10 *699:22 5.08795e-05
7 *313:10 *699:24 6.63698e-05
8 *313:10 *720:43 0.000410369
*RES
1 *4145:Y *313:10 44.525 
2 *313:10 *4146:A2 38 
*END

*D_NET *314 0.00102661
*CONN
*I *4149:A I *D sky130_fd_sc_hd__or2_2
*I *4147:X O *D sky130_fd_sc_hd__o31a_2
*CAP
1 *4149:A 0
2 *4147:X 0.000421858
3 *314:10 0.000421858
4 *314:10 *660:14 5.61207e-05
5 *314:10 *792:12 2.65879e-05
6 *254:14 *314:10 0.00010018
*RES
1 *4147:X *314:10 44.6907 
2 *314:10 *4149:A 38 
*END

*D_NET *315 0.000557477
*CONN
*I *4149:B I *D sky130_fd_sc_hd__or2_2
*I *4148:Y O *D sky130_fd_sc_hd__o21ai_2
*CAP
1 *4149:B 4.50142e-05
2 *4148:Y 0.000148157
3 *315:10 0.000193172
4 *315:10 *660:14 0
5 *94:16 *315:10 0.000114092
6 *256:25 *315:10 5.70419e-05
*RES
1 *4148:Y *315:10 41.0036 
2 *315:10 *4149:B 38.6214 
*END

*D_NET *316 0.00125699
*CONN
*I *4677:A I *D sky130_fd_sc_hd__clkdlybuf4s25_1
*I *4151:Y O *D sky130_fd_sc_hd__nand2_2
*CAP
1 *4677:A 0
2 *4151:Y 0.000556118
3 *316:8 0.000556118
4 *316:8 *4471:CLK 0
5 *316:8 *4471:RESET_B 0
6 *316:8 *4699:A 0
7 *316:8 *322:8 4.83778e-05
8 *316:8 *323:10 0
9 *316:8 *753:8 0
10 *316:8 *754:10 0
11 *316:8 *843:42 9.63712e-05
*RES
1 *4151:Y *316:8 49.0614 
2 *316:8 *4677:A 38 
*END

*D_NET *317 0.000332333
*CONN
*I *4154:B I *D sky130_fd_sc_hd__nor2_2
*I *4153:X O *D sky130_fd_sc_hd__and2_2
*CAP
1 *4154:B 0.000103699
2 *4153:X 0.000103699
3 *4154:B *4153:B 0
4 *4154:B *318:12 2.4754e-05
5 *229:16 *4154:B 0.00010018
*RES
1 *4153:X *4154:B 48.5479 
*END

*D_NET *318 0.00148942
*CONN
*I *4155:A2 I *D sky130_fd_sc_hd__o21ai_2
*I *4154:Y O *D sky130_fd_sc_hd__nor2_2
*CAP
1 *4155:A2 8.00105e-05
2 *4154:Y 0.000251416
3 *318:12 0.000331427
4 *4155:A2 *816:10 7.88926e-05
5 *318:12 *4153:B 2.64616e-05
6 *318:12 *4158:A1 6.16531e-05
7 *318:12 *473:68 0.000166522
8 *318:12 *827:12 0.000102638
9 *4154:B *318:12 2.4754e-05
10 *229:16 *4155:A2 0.000223692
11 *229:16 *318:12 0.000141954
*RES
1 *4154:Y *318:12 43.7586 
2 *318:12 *4155:A2 40.5271 
*END

*D_NET *319 0.0016676
*CONN
*I *4157:A2 I *D sky130_fd_sc_hd__o21ai_2
*I *4156:Y O *D sky130_fd_sc_hd__xnor2_2
*CAP
1 *4157:A2 0
2 *4156:Y 0.000379325
3 *319:10 0.000379325
4 *319:10 *4157:A1 0.000605255
5 *319:10 *320:8 0
6 *319:10 *473:22 0
7 *319:10 *473:24 0
8 *319:10 *473:68 0
9 *319:10 *553:27 1.12695e-05
10 *319:10 *653:66 0.000185428
11 *319:10 *819:8 0.000107
*RES
1 *4156:Y *319:10 48.6471 
2 *319:10 *4157:A2 38 
*END

*D_NET *320 0.00180483
*CONN
*I *4159:B I *D sky130_fd_sc_hd__and2_2
*I *4158:Y O *D sky130_fd_sc_hd__o31ai_2
*CAP
1 *4159:B 5.55909e-05
2 *4158:Y 0.000328744
3 *320:8 0.000384335
4 *4159:B *321:10 1.94812e-05
5 *320:8 *4157:A1 0.000153824
6 *320:8 *321:10 0.000300098
7 *320:8 *473:16 7.03869e-05
8 *320:8 *553:27 2.8314e-06
9 *320:8 *653:70 9.78307e-05
10 *320:8 *841:10 0.000159008
11 *320:8 *841:21 0.00015954
12 *230:12 *320:8 7.31578e-05
13 *319:10 *320:8 0
*RES
1 *4158:Y *320:8 49.0614 
2 *320:8 *4159:B 39.0979 
*END

*D_NET *321 0.00239503
*CONN
*I *4160:A2 I *D sky130_fd_sc_hd__o21ai_2
*I *4159:X O *D sky130_fd_sc_hd__and2_2
*CAP
1 *4160:A2 0.000648814
2 *4159:X 0.000161761
3 *321:10 0.000810576
4 *4160:A2 *4160:B1 1.94693e-05
5 *4160:A2 *4533:D 0.000141954
6 *4160:A2 *473:16 0.00012308
7 *4160:A2 *473:20 1.94812e-05
8 *4160:A2 *841:10 8.91468e-07
9 *4159:B *321:10 1.94812e-05
10 *230:12 *321:10 0.000149423
11 *320:8 *321:10 0.000300098
*RES
1 *4159:X *321:10 42.64 
2 *321:10 *4160:A2 47.0936 
*END

*D_NET *322 0.000220714
*CONN
*I *4162:B I *D sky130_fd_sc_hd__nor2_2
*I *4161:X O *D sky130_fd_sc_hd__and2_2
*CAP
1 *4162:B 0
2 *4161:X 8.61681e-05
3 *322:8 8.61681e-05
4 *322:8 *323:10 0
5 *316:8 *322:8 4.83778e-05
*RES
1 *4161:X *322:8 39.9057 
2 *322:8 *4162:B 38 
*END

*D_NET *323 0.000969307
*CONN
*I *4163:A2 I *D sky130_fd_sc_hd__o21ai_2
*I *4162:Y O *D sky130_fd_sc_hd__nor2_2
*CAP
1 *4163:A2 0
2 *4162:Y 0.000441009
3 *323:10 0.000441009
4 *323:10 *4165:B1 4.6318e-06
5 *323:10 *653:10 8.26569e-05
6 *323:10 *843:52 0
7 *316:8 *323:10 0
8 *322:8 *323:10 0
*RES
1 *4162:Y *323:10 45.4779 
2 *323:10 *4163:A2 38 
*END

*D_NET *324 0.00166232
*CONN
*I *4165:A2 I *D sky130_fd_sc_hd__o21ai_2
*I *4164:Y O *D sky130_fd_sc_hd__xnor2_2
*CAP
1 *4165:A2 0.000442073
2 *4164:Y 0.000250964
3 *324:10 0.000693037
4 *4165:A2 *4165:B1 0.000139352
5 *4165:A2 *4535:CLK 1.41077e-05
6 *4165:A2 *4535:RESET_B 8.47188e-05
7 *4165:A2 *679:83 3.80641e-05
8 *324:10 *4017:B 0
9 *324:10 *4699:A 0
10 *324:10 *680:10 0
11 *324:10 *821:10 0
12 *324:10 *822:10 0
13 *324:10 *843:52 0
*RES
1 *4164:Y *324:10 42.2879 
2 *324:10 *4165:A2 44.7114 
*END

*D_NET *325 0.00190957
*CONN
*I *4167:B I *D sky130_fd_sc_hd__and2_2
*I *4166:Y O *D sky130_fd_sc_hd__o31ai_2
*CAP
1 *4167:B 0
2 *4166:Y 0.000668466
3 *325:10 0.000668466
4 *325:10 *652:52 1.54424e-05
5 *230:47 *325:10 0.000472066
6 *232:16 *325:10 8.51329e-05
*RES
1 *4166:Y *325:10 48.9786 
2 *325:10 *4167:B 38 
*END

*D_NET *326 0.00289261
*CONN
*I *4168:A2 I *D sky130_fd_sc_hd__o21ai_2
*I *4167:X O *D sky130_fd_sc_hd__and2_2
*CAP
1 *4168:A2 0
2 *4167:X 0.000257088
3 *326:20 0.00100559
4 *326:10 0.00126267
5 *326:10 *4536:RESET_B 3.7122e-06
6 *326:10 *655:14 0.000143678
7 *326:10 *680:25 4.77308e-05
8 *326:10 *844:6 9.5877e-05
9 *326:10 *844:27 3.70187e-05
10 *326:20 *4168:A1 3.92407e-05
11 *326:20 *458:18 0
12 *326:20 *493:12 0
*RES
1 *4167:X *326:10 42.6089 
2 *326:10 *326:20 33.8759 
3 *326:20 *4168:A2 23 
*END

*D_NET *327 0.00163124
*CONN
*I *4170:B I *D sky130_fd_sc_hd__nor2_2
*I *4169:X O *D sky130_fd_sc_hd__and2_2
*CAP
1 *4170:B 0
2 *4169:X 0.000473027
3 *327:10 0.000473027
4 *327:10 *328:10 0
5 *327:10 *330:10 0.000102971
6 *327:10 *652:10 0
7 *4018:B *327:10 0.000184707
8 *4170:A *327:10 0.00035793
9 *232:31 *327:10 3.95777e-05
*RES
1 *4169:X *327:10 47.1557 
2 *327:10 *4170:B 38 
*END

*D_NET *328 0.000953252
*CONN
*I *4171:A2 I *D sky130_fd_sc_hd__o21ai_2
*I *4170:Y O *D sky130_fd_sc_hd__nor2_2
*CAP
1 *4171:A2 1.28773e-05
2 *4170:Y 0.000405528
3 *328:10 0.000418406
4 *4171:A2 *4018:A 5.5792e-05
5 *328:10 *4176:A1 3.50862e-06
6 *328:10 *542:62 2.2165e-05
7 *328:10 *652:10 0
8 *328:10 *846:12 2.35118e-06
9 *4170:A *328:10 0
10 *233:8 *4171:A2 3.26241e-05
11 *327:10 *328:10 0
*RES
1 *4170:Y *328:10 45.0014 
2 *328:10 *4171:A2 38.6214 
*END

*D_NET *329 0.00147531
*CONN
*I *4173:A2 I *D sky130_fd_sc_hd__o21ai_2
*I *4172:Y O *D sky130_fd_sc_hd__xnor2_2
*CAP
1 *4173:A2 0.000588828
2 *4172:Y 0.000108421
3 *329:8 0.000697249
4 *4173:A2 *4173:B1 3.57672e-05
5 *4173:A2 *846:12 8.91468e-07
6 *4172:B *329:8 4.41504e-05
*RES
1 *4172:Y *329:8 40.2579 
2 *329:8 *4173:A2 46.7829 
*END

*D_NET *330 0.00130915
*CONN
*I *4175:B I *D sky130_fd_sc_hd__and2_2
*I *4174:Y O *D sky130_fd_sc_hd__o31ai_2
*CAP
1 *4175:B 0
2 *4174:Y 0.000432593
3 *330:10 0.000432593
4 *232:16 *330:10 0.000242595
5 *232:31 *330:10 9.84034e-05
6 *327:10 *330:10 0.000102971
*RES
1 *4174:Y *330:10 47.1764 
2 *330:10 *4175:B 38 
*END

*D_NET *331 0.00155647
*CONN
*I *4176:A2 I *D sky130_fd_sc_hd__o21ai_2
*I *4175:X O *D sky130_fd_sc_hd__and2_2
*CAP
1 *4176:A2 0.000643346
2 *4175:X 0.000106989
3 *331:8 0.000750335
4 *4172:B *4176:A2 5.58003e-05
*RES
1 *4175:X *331:8 39.9057 
2 *331:8 *4176:A2 49.6 
*END

*D_NET *332 0.00142495
*CONN
*I *4178:B I *D sky130_fd_sc_hd__nor2_2
*I *4177:X O *D sky130_fd_sc_hd__and2_2
*CAP
1 *4178:B 0
2 *4177:X 0.000437437
3 *332:8 0.000437437
4 *332:8 *4180:A 7.50355e-05
5 *332:8 *334:10 9.79925e-05
6 *4178:A *332:8 0.000229395
7 *4180:B *332:8 0.000147656
*RES
1 *4177:X *332:8 31.7414 
2 *332:8 *4178:B 23 
*END

*D_NET *333 0.00206934
*CONN
*I *4179:A2 I *D sky130_fd_sc_hd__o21ai_2
*I *4178:Y O *D sky130_fd_sc_hd__nor2_2
*CAP
1 *4179:A2 0.000404449
2 *4178:Y 0.00045034
3 *333:8 0.000854789
4 *4179:A2 *4181:A1 5.76359e-05
5 *4179:A2 *4181:B1 8.26478e-05
6 *4179:A2 *542:29 2.97185e-05
7 *4179:A2 *652:67 1.09834e-05
8 *4179:A2 *652:79 1.06669e-05
9 *333:8 *4541:RESET_B 0.000104535
10 *333:8 *693:18 6.35755e-05
*RES
1 *4178:Y *333:8 44.8357 
2 *333:8 *4179:A2 44.235 
*END

*D_NET *334 0.00122902
*CONN
*I *4181:A2 I *D sky130_fd_sc_hd__o21ai_2
*I *4180:Y O *D sky130_fd_sc_hd__xnor2_2
*CAP
1 *4181:A2 0
2 *4180:Y 0.00039094
3 *334:10 0.00039094
4 *334:10 *4541:RESET_B 0.000104535
5 *334:10 *693:18 5.78179e-05
6 *334:10 *807:8 0.000101032
7 *334:10 *829:22 8.57577e-05
8 *332:8 *334:10 9.79925e-05
*RES
1 *4180:Y *334:10 46.6379 
2 *334:10 *4181:A2 38 
*END

*D_NET *335 0.00031296
*CONN
*I *4183:B I *D sky130_fd_sc_hd__and2_2
*I *4182:Y O *D sky130_fd_sc_hd__o31ai_2
*CAP
1 *4183:B 0.00015648
2 *4182:Y 0.00015648
*RES
1 *4182:Y *4183:B 48.5271 
*END

*D_NET *336 0.000766581
*CONN
*I *4184:A2 I *D sky130_fd_sc_hd__o21ai_2
*I *4183:X O *D sky130_fd_sc_hd__and2_2
*CAP
1 *4184:A2 0.00021013
2 *4183:X 8.83236e-05
3 *336:8 0.000298453
4 *336:8 *655:46 0
5 *336:8 *693:16 0.000169674
*RES
1 *4183:X *336:8 40.2579 
2 *336:8 *4184:A2 41.48 
*END

*D_NET *337 0.000726257
*CONN
*I *4186:B I *D sky130_fd_sc_hd__nor2_2
*I *4185:X O *D sky130_fd_sc_hd__and2_2
*CAP
1 *4186:B 0
2 *4185:X 0.000144957
3 *337:8 0.000144957
4 *337:8 *4545:RESET_B 0.000168524
5 *337:8 *4546:RESET_B 0.000167676
6 *237:25 *337:8 0.000100143
*RES
1 *4185:X *337:8 42.7229 
2 *337:8 *4186:B 38 
*END

*D_NET *338 0.000834906
*CONN
*I *4187:A2 I *D sky130_fd_sc_hd__o21ai_2
*I *4186:Y O *D sky130_fd_sc_hd__nor2_2
*CAP
1 *4187:A2 0.000216756
2 *4186:Y 0.000159904
3 *338:8 0.00037666
4 *4187:A2 *809:10 8.15864e-05
*RES
1 *4186:Y *338:8 40.9621 
2 *338:8 *4187:A2 41.9564 
*END

*D_NET *339 0.000277269
*CONN
*I *4189:A2 I *D sky130_fd_sc_hd__o21ai_2
*I *4188:Y O *D sky130_fd_sc_hd__xnor2_2
*CAP
1 *4189:A2 6.69229e-05
2 *4188:Y 6.69229e-05
3 *236:10 *4189:A2 0.000143423
*RES
1 *4188:Y *4189:A2 47.5743 
*END

*D_NET *340 0.000552873
*CONN
*I *4191:B I *D sky130_fd_sc_hd__and2_2
*I *4190:Y O *D sky130_fd_sc_hd__o31ai_2
*CAP
1 *4191:B 0.000144617
2 *4190:Y 0.000144617
3 *4191:B *4190:B1 0.000185434
4 *4191:B *341:8 2.32004e-05
5 *4190:A3 *4191:B 5.50049e-05
*RES
1 *4190:Y *4191:B 49.5007 
*END

*D_NET *341 0.00125728
*CONN
*I *4192:A2 I *D sky130_fd_sc_hd__o21ai_2
*I *4191:X O *D sky130_fd_sc_hd__and2_2
*CAP
1 *4192:A2 0
2 *4191:X 0.000371264
3 *341:8 0.000371264
4 *341:8 *4190:A1 9.95494e-05
5 *341:8 *4190:B1 0.00014196
6 *341:8 *811:10 4.77393e-05
7 *341:8 *832:31 0.000138607
8 *4190:A3 *341:8 6.36995e-05
9 *4191:B *341:8 2.32004e-05
*RES
1 *4191:X *341:8 30.7886 
2 *341:8 *4192:A2 23 
*END

*D_NET *342 0.00356627
*CONN
*I *4198:B I *D sky130_fd_sc_hd__xnor2_2
*I *4195:A_N I *D sky130_fd_sc_hd__and2b_2
*I *4193:Y O *D sky130_fd_sc_hd__nor2_2
*CAP
1 *4198:B 7.47109e-06
2 *4195:A_N 0
3 *4193:Y 0.000519013
4 *342:22 0.000415006
5 *342:12 0.00094149
6 *4198:B *4196:B1 2.46906e-05
7 *342:12 *4196:B1 0.000424677
8 *342:12 *4198:A 4.21281e-05
9 *342:12 *344:14 5.3304e-05
10 *342:12 *834:38 0.00026808
11 *342:22 *4195:B 1.34995e-05
12 *342:22 *4196:B1 6.96531e-05
13 *342:22 *4199:A1 0
14 *342:22 *344:6 5.69371e-05
15 *342:22 *346:14 9.9057e-05
16 *342:22 *473:88 0.000196664
17 *342:22 *564:20 0.000241465
18 *342:22 *653:96 0.000193131
*RES
1 *4193:Y *342:12 33.2121 
2 *342:12 *342:22 40.7507 
3 *342:22 *4195:A_N 23 
4 *342:12 *4198:B 23.6214 
*END

*D_NET *343 0.0033056
*CONN
*I *4195:B I *D sky130_fd_sc_hd__and2b_2
*I *4194:Y O *D sky130_fd_sc_hd__nand2_2
*CAP
1 *4195:B 0.000819167
2 *4194:Y 0.000300123
3 *343:8 0.00111929
4 *4195:B *4548:D 0.000229653
5 *4195:B *344:6 3.13096e-05
6 *4195:B *473:88 0.000140888
7 *343:8 *474:82 0
8 *343:8 *474:95 0
9 *343:8 *696:81 0.000309985
10 *343:8 *834:12 0.000221942
11 *4202:B *343:8 0.000119742
12 *342:22 *4195:B 1.34995e-05
*RES
1 *4194:Y *343:8 44.8357 
2 *343:8 *4195:B 49.1236 
*END

*D_NET *344 0.00344998
*CONN
*I *4196:A2 I *D sky130_fd_sc_hd__o21ai_2
*I *4195:X O *D sky130_fd_sc_hd__and2b_2
*CAP
1 *4196:A2 0
2 *4195:X 0.00109081
3 *344:14 0.000181076
4 *344:6 0.00127188
5 *344:6 *4548:D 4.05142e-05
6 *344:6 *473:88 1.10658e-05
7 *344:6 *653:106 0.000322968
8 *344:6 *835:8 1.59094e-05
9 *344:14 *4025:B 9.03784e-05
10 *344:14 *4198:A 0.000191505
11 *344:14 *474:82 0
12 *344:14 *812:8 6.10781e-05
13 *344:14 *834:27 1.2878e-05
14 *4195:B *344:6 3.13096e-05
15 *239:31 *344:14 1.83667e-05
16 *342:12 *344:14 5.3304e-05
17 *342:22 *344:6 5.69371e-05
*RES
1 *4195:X *344:6 37.4379 
2 *344:6 *344:14 34.64 
3 *344:14 *4196:A2 23 
*END

*D_NET *345 0.00198922
*CONN
*I *4200:A2 I *D sky130_fd_sc_hd__a21boi_2
*I *4197:X O *D sky130_fd_sc_hd__or3_2
*CAP
1 *4200:A2 0.00044116
2 *4197:X 0.000454472
3 *345:8 0.000895631
4 *4200:A2 *4024:A 1.24376e-05
5 *4200:A2 *4200:A1 8.16913e-05
6 *345:8 *474:71 0
7 *345:8 *474:82 0
8 *4191:A *345:8 0
9 *239:14 *4200:A2 0.000103831
10 *239:31 *345:8 0
11 *256:33 *345:8 0
*RES
1 *4197:X *345:8 46.2443 
2 *345:8 *4200:A2 46.265 
*END

*D_NET *346 0.00113247
*CONN
*I *4199:A2 I *D sky130_fd_sc_hd__o21ai_2
*I *4198:Y O *D sky130_fd_sc_hd__xnor2_2
*CAP
1 *4199:A2 1.75594e-05
2 *4198:Y 0.000259414
3 *346:14 0.000276973
4 *4199:A2 *473:88 0.000100061
5 *4199:A2 *653:106 0.000101762
6 *346:14 *4196:B1 1.33694e-05
7 *346:14 *4199:A1 0
8 *346:14 *464:31 9.1946e-06
9 *346:14 *653:96 9.9057e-05
10 *346:14 *653:106 0.000156025
11 *342:22 *346:14 9.9057e-05
*RES
1 *4198:Y *346:14 42.8264 
2 *346:14 *4199:A2 39.0979 
*END

*D_NET *347 0.000947408
*CONN
*I *4201:A2 I *D sky130_fd_sc_hd__o21ai_2
*I *4200:Y O *D sky130_fd_sc_hd__a21boi_2
*CAP
1 *4201:A2 0
2 *4200:Y 0.000291605
3 *347:10 0.000291605
4 *347:10 *464:31 4.21594e-06
5 *347:10 *474:25 8.4047e-05
6 *347:10 *564:26 0
7 *4202:B *347:10 0
8 *239:14 *347:10 0.000275934
*RES
1 *4200:Y *347:10 42.9093 
2 *347:10 *4201:A2 38 
*END

*D_NET *348 0.000917571
*CONN
*I *4203:A2 I *D sky130_fd_sc_hd__o21ai_2
*I *4202:X O *D sky130_fd_sc_hd__xor2_2
*CAP
1 *4203:A2 0
2 *4202:X 7.56552e-05
3 *348:22 0.000107696
4 *348:8 0.000183351
5 *348:8 *464:10 0.000163361
6 *348:8 *815:12 0.000138727
7 *348:22 *464:10 3.74926e-05
8 *348:22 *564:110 9.90608e-06
9 *348:22 *815:12 9.41704e-05
10 *348:22 *840:33 0.000107211
*RES
1 *4202:X *348:8 40.2579 
2 *348:8 *348:22 47.7136 
3 *348:22 *4203:A2 23 
*END

*D_NET *349 0.00051104
*CONN
*I *4743:A I *D sky130_fd_sc_hd__dlygate4sd3_1
*I *4204:Y O *D sky130_fd_sc_hd__o21ai_2
*CAP
1 *4743:A 0
2 *4204:Y 0.000142309
3 *349:10 0.000142309
4 *349:10 *540:14 4.2812e-06
5 *349:10 *695:26 0.000166513
6 *349:10 *837:25 5.56279e-05
*RES
1 *4204:Y *349:10 40.8793 
2 *349:10 *4743:A 38 
*END

*D_NET *350 0.00314097
*CONN
*I *4684:A I *D sky130_fd_sc_hd__clkdlybuf4s25_1
*I *4263:B1_N I *D sky130_fd_sc_hd__a21bo_2
*I *4261:B1 I *D sky130_fd_sc_hd__o21ai_2
*I *4207:Y O *D sky130_fd_sc_hd__nand2_2
*CAP
1 *4684:A 2.34823e-05
2 *4263:B1_N 5.6881e-05
3 *4261:B1 0.000254773
4 *4207:Y 0.000221798
5 *350:12 0.000773967
6 *350:6 0.000707594
7 *4261:B1 *863:8 8.41012e-05
8 *4263:B1_N *608:57 1.28818e-05
9 *350:6 *681:63 5.47927e-05
10 *350:12 *4263:A1 2.4754e-05
11 *350:12 *4788:A 5.50049e-05
12 *350:12 *608:57 2.62931e-05
13 *350:12 *663:6 0.000605455
14 *4263:A2 *4263:B1_N 1.28818e-05
15 *4263:A2 *350:12 0.000226306
16 *92:14 *4261:B1 0
17 *227:21 *4261:B1 0
18 *227:21 *4263:B1_N 0
19 *227:29 *4263:B1_N 0
*RES
1 *4207:Y *350:6 26.9564 
2 *350:6 *350:12 25.6471 
3 *350:12 *4261:B1 42.7229 
4 *350:12 *4263:B1_N 38.9995 
5 *350:6 *4684:A 23.4971 
*END

*D_NET *351 0.00228062
*CONN
*I *4210:B I *D sky130_fd_sc_hd__nor2_2
*I *4209:X O *D sky130_fd_sc_hd__and2_2
*CAP
1 *4210:B 0.000675461
2 *4209:X 0.000371709
3 *351:8 0.00104717
4 *4210:B *662:8 5.54028e-05
5 *4210:B *662:12 5.47808e-05
6 *4210:B *858:10 3.52383e-05
7 *351:8 *4173:A1 0
8 *351:8 *542:45 0
9 *351:8 *883:34 4.08537e-05
*RES
1 *4209:X *351:8 45.1879 
2 *351:8 *4210:B 49.9521 
*END

*D_NET *352 0.00141967
*CONN
*I *4211:A2 I *D sky130_fd_sc_hd__o21ai_2
*I *4210:Y O *D sky130_fd_sc_hd__nor2_2
*CAP
1 *4211:A2 0.000276205
2 *4210:Y 0.000170967
3 *352:8 0.000447173
4 *4211:A2 *4211:A1 1.49641e-05
5 *4211:A2 *4510:D 0.000180224
6 *352:8 *662:14 0.000330135
7 *215:32 *352:8 0
*RES
1 *4210:Y *352:8 42.3707 
2 *352:8 *4211:A2 42.4743 
*END

*D_NET *353 0.00109085
*CONN
*I *4213:A2 I *D sky130_fd_sc_hd__o21ai_2
*I *4212:Y O *D sky130_fd_sc_hd__xnor2_2
*CAP
1 *4213:A2 0
2 *4212:Y 0.000348168
3 *353:12 0.000348168
4 *353:12 *4000:B 5.82853e-05
5 *353:12 *4000:C 0.000136777
6 *353:12 *492:18 1.16455e-05
7 *353:12 *872:24 2.02872e-05
8 *216:8 *353:12 0.000167522
*RES
1 *4212:Y *353:12 44.5871 
2 *353:12 *4213:A2 38 
*END

*D_NET *354 0.00166749
*CONN
*I *4215:B I *D sky130_fd_sc_hd__and2_2
*I *4214:Y O *D sky130_fd_sc_hd__o31ai_2
*CAP
1 *4215:B 0.000498906
2 *4214:Y 3.44519e-05
3 *354:8 0.000533358
4 *4215:B *4000:B 6.51997e-06
5 *4215:B *4216:A1 0
6 *4215:B *4512:RESET_B 6.90927e-05
7 *4215:B *597:43 2.14599e-05
8 *4215:B *679:34 0.000191965
9 *4215:B *886:31 0.000162263
10 *354:8 *577:6 5.14826e-05
11 *354:8 *872:14 9.79925e-05
*RES
1 *4214:Y *354:8 39.0979 
2 *354:8 *4215:B 49.0614 
*END

*D_NET *355 0.00048279
*CONN
*I *4216:A2 I *D sky130_fd_sc_hd__o21ai_2
*I *4215:X O *D sky130_fd_sc_hd__and2_2
*CAP
1 *4216:A2 0.000200497
2 *4215:X 0.000200497
3 *4215:A *4216:A2 8.1796e-05
*RES
1 *4215:X *4216:A2 49.9771 
*END

*D_NET *356 0.00133739
*CONN
*I *4218:B I *D sky130_fd_sc_hd__nor2_2
*I *4217:X O *D sky130_fd_sc_hd__and2_2
*CAP
1 *4218:B 0.000381434
2 *4217:X 0.000239021
3 *356:8 0.000620455
4 *4222:A3 *356:8 5.27824e-05
5 *217:18 *4218:B 4.37033e-05
*RES
1 *4217:X *356:8 42.7229 
2 *356:8 *4218:B 45.3121 
*END

*D_NET *357 0.00238914
*CONN
*I *4219:A2 I *D sky130_fd_sc_hd__o21ai_2
*I *4218:Y O *D sky130_fd_sc_hd__nor2_2
*CAP
1 *4219:A2 0.000229118
2 *4218:Y 0.000512804
3 *357:16 0.000741922
4 *4219:A2 *4219:A1 0.000230718
5 *4219:A2 *4221:B1 1.52164e-05
6 *4219:A2 *4514:CLK 0.000217534
7 *4219:A2 *866:18 0.000200559
8 *357:16 *4221:A1 8.52094e-06
9 *357:16 *4221:B1 0.000153856
10 *217:18 *357:16 7.88926e-05
*RES
1 *4218:Y *357:16 48.5954 
2 *357:16 *4219:A2 44.9704 
*END

*D_NET *358 0.00149024
*CONN
*I *4221:A2 I *D sky130_fd_sc_hd__o21ai_2
*I *4220:Y O *D sky130_fd_sc_hd__xnor2_2
*CAP
1 *4221:A2 0.000438887
2 *4220:Y 0.000306231
3 *358:8 0.000745118
*RES
1 *4220:Y *358:8 43.4271 
2 *358:8 *4221:A2 43.7586 
*END

*D_NET *359 0.00229517
*CONN
*I *4223:B I *D sky130_fd_sc_hd__and2_2
*I *4222:Y O *D sky130_fd_sc_hd__o31ai_2
*CAP
1 *4223:B 0
2 *4222:Y 0
3 *359:12 0.000503096
4 *359:6 0.000503096
5 *359:12 *4002:C 0.000479688
6 *359:12 *4222:B1 0.000328094
7 *359:12 *4519:RESET_B 0
8 *359:12 *360:10 0
9 *359:12 *575:18 0
10 *359:12 *661:18 0.000167452
11 *359:12 *868:10 0.000171863
12 *359:12 *888:46 0
13 *218:8 *359:12 0.000141879
*RES
1 *4222:Y *359:6 38 
2 *359:6 *359:12 29.1479 
3 *359:12 *4223:B 23 
*END

*D_NET *360 0.000491507
*CONN
*I *4224:A2 I *D sky130_fd_sc_hd__o21ai_2
*I *4223:X O *D sky130_fd_sc_hd__and2_2
*CAP
1 *4224:A2 0
2 *4223:X 0.000175274
3 *360:10 0.000175274
4 *360:10 *575:18 0.000140958
5 *360:10 *661:18 0
6 *359:12 *360:10 0
*RES
1 *4223:X *360:10 41.0036 
2 *360:10 *4224:A2 38 
*END

*D_NET *361 0.000183133
*CONN
*I *4226:B I *D sky130_fd_sc_hd__nor2_2
*I *4225:X O *D sky130_fd_sc_hd__and2_2
*CAP
1 *4226:B 9.15663e-05
2 *4225:X 9.15663e-05
*RES
1 *4225:X *4226:B 47.5743 
*END

*D_NET *362 0.000828832
*CONN
*I *4227:A2 I *D sky130_fd_sc_hd__o21ai_2
*I *4226:Y O *D sky130_fd_sc_hd__nor2_2
*CAP
1 *4227:A2 9.14588e-05
2 *4226:Y 0.000322957
3 *362:12 0.000414416
*RES
1 *4226:Y *362:12 43.8414 
2 *362:12 *4227:A2 39.595 
*END

*D_NET *363 0.00077754
*CONN
*I *4229:A2 I *D sky130_fd_sc_hd__o21ai_2
*I *4228:Y O *D sky130_fd_sc_hd__xnor2_2
*CAP
1 *4229:A2 0
2 *4228:Y 0.000268418
3 *363:10 0.000268418
4 *363:10 *870:10 5.9166e-05
5 *4228:B *363:10 9.65021e-05
6 *218:56 *363:10 8.50366e-05
*RES
1 *4228:Y *363:10 43.0129 
2 *363:10 *4229:A2 38 
*END

*D_NET *364 0.000463105
*CONN
*I *4231:B I *D sky130_fd_sc_hd__and2_2
*I *4230:Y O *D sky130_fd_sc_hd__o31ai_2
*CAP
1 *4231:B 0
2 *4230:Y 0.000177801
3 *364:10 0.000177801
4 *364:10 *4518:RESET_B 0
5 *364:10 *367:8 0
6 *364:10 *893:8 0
7 *364:10 *894:12 0
8 *4230:A3 *364:10 3.71251e-05
9 *220:10 *364:10 7.03766e-05
*RES
1 *4230:Y *364:10 41.3557 
2 *364:10 *4231:B 38 
*END

*D_NET *365 0.00101076
*CONN
*I *4232:A2 I *D sky130_fd_sc_hd__o21ai_2
*I *4231:X O *D sky130_fd_sc_hd__and2_2
*CAP
1 *4232:A2 0.000235327
2 *4231:X 0.000110804
3 *365:8 0.000346131
4 *4232:A2 *575:85 0.000218442
5 *4232:A2 *661:78 0.000100061
6 *365:8 *4518:RESET_B 0
*RES
1 *4231:X *365:8 39.9057 
2 *365:8 *4232:A2 43.3857 
*END

*D_NET *366 0.000566559
*CONN
*I *4234:B I *D sky130_fd_sc_hd__nor2_2
*I *4233:X O *D sky130_fd_sc_hd__and2_2
*CAP
1 *4234:B 0
2 *4233:X 0.00020515
3 *366:10 0.00020515
4 *366:10 *367:8 8.51225e-05
5 *220:10 *366:10 0
6 *220:21 *366:10 5.70419e-05
7 *220:38 *366:10 1.40958e-05
*RES
1 *4233:X *366:10 41.8321 
2 *366:10 *4234:B 38 
*END

*D_NET *367 0.00197332
*CONN
*I *4235:A2 I *D sky130_fd_sc_hd__o21ai_2
*I *4234:Y O *D sky130_fd_sc_hd__nor2_2
*CAP
1 *4235:A2 0.000184363
2 *4234:Y 0.00041278
3 *367:8 0.000597144
4 *367:8 *477:24 2.60152e-05
5 *4234:A *367:8 0.000667898
6 *220:10 *367:8 0
7 *364:10 *367:8 0
8 *366:10 *367:8 8.51225e-05
*RES
1 *4234:Y *367:8 47.6529 
2 *367:8 *4235:A2 40.5271 
*END

*D_NET *368 0.00227311
*CONN
*I *4237:A2 I *D sky130_fd_sc_hd__o21ai_2
*I *4236:Y O *D sky130_fd_sc_hd__xnor2_2
*CAP
1 *4237:A2 0
2 *4236:Y 0
3 *368:12 0.000782614
4 *368:6 0.000782614
5 *368:12 *4519:RESET_B 0
6 *368:12 *370:8 0.000504555
7 *368:12 *852:10 0
8 *368:12 *873:8 4.08537e-05
9 *368:12 *873:23 7.02841e-05
10 *368:12 *874:8 0
11 *368:12 *875:10 9.21934e-05
*RES
1 *4236:Y *368:6 38 
2 *368:6 *368:12 32.1307 
3 *368:12 *4237:A2 23 
*END

*D_NET *369 0.00049103
*CONN
*I *4239:B I *D sky130_fd_sc_hd__and2_2
*I *4238:Y O *D sky130_fd_sc_hd__o31ai_2
*CAP
1 *4239:B 7.20778e-05
2 *4238:Y 7.20778e-05
3 *4239:B *4238:B1 0.00010655
4 *4007:B *4239:B 0.000240324
*RES
1 *4238:Y *4239:B 49.0243 
*END

*D_NET *370 0.00334921
*CONN
*I *4240:A2 I *D sky130_fd_sc_hd__o21ai_2
*I *4239:X O *D sky130_fd_sc_hd__and2_2
*CAP
1 *4240:A2 0.000658388
2 *4239:X 0.000322693
3 *370:8 0.000981081
4 *4240:A2 *4233:A 4.841e-05
5 *4240:A2 *853:10 0.000137651
6 *370:8 *4238:B1 0
7 *370:8 *677:33 2.7636e-05
8 *370:8 *873:23 0.000530119
9 *370:8 *874:28 4.18957e-05
10 *370:8 *875:10 0
11 *220:38 *4240:A2 9.67842e-05
12 *368:12 *370:8 0.000504555
*RES
1 *4239:X *370:8 47.6529 
2 *370:8 *4240:A2 47.2386 
*END

*D_NET *371 0.00323455
*CONN
*I *4242:B I *D sky130_fd_sc_hd__nor2_2
*I *4241:X O *D sky130_fd_sc_hd__and2_2
*CAP
1 *4242:B 0
2 *4241:X 0.000157295
3 *371:14 0.000356301
4 *371:8 0.000513596
5 *371:8 *4241:A 7.53384e-06
6 *371:14 *3982:B 9.41704e-05
7 *371:14 *4523:CLK 0.000412601
8 *371:14 *372:10 2.93845e-05
9 *371:14 *488:67 0.00042671
10 *371:14 *677:14 0.000999781
11 *371:14 *936:14 0.000136743
12 *4241:B *371:8 2.13733e-05
13 *223:10 *371:14 7.90568e-05
*RES
1 *4241:X *371:8 40.0507 
2 *371:8 *371:14 30.225 
3 *371:14 *4242:B 23 
*END

*D_NET *372 0.000375529
*CONN
*I *4243:A2 I *D sky130_fd_sc_hd__o21ai_2
*I *4242:Y O *D sky130_fd_sc_hd__nor2_2
*CAP
1 *4243:A2 0
2 *4242:Y 0.000103722
3 *372:10 0.000103722
4 *372:10 *457:10 5.561e-05
5 *372:10 *488:67 7.28526e-05
6 *223:26 *372:10 1.02387e-05
7 *371:14 *372:10 2.93845e-05
*RES
1 *4242:Y *372:10 40.5271 
2 *372:10 *4243:A2 38 
*END

*D_NET *373 0.00150204
*CONN
*I *4245:A2 I *D sky130_fd_sc_hd__o21ai_2
*I *4244:Y O *D sky130_fd_sc_hd__xnor2_2
*CAP
1 *4245:A2 0
2 *4244:Y 0.000396318
3 *373:12 0.000396318
4 *373:12 *586:18 6.77053e-05
5 *373:12 *855:10 0.00014411
6 *373:12 *877:14 0.000114083
7 *223:10 *373:12 0.000383503
*RES
1 *4244:Y *373:12 47.0521 
2 *373:12 *4245:A2 38 
*END

*D_NET *374 0.000462513
*CONN
*I *4247:B I *D sky130_fd_sc_hd__and2_2
*I *4246:Y O *D sky130_fd_sc_hd__o31ai_2
*CAP
1 *4247:B 9.67939e-05
2 *4246:Y 9.67939e-05
3 *4247:B *375:10 8.1796e-05
4 *4241:B *4247:B 0
5 *222:41 *4247:B 0.000187129
*RES
1 *4246:Y *4247:B 49.0243 
*END

*D_NET *375 0.00105042
*CONN
*I *4248:A2 I *D sky130_fd_sc_hd__o21ai_2
*I *4247:X O *D sky130_fd_sc_hd__and2_2
*CAP
1 *4248:A2 0
2 *4247:X 0.000340208
3 *375:10 0.000340208
4 *375:10 *4245:B1 0
5 *375:10 *856:8 0.000116314
6 *4241:B *375:10 0.00014196
7 *4247:B *375:10 8.1796e-05
8 *222:33 *375:10 0
9 *222:41 *375:10 2.9938e-05
*RES
1 *4247:X *375:10 44.2143 
2 *375:10 *4248:A2 38 
*END

*D_NET *376 0.00211553
*CONN
*I *4253:B I *D sky130_fd_sc_hd__xnor2_2
*I *4251:A_N I *D sky130_fd_sc_hd__and2b_2
*I *4249:Y O *D sky130_fd_sc_hd__nor2_2
*CAP
1 *4253:B 0.000484174
2 *4251:A_N 0.000154166
3 *4249:Y 5.97036e-05
4 *376:8 0.000698044
5 *4251:A_N *377:10 6.00867e-05
6 *4251:A_N *381:10 2.44107e-05
7 *4251:A_N *597:20 0
8 *4251:A_N *663:57 0.0001129
9 *4251:A_N *663:65 0
10 *4253:B *4257:B1 0
11 *4253:B *377:10 0.000137651
12 *4253:B *379:8 4.53119e-05
13 *4253:B *663:72 2.94414e-05
14 *4253:B *663:87 0.000135028
15 *376:8 *381:10 5.21127e-05
16 *376:8 *663:57 9.94675e-05
17 *225:14 *4253:B 2.30292e-05
*RES
1 *4249:Y *376:8 39.5536 
2 *376:8 *4251:A_N 41.6664 
3 *376:8 *4253:B 45.975 
*END

*D_NET *377 0.000884915
*CONN
*I *4251:B I *D sky130_fd_sc_hd__and2b_2
*I *4250:Y O *D sky130_fd_sc_hd__nand2_2
*CAP
1 *4251:B 0
2 *4250:Y 0.000183877
3 *377:10 0.000183877
4 *377:10 *381:10 3.39102e-05
5 *377:10 *597:10 2.33661e-05
6 *377:10 *597:20 0.000195004
7 *377:10 *663:65 3.7122e-06
8 *377:10 *663:72 6.343e-05
9 *4251:A_N *377:10 6.00867e-05
10 *4253:B *377:10 0.000137651
*RES
1 *4250:Y *377:10 43.0129 
2 *377:10 *4251:B 38 
*END

*D_NET *378 0.00104575
*CONN
*I *4252:A2 I *D sky130_fd_sc_hd__o21ai_2
*I *4251:X O *D sky130_fd_sc_hd__and2b_2
*CAP
1 *4252:A2 0
2 *4251:X 0.000218989
3 *378:10 0.000218989
4 *378:10 *4526:CLK 0
5 *378:10 *492:10 0
6 *378:10 *492:58 0
7 *378:10 *597:20 0.000382564
8 *378:10 *608:28 5.3304e-05
9 *378:10 *857:8 0.000171906
*RES
1 *4251:X *378:10 43.6964 
2 *378:10 *4252:A2 38 
*END

*D_NET *379 0.00202324
*CONN
*I *4254:A2 I *D sky130_fd_sc_hd__o21ai_2
*I *4253:Y O *D sky130_fd_sc_hd__xnor2_2
*CAP
1 *4254:A2 0.000313523
2 *4253:Y 2.56309e-05
3 *379:8 0.000339154
4 *4254:A2 *597:31 1.37246e-05
5 *4254:A2 *597:33 6.07611e-06
6 *4254:A2 *608:28 0
7 *4254:A2 *679:12 0.000237534
8 *4254:A2 *679:14 0.000141879
9 *4254:A2 *679:23 0.000233339
10 *4254:A2 *858:10 0.000568589
11 *379:8 *663:87 9.84794e-05
12 *4253:B *379:8 4.53119e-05
*RES
1 *4253:Y *379:8 39.0979 
2 *379:8 *4254:A2 49.0614 
*END

*D_NET *380 0.00220061
*CONN
*I *4256:B I *D sky130_fd_sc_hd__nor2_2
*I *4255:X O *D sky130_fd_sc_hd__o31a_2
*CAP
1 *4256:B 0
2 *4255:X 0.000110804
3 *380:14 0.000609778
4 *380:8 0.000720581
5 *380:14 *4664:A 0.00026808
6 *380:14 *381:10 1.24376e-05
7 *380:14 *597:10 2.64616e-05
8 *380:14 *679:10 4.96717e-05
9 *380:14 *682:14 5.67058e-05
10 *380:14 *682:27 0.000346095
11 *3:14 *380:8 0
*RES
1 *4255:X *380:8 39.9057 
2 *380:8 *380:14 28.0293 
3 *380:14 *4256:B 23 
*END

*D_NET *381 0.000844169
*CONN
*I *4257:A2 I *D sky130_fd_sc_hd__o21ai_2
*I *4256:Y O *D sky130_fd_sc_hd__nor2_2
*CAP
1 *4257:A2 0
2 *4256:Y 0.000248023
3 *381:10 0.000248023
4 *381:10 *494:66 7.75329e-06
5 *381:10 *597:10 0.000147167
6 *381:10 *663:57 7.03317e-05
7 *4251:A_N *381:10 2.44107e-05
8 *376:8 *381:10 5.21127e-05
9 *377:10 *381:10 3.39102e-05
10 *380:14 *381:10 1.24376e-05
*RES
1 *4256:Y *381:10 43.6964 
2 *381:10 *4257:A2 38 
*END

*D_NET *382 0.000265259
*CONN
*I *4259:A2 I *D sky130_fd_sc_hd__o21ai_2
*I *4258:Y O *D sky130_fd_sc_hd__xnor2_2
*CAP
1 *4259:A2 9.76503e-05
2 *4258:Y 9.76503e-05
3 *4259:A2 *860:10 6.99589e-05
*RES
1 *4258:Y *4259:A2 47.5743 
*END

*D_NET *383 0.00278223
*CONN
*I *4262:A I *D sky130_fd_sc_hd__or2_2
*I *4260:X O *D sky130_fd_sc_hd__o31a_2
*CAP
1 *4262:A 0
2 *4260:X 0.000113526
3 *383:12 0.00075833
4 *383:8 0.000871856
5 *383:8 *4260:A1 1.5769e-05
6 *383:12 *3843:A 6.43253e-05
7 *383:12 *4262:B 0.000390218
8 *383:12 *4529:D 0
9 *383:12 *608:14 0.000107071
10 *383:12 *608:16 0
11 *383:12 *682:14 0
12 *383:12 *860:10 0.000114656
13 *383:12 *882:19 0
14 *383:12 *885:8 4.13358e-05
15 *383:12 *885:19 5.86225e-05
16 *225:20 *383:8 2.18409e-05
17 *226:26 *383:8 5.50049e-05
18 *226:26 *383:12 0.000169674
*RES
1 *4260:X *383:8 39.5743 
2 *383:8 *383:12 34.1607 
3 *383:12 *4262:A 23 
*END

*D_NET *384 0.00265052
*CONN
*I *4262:B I *D sky130_fd_sc_hd__or2_2
*I *4261:Y O *D sky130_fd_sc_hd__o21ai_2
*CAP
1 *4262:B 0.000425906
2 *4261:Y 0.000397188
3 *384:10 0.000823093
4 *4262:B *494:12 0
5 *4262:B *494:60 7.10099e-05
6 *4262:B *608:14 8.4047e-05
7 *4262:B *608:57 0.000327903
8 *4262:B *738:22 2.76611e-06
9 *92:14 *384:10 0.000128391
10 *383:12 *4262:B 0.000390218
*RES
1 *4261:Y *384:10 43.4064 
2 *384:10 *4262:B 48.7093 
*END

*D_NET *385 0.000861274
*CONN
*I *4266:A2 I *D sky130_fd_sc_hd__a21oi_2
*I *4265:Y O *D sky130_fd_sc_hd__nand2_2
*CAP
1 *4266:A2 0
2 *4265:Y 0.000332525
3 *385:10 0.000332525
4 *385:10 *466:6 0.000128106
5 *385:10 *466:58 6.81178e-05
*RES
1 *4265:Y *385:10 43.3857 
2 *385:10 *4266:A2 38 
*END

*D_NET *386 0.0029454
*CONN
*I *4268:A2 I *D sky130_fd_sc_hd__a21oi_2
*I *4267:Y O *D sky130_fd_sc_hd__nand2_2
*CAP
1 *4268:A2 0
2 *4267:Y 8.17762e-05
3 *386:16 0.000576952
4 *386:8 0.000658728
5 *386:16 *4265:A 0.000145986
6 *386:16 *466:6 7.87243e-05
7 *386:16 *619:44 0.000154843
8 *386:16 *619:46 0.000532218
9 *386:16 *619:56 0.000289637
10 *386:16 *909:8 0.000131083
11 *386:16 *910:8 5.34638e-05
12 *386:16 *928:10 0.000186054
13 *194:31 *386:16 5.59326e-05
*RES
1 *4267:Y *386:8 39.0979 
2 *386:8 *386:16 31.6543 
3 *386:16 *4268:A2 23 
*END

*D_NET *387 0.00250223
*CONN
*I *4270:A2 I *D sky130_fd_sc_hd__a21oi_2
*I *4269:Y O *D sky130_fd_sc_hd__nand2_2
*CAP
1 *4270:A2 0
2 *4269:Y 0.000168491
3 *387:14 0.000609644
4 *387:8 0.000778135
5 *387:8 *466:6 2.02872e-05
6 *387:14 *931:17 0.000407441
7 *4270:A1 *387:14 0.000277792
8 *193:10 *387:14 1.77552e-05
9 *193:27 *387:14 3.66306e-05
10 *194:31 *387:8 0.000186051
*RES
1 *4269:Y *387:8 40.5271 
2 *387:8 *387:14 28.3607 
3 *387:14 *4270:A2 23 
*END

*D_NET *388 0.000488236
*CONN
*I *4272:A2 I *D sky130_fd_sc_hd__a21oi_2
*I *4271:Y O *D sky130_fd_sc_hd__nand2_2
*CAP
1 *4272:A2 0
2 *4271:Y 0.000226656
3 *388:10 0.000226656
4 *388:10 *4271:A 2.93335e-05
5 *196:22 *388:10 5.58975e-06
*RES
1 *4271:Y *388:10 41.3557 
2 *388:10 *4272:A2 38 
*END

*D_NET *389 0.00234322
*CONN
*I *4274:A2 I *D sky130_fd_sc_hd__a21oi_2
*I *4273:Y O *D sky130_fd_sc_hd__o21ai_2
*CAP
1 *4274:A2 7.69201e-05
2 *4273:Y 0.000492893
3 *389:10 0.000569813
4 *4274:A2 *3983:B 5.12254e-05
5 *4274:A2 *619:25 4.27272e-05
6 *389:10 *3980:A 8.62876e-05
7 *389:10 *3983:A 0.000207507
8 *389:10 *4271:A 1.13013e-05
9 *389:10 *933:12 0.000197981
10 *389:10 *933:36 3.54728e-05
11 *389:10 *934:21 0.00026533
12 *3979:B *389:10 4.5051e-05
13 *199:8 *389:10 0.000223698
14 *200:8 *389:10 3.70094e-05
*RES
1 *4273:Y *389:10 49.02 
2 *389:10 *4274:A2 39.5743 
*END

*D_NET *390 0.00183615
*CONN
*I *4276:A2 I *D sky130_fd_sc_hd__a21oi_2
*I *4275:Y O *D sky130_fd_sc_hd__nand2_2
*CAP
1 *4276:A2 0
2 *4275:Y 0.000474887
3 *390:10 0.000474887
4 *390:10 *4275:A 0.000317553
5 *390:10 *627:8 0.000536731
6 *390:10 *631:8 0
7 *390:10 *675:36 0
8 *390:10 *677:14 2.60152e-05
9 *4275:B *390:10 0
10 *4276:A1 *390:10 6.07611e-06
11 *197:25 *390:10 0
*RES
1 *4275:Y *390:10 49.3721 
2 *390:10 *4276:A2 38 
*END

*D_NET *391 0.000602848
*CONN
*I *4278:A2 I *D sky130_fd_sc_hd__a21oi_2
*I *4277:Y O *D sky130_fd_sc_hd__nand2_2
*CAP
1 *4278:A2 0.000101567
2 *4277:Y 6.87177e-05
3 *391:8 0.000170285
4 *4278:A2 *642:45 5.70419e-05
5 *4278:A2 *914:10 4.39949e-05
6 *391:8 *610:10 5.80963e-05
7 *391:8 *642:57 8.51432e-05
8 *4277:B *391:8 1.80023e-05
*RES
1 *4277:Y *391:8 40.2579 
2 *391:8 *4278:A2 40.2889 
*END

*D_NET *392 0.000406897
*CONN
*I *4280:A2 I *D sky130_fd_sc_hd__a21oi_2
*I *4279:Y O *D sky130_fd_sc_hd__nand2_2
*CAP
1 *4280:A2 0
2 *4279:Y 0.000187346
3 *392:10 0.000187346
4 *392:10 *4279:A 3.22051e-05
*RES
1 *4279:Y *392:10 41.3557 
2 *392:10 *4280:A2 38 
*END

*D_NET *393 0.00123621
*CONN
*I *4282:A2 I *D sky130_fd_sc_hd__a21oi_2
*I *4281:Y O *D sky130_fd_sc_hd__nand2_2
*CAP
1 *4282:A2 0.000175293
2 *4281:Y 0.000442813
3 *393:10 0.000618107
*RES
1 *4281:Y *393:10 45.1257 
2 *393:10 *4282:A2 40.5271 
*END

*D_NET *394 0.00201272
*CONN
*I *4284:A2 I *D sky130_fd_sc_hd__a21oi_2
*I *4283:Y O *D sky130_fd_sc_hd__nand2_2
*CAP
1 *4284:A2 0.000225727
2 *4283:Y 0.000422574
3 *394:10 0.000648302
4 *4284:A2 *496:22 0.000139113
5 *394:10 *496:22 0.000151463
6 *394:10 *496:24 0.000116391
7 *394:10 *496:46 8.68049e-06
8 *394:10 *496:54 2.25988e-05
9 *394:10 *630:64 6.22448e-06
10 *394:10 *918:35 0.000141975
11 *4284:A1 *4284:A2 0.000102389
12 *203:38 *394:10 2.72789e-05
*RES
1 *4283:Y *394:10 46.41 
2 *394:10 *4284:A2 43.075 
*END

*D_NET *395 0.000971655
*CONN
*I *4286:A2 I *D sky130_fd_sc_hd__a21oi_2
*I *4285:Y O *D sky130_fd_sc_hd__nand2_2
*CAP
1 *4286:A2 5.8069e-05
2 *4285:Y 0.000124917
3 *395:8 0.000182986
4 *395:8 *496:72 0.000240056
5 *395:8 *615:10 1.37246e-05
6 *395:8 *897:14 0.000207408
7 *4286:A1 *4286:A2 0.000144494
*RES
1 *4285:Y *395:8 41.6664 
2 *395:8 *4286:A2 39.5743 
*END

*D_NET *396 0.000101316
*CONN
*I *4288:A2 I *D sky130_fd_sc_hd__a21oi_2
*I *4287:Y O *D sky130_fd_sc_hd__nand2_2
*CAP
1 *4288:A2 2.16801e-05
2 *4287:Y 2.16801e-05
3 *4288:A1 *4288:A2 5.79559e-05
*RES
1 *4287:Y *4288:A2 46.6214 
*END

*D_NET *397 0.000445915
*CONN
*I *4290:A2 I *D sky130_fd_sc_hd__a21oi_2
*I *4289:Y O *D sky130_fd_sc_hd__o21ai_2
*CAP
1 *4290:A2 0
2 *4289:Y 0.000150287
3 *397:10 0.000150287
4 *397:10 *4500:CLK 3.40698e-05
5 *397:10 *604:10 5.56356e-05
6 *4289:A2 *397:10 5.56356e-05
*RES
1 *4289:Y *397:10 40.8793 
2 *397:10 *4290:A2 38 
*END

*D_NET *398 0.00191666
*CONN
*I *4292:A2 I *D sky130_fd_sc_hd__a21oi_2
*I *4291:Y O *D sky130_fd_sc_hd__nand2_2
*CAP
1 *4292:A2 6.71548e-05
2 *4291:Y 0.000340314
3 *398:8 0.000407469
4 *398:8 *4500:CLK 0.000179557
5 *398:8 *467:31 4.95442e-05
6 *398:8 *467:44 5.19276e-05
7 *398:8 *604:10 0.000115526
8 *398:8 *717:10 0.000141879
9 *208:10 *398:8 0.000469121
10 *208:14 *4292:A2 9.41704e-05
*RES
1 *4291:Y *398:8 48.7093 
2 *398:8 *4292:A2 39.0979 
*END

*D_NET *399 0.00350218
*CONN
*I *4294:A2 I *D sky130_fd_sc_hd__a21oi_2
*I *4293:Y O *D sky130_fd_sc_hd__nand2_2
*CAP
1 *4294:A2 0.000683884
2 *4293:Y 0.000303587
3 *399:8 0.00098747
4 *4294:A2 *4294:B1 5.25022e-05
5 *4294:A2 *4815:A 0.000188927
6 *4294:A2 *630:6 0.000177049
7 *4294:A2 *630:8 4.96207e-05
8 *4294:A2 *901:10 1.59071e-05
9 *399:8 *635:8 0
10 *399:8 *685:21 1.59208e-05
11 *399:8 *903:10 0.000354778
12 *208:38 *399:8 0.000672538
*RES
1 *4293:Y *399:8 47.6529 
2 *399:8 *4294:A2 49.6 
*END

*D_NET *400 0.00169879
*CONN
*I *4296:A2 I *D sky130_fd_sc_hd__a21oi_2
*I *4295:Y O *D sky130_fd_sc_hd__nand2_2
*CAP
1 *4296:A2 0
2 *4295:Y 0.000642744
3 *400:12 0.000642744
4 *400:12 *3993:A 5.56279e-05
5 *400:12 *3994:C 2.94787e-05
6 *400:12 *924:34 3.95652e-05
7 *3993:B *400:12 2.93335e-05
8 *210:10 *400:12 0.000259301
*RES
1 *4295:Y *400:12 47.6943 
2 *400:12 *4296:A2 38 
*END

*D_NET *401 0.00149043
*CONN
*I *4298:A2 I *D sky130_fd_sc_hd__a21oi_2
*I *4297:Y O *D sky130_fd_sc_hd__o21ai_2
*CAP
1 *4298:A2 0.000105956
2 *4297:Y 0.00030892
3 *401:10 0.000414876
4 *4298:A2 *3992:A 4.93812e-05
5 *4298:A2 *4298:B1 0.000188934
6 *4298:A2 *530:18 7.25404e-05
7 *401:10 *4297:A1 5.22448e-05
8 *401:10 *630:34 1.44001e-05
9 *401:10 *901:10 0.000137594
10 *3992:B *4298:A2 5.79559e-05
11 *209:8 *401:10 8.76248e-05
*RES
1 *4297:Y *401:10 44.1729 
2 *401:10 *4298:A2 41.48 
*END

*D_NET *402 0.00208099
*CONN
*I *4301:A1 I *D sky130_fd_sc_hd__a21oi_2
*I *4302:B I *D sky130_fd_sc_hd__nand2_2
*I *4299:X O *D sky130_fd_sc_hd__or2_2
*CAP
1 *4301:A1 7.23785e-05
2 *4302:B 0.000122368
3 *4299:X 0.000333548
4 *402:10 0.000528294
5 *4301:A1 *642:90 0.000139352
6 *4301:A1 *904:8 6.17437e-06
7 *4302:B *404:10 7.91493e-05
8 *402:10 *4299:A 0
9 *402:10 *404:10 8.82524e-05
10 *402:10 *468:69 0
11 *4299:B *402:10 0.000128583
12 *211:42 *402:10 9.39262e-05
13 *211:54 *4302:B 0.000122386
14 *211:54 *402:10 0.000352375
15 *212:8 *402:10 1.42006e-05
*RES
1 *4299:X *402:10 46.5136 
2 *402:10 *4302:B 41.3143 
3 *402:10 *4301:A1 39.5743 
*END

*D_NET *403 0.000930483
*CONN
*I *4301:A2 I *D sky130_fd_sc_hd__a21oi_2
*I *4300:Y O *D sky130_fd_sc_hd__nand2_2
*CAP
1 *4301:A2 0
2 *4300:Y 0.000151136
3 *403:10 0.000151136
4 *403:10 *4300:A 2.4754e-05
5 *403:10 *4303:B1 9.84794e-05
6 *403:10 *4667:A 3.47781e-05
7 *403:10 *404:10 5.75972e-05
8 *403:10 *642:90 0.000191138
9 *403:10 *905:6 2.02872e-05
10 *211:42 *403:10 0.00018282
11 *212:8 *403:10 1.83564e-05
*RES
1 *4300:Y *403:10 43.0129 
2 *403:10 *4301:A2 38 
*END

*D_NET *404 0.000897775
*CONN
*I *4303:A2 I *D sky130_fd_sc_hd__a21oi_2
*I *4302:Y O *D sky130_fd_sc_hd__nand2_2
*CAP
1 *4303:A2 0
2 *4302:Y 0.000331316
3 *404:10 0.000331316
4 *404:10 *642:90 0
5 *4302:B *404:10 7.91493e-05
6 *212:8 *404:10 1.01436e-05
7 *402:10 *404:10 8.82524e-05
8 *403:10 *404:10 5.75972e-05
*RES
1 *4302:Y *404:10 44.2971 
2 *404:10 *4303:A2 38 
*END

*D_NET *405 0.00318013
*CONN
*I *4305:A1 I *D sky130_fd_sc_hd__mux2_1
*I *4304:X O *D sky130_fd_sc_hd__and2_2
*CAP
1 *4305:A1 0
2 *4304:X 0.000263491
3 *405:20 0.000398081
4 *405:16 0.000661572
5 *405:16 *3996:C 7.42621e-05
6 *405:16 *4834:A 0.000328697
7 *405:20 *4299:A 0
8 *405:20 *4506:RESET_B 0.000165583
9 *405:20 *907:10 3.21223e-05
10 *405:20 *927:27 0.000269179
11 *213:12 *405:20 0.000987146
*RES
1 *4304:X *405:16 44.67 
2 *405:16 *405:20 28.1743 
3 *405:20 *4305:A1 23 
*END

*D_NET *406 0.00162025
*CONN
*I *4309:A2 I *D sky130_fd_sc_hd__a21oi_2
*I *4308:Y O *D sky130_fd_sc_hd__nand2_2
*CAP
1 *4309:A2 0.000346688
2 *4308:Y 0.000275305
3 *406:8 0.000621993
4 *4309:A2 *471:12 0.000210945
5 *4309:A2 *471:23 2.34364e-05
6 *4309:A2 *930:8 0
7 *174:14 *4309:A2 0.000141879
*RES
1 *4308:Y *406:8 42.4329 
2 *406:8 *4309:A2 46.5136 
*END

*D_NET *407 0.00205609
*CONN
*I *4311:A2 I *D sky130_fd_sc_hd__a21oi_2
*I *4310:Y O *D sky130_fd_sc_hd__nand2_2
*CAP
1 *4311:A2 0
2 *4310:Y 0
3 *407:12 0.000590488
4 *407:6 0.000590488
5 *407:12 *4313:B1 0
6 *407:12 *643:10 7.28526e-05
7 *407:12 *647:18 3.34247e-05
8 *407:12 *647:37 5.70419e-05
9 *407:12 *647:43 0
10 *407:12 *954:8 0.000114074
11 *407:12 *955:10 0.000181412
12 *174:37 *407:12 0
13 *175:12 *407:12 0.000408777
14 *176:10 *407:12 7.53384e-06
*RES
1 *4310:Y *407:6 38 
2 *407:6 *407:12 30.9293 
3 *407:12 *4311:A2 23 
*END

*D_NET *408 0.000808359
*CONN
*I *4313:A2 I *D sky130_fd_sc_hd__a21oi_2
*I *4312:Y O *D sky130_fd_sc_hd__nand2_2
*CAP
1 *4313:A2 0
2 *4312:Y 0.00019076
3 *408:8 0.00019076
4 *408:8 *3957:A 0.000228903
5 *408:8 *4835:A 9.84851e-05
6 *408:8 *643:10 3.22879e-05
7 *4312:B *408:8 4.95081e-05
8 *176:16 *408:8 1.76557e-05
*RES
1 *4312:Y *408:8 28.4064 
2 *408:8 *4313:A2 23 
*END

*D_NET *409 0.0016753
*CONN
*I *4315:A2 I *D sky130_fd_sc_hd__o21a_2
*I *4314:X O *D sky130_fd_sc_hd__and2_2
*CAP
1 *4315:A2 0
2 *4314:X 0.000341027
3 *409:10 0.000341027
4 *409:10 *4579:RESET_B 0
5 *409:10 *472:50 0.000135037
6 *409:10 *688:79 0
7 *409:10 *979:8 4.34876e-05
8 *409:10 *980:22 0.000175438
9 *4314:B *409:10 5.3304e-05
10 *4315:A1 *409:10 0.000585981
*RES
1 *4314:X *409:10 47.4664 
2 *409:10 *4315:A2 38 
*END

*D_NET *410 0.000118198
*CONN
*I *4317:B I *D sky130_fd_sc_hd__nor2_2
*I *4316:Y O *D sky130_fd_sc_hd__xnor2_2
*CAP
1 *4317:B 5.90989e-05
2 *4316:Y 5.90989e-05
*RES
1 *4316:Y *4317:B 47.0979 
*END

*D_NET *411 0.00128482
*CONN
*I *4319:A2 I *D sky130_fd_sc_hd__a21oi_2
*I *4318:Y O *D sky130_fd_sc_hd__o31ai_2
*CAP
1 *4319:A2 0
2 *4318:Y 0.00043201
3 *411:10 0.00043201
4 *411:10 *4579:CLK 0.000193379
5 *411:10 *607:10 0
6 *411:10 *621:10 0
7 *411:10 *647:10 0
8 *176:16 *411:10 0.000227417
*RES
1 *4318:Y *411:10 47.86 
2 *411:10 *4319:A2 38 
*END

*D_NET *412 0.000563562
*CONN
*I *4321:A2 I *D sky130_fd_sc_hd__a21oi_2
*I *4320:Y O *D sky130_fd_sc_hd__nand2_2
*CAP
1 *4321:A2 1.9139e-05
2 *4320:Y 7.57923e-05
3 *412:8 9.49313e-05
4 *4321:A2 *690:49 5.3304e-05
5 *412:8 *647:84 9.88678e-05
6 *4321:A1 *4321:A2 5.50049e-05
7 *4322:A2 *412:8 0
8 *179:8 *412:8 0.000166522
*RES
1 *4320:Y *412:8 40.61 
2 *412:8 *4321:A2 38.6214 
*END

*D_NET *413 0.00162819
*CONN
*I *4323:A2 I *D sky130_fd_sc_hd__a21oi_2
*I *4322:Y O *D sky130_fd_sc_hd__o21ai_2
*CAP
1 *4323:A2 7.00184e-05
2 *4322:Y 0.000251205
3 *413:8 0.000321223
4 *4323:A2 *983:10 6.17437e-06
5 *413:8 *472:10 2.84809e-05
6 *413:8 *612:8 5.26204e-05
7 *413:8 *649:24 0
8 *413:8 *959:10 0.00035476
9 *413:8 *981:10 0.000379413
10 *413:8 *981:21 2.77955e-05
11 *413:8 *982:25 7.16889e-05
12 *4322:A2 *413:8 6.48142e-05
*RES
1 *4322:Y *413:8 46.9486 
2 *413:8 *4323:A2 39.0979 
*END

*D_NET *414 0.000464657
*CONN
*I *4325:A2 I *D sky130_fd_sc_hd__a21oi_2
*I *4324:Y O *D sky130_fd_sc_hd__nand2_2
*CAP
1 *4325:A2 0
2 *4324:Y 0.000203976
3 *414:10 0.000203976
4 *180:14 *414:10 0
5 *181:16 *414:10 5.67058e-05
*RES
1 *4324:Y *414:10 27.1221 
2 *414:10 *4325:A2 23 
*END

*D_NET *415 0.000230216
*CONN
*I *4327:A2 I *D sky130_fd_sc_hd__o21a_2
*I *4326:X O *D sky130_fd_sc_hd__and2_2
*CAP
1 *4327:A2 0.000112021
2 *4326:X 0.000112021
3 *4326:B *4327:A2 6.17437e-06
*RES
1 *4326:X *4327:A2 47.5743 
*END

*D_NET *416 0.000762493
*CONN
*I *4329:B I *D sky130_fd_sc_hd__nor2_2
*I *4328:Y O *D sky130_fd_sc_hd__xnor2_2
*CAP
1 *4329:B 3.48348e-05
2 *4328:Y 0.000114017
3 *416:8 0.000148852
4 *4329:B *648:56 0.00014196
5 *4329:B *942:10 9.84851e-05
6 *416:8 *648:56 0.000224345
*RES
1 *4328:Y *416:8 40.9621 
2 *416:8 *4329:B 39.5743 
*END

*D_NET *417 0.000272048
*CONN
*I *4331:A2 I *D sky130_fd_sc_hd__a21oi_2
*I *4330:Y O *D sky130_fd_sc_hd__o21ai_2
*CAP
1 *4331:A2 8.51297e-05
2 *4330:Y 8.51297e-05
3 *4330:A2 *4331:A2 1.32314e-05
4 *181:49 *4331:A2 3.91386e-05
5 *184:14 *4331:A2 4.94192e-05
*RES
1 *4330:Y *4331:A2 48.0714 
*END

*D_NET *418 0.00139586
*CONN
*I *4333:A2 I *D sky130_fd_sc_hd__a21oi_2
*I *4332:Y O *D sky130_fd_sc_hd__nand2_2
*CAP
1 *4333:A2 0
2 *4332:Y 0.000383782
3 *418:8 0.000383782
4 *418:8 *4332:A 9.75779e-05
5 *418:8 *648:24 0.000144106
6 *418:8 *648:30 0.000312348
7 *4332:B *418:8 1.72202e-05
8 *4333:A1 *418:8 5.70419e-05
*RES
1 *4332:Y *418:8 31.265 
2 *418:8 *4333:A2 23 
*END

*D_NET *419 0.000224196
*CONN
*I *4335:B I *D sky130_fd_sc_hd__nor2_2
*I *4334:X O *D sky130_fd_sc_hd__xor2_2
*CAP
1 *4335:B 1.19175e-05
2 *4334:X 1.19175e-05
3 *4335:B *648:18 0.00010018
4 *4333:A1 *4335:B 0.00010018
*RES
1 *4334:X *4335:B 47.0979 
*END

*D_NET *420 0.00171586
*CONN
*I *4337:A2 I *D sky130_fd_sc_hd__a21oi_2
*I *4336:Y O *D sky130_fd_sc_hd__o21ai_2
*CAP
1 *4337:A2 3.06432e-05
2 *4336:Y 0.000350188
3 *420:8 0.000380831
4 *420:8 *3969:A 0.000398924
5 *420:8 *4336:A1 0.00014411
6 *420:8 *484:36 0
7 *420:8 *484:42 0
8 *420:8 *945:8 0
9 *420:8 *946:10 0.000111852
10 *420:8 *967:10 0.000240695
11 *4334:B *420:8 5.86165e-05
*RES
1 *4336:Y *420:8 48.3571 
2 *420:8 *4337:A2 38.3832 
*END

*D_NET *421 0.00144434
*CONN
*I *4339:A2 I *D sky130_fd_sc_hd__a21oi_2
*I *4338:Y O *D sky130_fd_sc_hd__nand2_2
*CAP
1 *4339:A2 0
2 *4338:Y 0.000530292
3 *421:10 0.000530292
4 *421:10 *4339:B1 0
5 *421:10 *4591:RESET_B 0.00025307
6 *421:10 *648:8 1.94812e-05
7 *421:10 *947:10 0.000111207
8 *189:10 *421:10 0
9 *189:12 *421:10 0
*RES
1 *4338:Y *421:10 48.7714 
2 *421:10 *4339:A2 38 
*END

*D_NET *422 0.000257178
*CONN
*I *4341:B I *D sky130_fd_sc_hd__nor2_2
*I *4340:X O *D sky130_fd_sc_hd__xor2_2
*CAP
1 *4341:B 0.000128589
2 *4340:X 0.000128589
*RES
1 *4340:X *4341:B 48.0714 
*END

*D_NET *423 0.00131491
*CONN
*I *4343:A2 I *D sky130_fd_sc_hd__o21a_2
*I *4342:X O *D sky130_fd_sc_hd__o21a_2
*CAP
1 *4343:A2 0
2 *4342:X 0.000186706
3 *423:8 0.000186706
4 *423:8 *4339:B1 2.4754e-05
5 *423:8 *4342:A1 1.28818e-05
6 *423:8 *939:40 0.000649804
7 *423:8 *947:10 9.84794e-05
8 *4339:A1 *423:8 8.31367e-05
9 *189:16 *423:8 7.24365e-05
*RES
1 *4342:X *423:8 30.3121 
2 *423:8 *4343:A2 23 
*END

*D_NET *424 0.00182543
*CONN
*I *4345:B I *D sky130_fd_sc_hd__nor2_2
*I *4344:Y O *D sky130_fd_sc_hd__xnor2_2
*CAP
1 *4345:B 0
2 *4344:Y 0.000368271
3 *424:10 0.000368271
4 *424:10 *4595:CLK 4.32475e-05
5 *424:10 *485:51 3.95578e-05
6 *424:10 *629:10 2.93845e-05
7 *424:10 *649:14 0.000177769
8 *424:10 *649:58 7.20089e-05
9 *424:10 *950:8 0.000116314
10 *4344:B *424:10 0.000187976
11 *4346:A2 *424:10 0
12 *189:10 *424:10 2.08324e-05
13 *189:12 *424:10 4.35963e-05
14 *189:38 *424:10 8.04953e-05
15 *190:18 *424:10 0.000277705
*RES
1 *4344:Y *424:10 48.6471 
2 *424:10 *4345:B 38 
*END

*D_NET *425 0.0033739
*CONN
*I *4347:A1 I *D sky130_fd_sc_hd__mux2_1
*I *4346:X O *D sky130_fd_sc_hd__o31a_2
*CAP
1 *4347:A1 0
2 *4346:X 0.000210301
3 *425:14 0.000510592
4 *425:8 0.000720893
5 *425:8 *4346:A1 5.50049e-05
6 *425:8 *974:16 0.000129632
7 *425:8 *975:8 0.000188967
8 *425:14 *3973:B 0.000219822
9 *425:14 *4347:A0 0.000231932
10 *425:14 *974:16 0.000341048
11 *3974:B *425:14 0.000218962
12 *4347:S *425:14 0.000206587
13 *191:10 *425:14 0.000340153
*RES
1 *4346:X *425:8 43.3857 
2 *425:8 *425:14 27.8843 
3 *425:14 *4347:A1 23 
*END

*D_NET *426 0.00381864
*CONN
*I *4358:B1 I *D sky130_fd_sc_hd__a22o_2
*I *4357:X O *D sky130_fd_sc_hd__or3b_2
*CAP
1 *4358:B1 0
2 *4357:X 0.000442756
3 *426:12 0.000429474
4 *426:8 0.00087223
5 *426:8 *4357:C_N 2.36123e-05
6 *426:8 *4629:A 0.000443229
7 *426:12 *4357:C_N 0
8 *426:12 *465:25 0.000945158
9 *426:12 *746:32 0
10 *4358:A2 *426:12 0.000350079
11 *159:43 *426:12 0.000312098
*RES
1 *4357:X *426:8 44.3386 
2 *426:8 *426:12 27.8221 
3 *426:12 *4358:B1 23 
*END

*D_NET *427 0.00140687
*CONN
*I *4360:B1 I *D sky130_fd_sc_hd__a22o_2
*I *4359:Y O *D sky130_fd_sc_hd__nand2_2
*CAP
1 *4360:B1 0.000265373
2 *4359:Y 0.000274644
3 *427:10 0.000540017
4 *4360:B1 *4360:A1 3.22879e-05
5 *4360:B1 *4360:B2 1.98161e-05
6 *427:10 *4360:A1 0
7 *427:10 *4471:CLK 0
8 *427:10 *449:226 1.94693e-05
9 *427:10 *747:40 1.19692e-05
10 *427:10 *747:55 0
11 *3870:B1 *427:10 0
12 *3:14 *427:10 0.000243292
*RES
1 *4359:Y *427:10 44.4007 
2 *427:10 *4360:B1 43.0957 
*END

*D_NET *428 0.00183773
*CONN
*I *4364:B I *D sky130_fd_sc_hd__nand2_2
*I *4362:A I *D sky130_fd_sc_hd__inv_2
*I *4361:X O *D sky130_fd_sc_hd__mux2_1
*CAP
1 *4364:B 0.000216647
2 *4362:A 0.000198338
3 *4361:X 0.000278835
4 *428:8 0.00069382
5 *4362:A *687:26 0
6 *4362:A *742:18 0.000150986
7 *4364:B *742:18 0.000179525
8 *428:8 *482:8 0.000100486
9 *428:8 *498:20 1.90919e-05
*RES
1 *4361:X *428:8 41.48 
2 *428:8 *4362:A 42.64 
3 *428:8 *4364:B 43.075 
*END

*D_NET *429 0.00226112
*CONN
*I *4363:B1 I *D sky130_fd_sc_hd__a221o_2
*I *4362:Y O *D sky130_fd_sc_hd__inv_2
*CAP
1 *4363:B1 0.000194744
2 *4362:Y 0.000322793
3 *429:10 0.000517536
4 *4363:B1 *4363:A1 1.37702e-05
5 *4363:B1 *430:10 0.0001784
6 *4363:B1 *521:66 2.27167e-05
7 *4363:B1 *521:78 1.79284e-05
8 *4363:B1 *622:16 0.00011157
9 *4363:B1 *742:68 3.30725e-06
10 *429:10 *482:10 0.000194043
11 *429:10 *482:58 0.000178512
12 *429:10 *482:69 0.00018065
13 *429:10 *742:18 0.000288408
14 *165:33 *4363:B1 3.34576e-05
15 *171:20 *4363:B1 3.28357e-06
*RES
1 *4362:Y *429:10 46.6379 
2 *429:10 *4363:B1 42.5986 
*END

*D_NET *430 0.00176017
*CONN
*I *4365:B1 I *D sky130_fd_sc_hd__a221o_2
*I *4364:Y O *D sky130_fd_sc_hd__nand2_2
*CAP
1 *4365:B1 3.45723e-05
2 *4364:Y 0.000269579
3 *430:10 0.000304152
4 *4365:B1 *4427:CLK 5.3304e-05
5 *4365:B1 *521:78 1.24376e-05
6 *430:10 *449:13 1.18379e-05
7 *430:10 *521:78 0.0003717
8 *430:10 *622:16 0.000423695
9 *4363:B1 *430:10 0.0001784
10 *65:10 *430:10 9.0404e-05
11 *165:33 *430:10 1.0092e-05
*RES
1 *4364:Y *430:10 46.3064 
2 *430:10 *4365:B1 38.6214 
*END

*D_NET *431 0.0034487
*CONN
*I *4369:B I *D sky130_fd_sc_hd__nor2_2
*I *4370:B I *D sky130_fd_sc_hd__or2_2
*I *4390:B1 I *D sky130_fd_sc_hd__a21oi_2
*I *4368:X O *D sky130_fd_sc_hd__a221o_2
*CAP
1 *4369:B 0.000438945
2 *4370:B 0.000113526
3 *4390:B1 4.26123e-05
4 *4368:X 0.000321231
5 *431:21 0.0007242
6 *431:10 0.000214342
7 *431:8 0.000321231
8 *4369:B *432:10 5.70419e-05
9 *4369:B *433:14 5.36457e-05
10 *4369:B *650:25 3.70553e-06
11 *4369:B *650:34 2.80512e-05
12 *4370:B *433:14 4.66036e-05
13 *4370:B *1023:8 5.50106e-05
14 *4390:B1 *456:12 9.84794e-05
15 *431:8 *456:8 0.000167815
16 *431:8 *456:25 9.48381e-06
17 *431:8 *715:75 0
18 *431:8 *716:52 0
19 *431:21 *4390:A1 8.71791e-05
20 *431:21 *456:12 4.2573e-05
21 *431:21 *456:25 9.84794e-05
22 *123:67 *431:8 4.21594e-06
23 *123:88 *431:8 0.000109523
24 *126:44 *4369:B 0.00015954
25 *126:44 *4370:B 0.000163352
26 *270:12 *4369:B 8.79125e-05
*RES
1 *4368:X *431:8 45.54 
2 *431:8 *431:10 15 
3 *431:10 *4390:B1 24.0979 
4 *431:10 *431:21 18.48 
5 *431:21 *4370:B 40.8793 
6 *431:21 *4369:B 46.6586 
*END

*D_NET *432 0.00368292
*CONN
*I *4380:A3 I *D sky130_fd_sc_hd__a31o_2
*I *4673:A I *D sky130_fd_sc_hd__clkdlybuf4s25_1
*I *4369:Y O *D sky130_fd_sc_hd__nor2_2
*CAP
1 *4380:A3 0.000297089
2 *4673:A 0.000372946
3 *4369:Y 0.000350249
4 *432:10 0.00102028
5 *4380:A3 *4378:A3 0
6 *4380:A3 *438:10 0.000111852
7 *4380:A3 *554:10 1.22803e-05
8 *4380:A3 *651:66 0
9 *4380:A3 *1023:29 0.000344635
10 *4673:A *4672:A 9.67842e-05
11 *4673:A *651:36 1.57571e-05
12 *4673:A *651:60 0.000308422
13 *432:10 *650:34 9.84851e-05
14 *432:10 *651:66 0
15 *432:10 *716:65 0
16 *432:10 *1023:29 0.000597094
17 *4369:B *432:10 5.70419e-05
*RES
1 *4369:Y *432:10 47.3421 
2 *432:10 *4673:A 46.265 
3 *432:10 *4380:A3 44.6493 
*END

*D_NET *433 0.00633877
*CONN
*I *4377:B I *D sky130_fd_sc_hd__and2_2
*I *4379:B I *D sky130_fd_sc_hd__and2_2
*I *4672:A I *D sky130_fd_sc_hd__clkdlybuf4s25_1
*I *4370:X O *D sky130_fd_sc_hd__or2_2
*CAP
1 *4377:B 0
2 *4379:B 0
3 *4672:A 2.84143e-05
4 *4370:X 5.34288e-05
5 *433:42 0.000697928
6 *433:25 0.000832491
7 *433:14 0.000799733
8 *433:8 0.000690185
9 *4672:A *651:60 9.67842e-05
10 *433:8 *4370:A 1.59094e-05
11 *433:14 *4390:A1 0.000126343
12 *433:14 *568:10 0.000323803
13 *433:14 *650:10 0
14 *433:14 *716:52 0
15 *433:14 *1021:10 4.03799e-05
16 *433:14 *1023:29 0.000257522
17 *433:14 *1024:57 9.03784e-05
18 *433:25 *650:10 0
19 *433:25 *650:73 0
20 *433:25 *1016:12 1.14452e-05
21 *433:25 *1023:29 0.000125904
22 *433:42 *4377:A 9.84851e-05
23 *433:42 *4434:RESET_B 0
24 *433:42 *437:6 0.000574096
25 *433:42 *554:10 0.000224345
26 *433:42 *569:10 4.75206e-05
27 *433:42 *689:12 0.000254208
28 *433:42 *939:50 0.000228909
29 *433:42 *1016:12 0.000456747
30 *433:42 *1023:29 6.67764e-05
31 *4369:B *433:14 5.36457e-05
32 *4370:B *433:14 4.66036e-05
33 *4673:A *4672:A 9.67842e-05
34 *72:10 *433:42 0
35 *126:44 *433:14 0
*RES
1 *4370:X *433:8 38.6214 
2 *433:8 *433:14 15.7014 
3 *433:14 *4672:A 39.0979 
4 *433:14 *433:25 3.31429 
5 *433:25 *4379:B 38 
6 *433:25 *433:42 35.2586 
7 *433:42 *4377:B 23 
*END

*D_NET *434 0.000535515
*CONN
*I *4372:B1 I *D sky130_fd_sc_hd__a31o_2
*I *4371:X O *D sky130_fd_sc_hd__and2_2
*CAP
1 *4372:B1 0
2 *4371:X 0.000200018
3 *434:8 0.000200018
4 *434:8 *490:21 0
5 *434:8 *490:30 0
6 *434:8 *650:40 0.000114645
7 *434:8 *650:51 0
8 *434:8 *716:82 2.08324e-05
9 *69:10 *434:8 0
*RES
1 *4371:X *434:8 42.3707 
2 *434:8 *4372:B1 38 
*END

*D_NET *435 0.000802932
*CONN
*I *4374:B1 I *D sky130_fd_sc_hd__a31o_2
*I *4373:X O *D sky130_fd_sc_hd__and2_2
*CAP
1 *4374:B1 4.26123e-05
2 *4373:X 0.000213279
3 *435:8 0.000255891
4 *4374:B1 *4374:A2 9.84794e-05
5 *435:8 *4375:B 0.000192671
6 *435:8 *716:82 0
*RES
1 *4373:X *435:8 43.075 
2 *435:8 *4374:B1 39.0979 
*END

*D_NET *436 0.00153079
*CONN
*I *4376:B1 I *D sky130_fd_sc_hd__a31o_2
*I *4375:X O *D sky130_fd_sc_hd__and2_2
*CAP
1 *4376:B1 0.000530379
2 *4375:X 0.000127638
3 *436:8 0.000658016
4 *4376:B1 *4432:CLK 0.000109895
5 *436:8 *4432:RESET_B 4.83778e-05
6 *436:8 *4433:RESET_B 3.70094e-05
7 *71:14 *4376:B1 1.94745e-05
*RES
1 *4375:X *436:8 40.9621 
2 *436:8 *4376:B1 45.3121 
*END

*D_NET *437 0.00122669
*CONN
*I *4378:B1 I *D sky130_fd_sc_hd__a31o_2
*I *4377:X O *D sky130_fd_sc_hd__and2_2
*CAP
1 *4378:B1 0
2 *4377:X 0.000326294
3 *437:6 0.000326294
4 *433:42 *437:6 0.000574096
*RES
1 *4377:X *437:6 30.2914 
2 *437:6 *4378:B1 23 
*END

*D_NET *438 0.000468663
*CONN
*I *4380:B1 I *D sky130_fd_sc_hd__a31o_2
*I *4379:X O *D sky130_fd_sc_hd__and2_2
*CAP
1 *4380:B1 0
2 *4379:X 0.000178406
3 *438:10 0.000178406
4 *438:10 *569:10 0
5 *4380:A3 *438:10 0.000111852
6 *72:10 *438:10 0
*RES
1 *4379:X *438:10 40.6514 
2 *438:10 *4380:B1 38 
*END

*D_NET *439 0.00074967
*CONN
*I *4382:B1 I *D sky130_fd_sc_hd__a31o_2
*I *4381:X O *D sky130_fd_sc_hd__and2_2
*CAP
1 *4382:B1 4.56652e-05
2 *4381:X 0.00027993
3 *439:8 0.000325596
4 *4382:B1 *939:50 9.84794e-05
5 *439:8 *4381:A 0
6 *439:8 *4382:A3 0
7 *439:8 *4755:A 0
*RES
1 *4381:X *439:8 43.075 
2 *439:8 *4382:B1 39.0979 
*END

*D_NET *440 0.00168794
*CONN
*I *4384:B1 I *D sky130_fd_sc_hd__a31o_2
*I *4383:X O *D sky130_fd_sc_hd__and2_2
*CAP
1 *4384:B1 0.000272631
2 *4383:X 0.000217281
3 *440:8 0.000489911
4 *4384:B1 *4384:A2 5.50106e-05
5 *4384:B1 *4435:CLK 0.000209396
6 *4384:B1 *4435:RESET_B 0.00014196
7 *440:8 *4436:RESET_B 0.000104433
8 *440:8 *650:85 0
9 *440:8 *1018:8 2.5415e-05
10 *74:10 *440:8 0.000171906
*RES
1 *4383:X *440:8 43.4271 
2 *440:8 *4384:B1 43.8621 
*END

*D_NET *441 0.00192306
*CONN
*I *4386:B1 I *D sky130_fd_sc_hd__a31o_2
*I *4385:X O *D sky130_fd_sc_hd__and2_2
*CAP
1 *4386:B1 0.000320346
2 *4385:X 6.34075e-05
3 *441:8 0.000383754
4 *4386:B1 *4596:CLK 3.7122e-06
5 *4386:B1 *567:10 1.14876e-05
6 *4386:B1 *651:16 0.0005715
7 *4386:B1 *651:36 0.000271476
8 *441:8 *4382:A3 9.52677e-05
9 *441:8 *4388:A3 4.6318e-06
10 *441:8 *715:75 0.000197479
*RES
1 *4385:X *441:8 40.61 
2 *441:8 *4386:B1 47.1971 
*END

*D_NET *442 0.00254491
*CONN
*I *4388:B1 I *D sky130_fd_sc_hd__a31o_2
*I *4387:X O *D sky130_fd_sc_hd__and2_2
*CAP
1 *4388:B1 0.000366269
2 *4387:X 0.000256251
3 *442:8 0.00062252
4 *4388:B1 *4388:A2 0.00014196
5 *4388:B1 *715:75 0
6 *4388:B1 *716:52 0
7 *442:8 *4387:B 0.000790562
8 *442:8 *489:10 0.00010018
9 *78:10 *442:8 0.000267167
*RES
1 *4387:X *442:8 46.7207 
2 *442:8 *4388:B1 45.0014 
*END

*D_NET *443 0.00506816
*CONN
*I *4391:B1 I *D sky130_fd_sc_hd__o21ai_2
*I *4393:B I *D sky130_fd_sc_hd__and4b_2
*I *4395:B1_N I *D sky130_fd_sc_hd__a21bo_2
*I *4392:A2 I *D sky130_fd_sc_hd__o21a_2
*I *4396:A3 I *D sky130_fd_sc_hd__a31o_2
*I *4390:Y O *D sky130_fd_sc_hd__a21oi_2
*CAP
1 *4391:B1 0
2 *4393:B 6.20491e-05
3 *4395:B1_N 1.96396e-05
4 *4392:A2 0.000391424
5 *4396:A3 1.49546e-05
6 *4390:Y 0.000585363
7 *443:45 6.20491e-05
8 *443:23 0.000535217
9 *443:21 0.000388243
10 *443:6 0.000864407
11 *4392:A2 *3834:A 2.46933e-05
12 *4392:A2 *3885:B 0.000181966
13 *4392:A2 *4392:A1 0.000317553
14 *4392:A2 *4392:B1 1.41077e-05
15 *4392:A2 *4399:B1 1.01436e-05
16 *4392:A2 *446:8 1.44813e-05
17 *4392:A2 *715:44 4.16764e-05
18 *4392:A2 *1010:12 1.37246e-05
19 *4393:B *444:8 4.2062e-05
20 *4393:B *715:54 5.50049e-05
21 *4393:B *1008:31 0.00018282
22 *4395:B1_N *715:54 2.75404e-05
23 *4396:A3 *4396:A2 3.91386e-05
24 *443:6 *4390:A1 3.65917e-05
25 *443:6 *456:12 6.17437e-06
26 *443:21 *4396:A2 0.000228909
27 *443:21 *1009:10 3.70187e-05
28 *443:21 *1009:12 0.000209739
29 *443:21 *1010:25 8.16356e-05
30 *443:23 *3885:B 0.000203407
31 *443:23 *715:44 9.48381e-06
32 *443:23 *1009:12 3.70094e-05
33 *443:23 *1010:25 9.03979e-05
34 *4390:A2 *443:6 5.67058e-05
35 *124:10 *4392:A2 0.000182826
*RES
1 *4390:Y *443:6 33.6264 
2 *443:6 *4396:A3 23.4971 
3 *443:6 *443:21 21.815 
4 *443:21 *443:23 3.31429 
5 *443:23 *4392:A2 47.6529 
6 *443:23 *4395:B1_N 38.3211 
7 *443:21 *443:45 15 
8 *443:45 *4393:B 25.0507 
9 *443:45 *4391:B1 23 
*END

*D_NET *444 0.00330154
*CONN
*I *4394:A2 I *D sky130_fd_sc_hd__a21o_2
*I *4392:B1 I *D sky130_fd_sc_hd__o21a_2
*I *4391:Y O *D sky130_fd_sc_hd__o21ai_2
*CAP
1 *4394:A2 0.000281544
2 *4392:B1 0.000311211
3 *4391:Y 0.00044442
4 *444:8 0.00103717
5 *4392:B1 *4392:A1 3.55265e-05
6 *4392:B1 *4442:RESET_B 0.000194299
7 *4392:B1 *4443:CLK 8.96322e-05
8 *4392:B1 *485:12 6.15872e-05
9 *4392:B1 *1008:12 6.43108e-05
10 *4394:A2 *4394:A1 5.50049e-05
11 *4394:A2 *4441:RESET_B 0.000154147
12 *4394:A2 *4442:RESET_B 8.72173e-05
13 *4394:A2 *4785:A 0
14 *4394:A2 *485:10 0.00010549
15 *4394:A2 *485:12 0.00013419
16 *4394:A2 *1009:10 0
17 *4394:A2 *1009:12 0
18 *444:8 *4393:D 7.27182e-05
19 *444:8 *715:54 5.12254e-05
20 *444:8 *1008:6 4.67488e-05
21 *444:8 *1008:31 1.89178e-05
22 *4392:A2 *4392:B1 1.41077e-05
23 *4393:B *444:8 4.2062e-05
*RES
1 *4391:Y *444:8 43.8621 
2 *444:8 *4392:B1 44.9186 
3 *444:8 *4394:A2 45.4571 
*END

*D_NET *445 0.00145898
*CONN
*I *4394:B1 I *D sky130_fd_sc_hd__a21o_2
*I *4393:X O *D sky130_fd_sc_hd__and4b_2
*CAP
1 *4394:B1 4.23615e-05
2 *4393:X 0.000382514
3 *445:10 0.000424876
4 *445:10 *4393:D 6.17437e-06
5 *445:10 *454:8 0
6 *445:10 *485:10 0.000209662
7 *445:10 *485:12 0.000192261
8 *445:10 *705:75 0.000180841
9 *445:10 *1008:6 2.02872e-05
*RES
1 *4393:X *445:10 45.9543 
2 *445:10 *4394:B1 38.6214 
*END

*D_NET *446 0.00237235
*CONN
*I *4397:A I *D sky130_fd_sc_hd__and2_2
*I *4399:A2 I *D sky130_fd_sc_hd__a21o_2
*I *4395:X O *D sky130_fd_sc_hd__a21bo_2
*CAP
1 *4397:A 0.000355933
2 *4399:A2 0.000237352
3 *4395:X 0.000272325
4 *446:8 0.00086561
5 *4397:A *4397:B 3.27043e-05
6 *4397:A *4443:CLK 5.83407e-05
7 *4399:A2 *4399:A1 5.67058e-05
8 *4399:A2 *4399:B1 5.50049e-05
9 *4399:A2 *449:175 6.74098e-05
10 *446:8 *4399:B1 0
11 *446:8 *638:10 9.64022e-05
12 *446:8 *1010:12 0.000168754
13 *4392:A2 *446:8 1.44813e-05
14 *82:10 *4399:A2 8.21105e-05
15 *82:10 *446:8 9.21347e-06
*RES
1 *4395:X *446:8 44.1314 
2 *446:8 *4399:A2 42.8471 
3 *446:8 *4397:A 43.2821 
*END

*D_NET *447 0.0031229
*CONN
*I *4397:B I *D sky130_fd_sc_hd__and2_2
*I *4396:X O *D sky130_fd_sc_hd__a31o_2
*CAP
1 *4397:B 0.000875435
2 *4396:X 0.000442509
3 *447:8 0.00131794
4 *4397:B *4443:CLK 0.000103647
5 *447:8 *3886:A 0.000139224
6 *447:8 *4399:B1 0
7 *447:8 *547:8 4.08641e-05
8 *447:8 *1008:46 0
9 *447:8 *1010:25 0
10 *447:8 *1011:10 5.26204e-05
11 *4391:A1 *447:8 6.18235e-05
12 *4397:A *4397:B 3.27043e-05
13 *83:10 *447:8 5.61311e-05
14 *124:10 *447:8 0
*RES
1 *4396:X *447:8 48.005 
2 *447:8 *4397:B 49.8279 
*END

*D_NET *448 0.00211322
*CONN
*I *4399:B1 I *D sky130_fd_sc_hd__a21o_2
*I *4398:X O *D sky130_fd_sc_hd__and4bb_2
*CAP
1 *4399:B1 0.000329925
2 *4398:X 0.00047169
3 *448:10 0.000801615
4 *4399:B1 *4443:RESET_B 0
5 *4399:B1 *449:175 3.22879e-05
6 *4399:B1 *547:8 0
7 *448:10 *4398:A_N 5.41385e-05
8 *448:10 *4749:A 2.64616e-05
9 *448:10 *715:31 0.000189991
10 *4392:A2 *4399:B1 1.01436e-05
11 *4399:A2 *4399:B1 5.50049e-05
12 *82:10 *4399:B1 0
13 *124:10 *448:10 0.00014196
14 *446:8 *4399:B1 0
15 *447:8 *4399:B1 0
*RES
1 *4398:X *448:10 47.2179 
2 *448:10 *4399:B1 43.6964 
*END

*D_NET *449 0.0416543
*CONN
*I *4605:A I *D sky130_fd_sc_hd__clkbuf_8
*I *4604:A I *D sky130_fd_sc_hd__clkbuf_8
*I *4618:A I *D sky130_fd_sc_hd__clkbuf_8
*I *4617:A I *D sky130_fd_sc_hd__clkbuf_8
*I *4610:A I *D sky130_fd_sc_hd__clkbuf_8
*I *4603:A I *D sky130_fd_sc_hd__clkbuf_8
*I *4611:A I *D sky130_fd_sc_hd__clkbuf_8
*I *4612:A I *D sky130_fd_sc_hd__clkbuf_8
*I *4609:A I *D sky130_fd_sc_hd__clkbuf_8
*I *4608:A I *D sky130_fd_sc_hd__clkbuf_8
*I *4607:A I *D sky130_fd_sc_hd__clkbuf_8
*I *4606:A I *D sky130_fd_sc_hd__clkbuf_8
*I *4616:A I *D sky130_fd_sc_hd__clkbuf_8
*I *4614:A I *D sky130_fd_sc_hd__clkbuf_8
*I *4613:A I *D sky130_fd_sc_hd__clkbuf_8
*I *4615:A I *D sky130_fd_sc_hd__clkbuf_8
*I *4602:X O *D sky130_fd_sc_hd__clkbuf_16
*CAP
1 *4605:A 0
2 *4604:A 0
3 *4618:A 0
4 *4617:A 6.13554e-05
5 *4610:A 0
6 *4603:A 4.24511e-05
7 *4611:A 0
8 *4612:A 0
9 *4609:A 0
10 *4608:A 0.00010527
11 *4607:A 0.000142452
12 *4606:A 3.93189e-05
13 *4616:A 0
14 *4614:A 0
15 *4613:A 0.000118616
16 *4615:A 0
17 *4602:X 7.986e-05
18 *449:362 0.000141668
19 *449:353 0.000230431
20 *449:346 0.000228555
21 *449:340 0.0011
22 *449:335 0.00109426
23 *449:326 0.000227529
24 *449:322 0.000553034
25 *449:300 0.000294007
26 *449:296 0.00105596
27 *449:284 0.000122661
28 *449:279 0.000122661
29 *449:270 0.000126666
30 *449:266 0.00152459
31 *449:246 0.00047008
32 *449:241 0.000541765
33 *449:232 7.16851e-05
34 *449:228 0.000154638
35 *449:226 0.00349812
36 *449:222 0.00325751
37 *449:215 0.00107051
38 *449:192 0.000431824
39 *449:183 0.000326554
40 *449:181 9.89645e-05
41 *449:177 0.000286592
42 *449:175 0.00107912
43 *449:147 0.000268453
44 *449:145 0.0011598
45 *449:138 0.000142309
46 *449:129 0.000137003
47 *449:125 0.000917726
48 *449:113 9.44089e-05
49 *449:94 0.000674772
50 *449:73 0.000669794
51 *449:71 0.000209973
52 *449:67 0.000959054
53 *449:57 0.00128457
54 *449:52 0.000495175
55 *449:43 0.000299027
56 *449:39 0.000425102
57 *449:27 0.00170537
58 *449:13 0.0038678
59 *449:6 0.00163619
60 *4613:A *4843:A 5.82654e-05
61 *4617:A *475:19 5.12254e-05
62 *449:13 *4407:RESET_B 0.000155417
63 *449:13 *4410:CLK 0
64 *449:13 *482:10 0
65 *449:13 *499:29 0
66 *449:13 *521:78 0.000197732
67 *449:13 *526:24 0.000103455
68 *449:13 *694:10 3.56433e-05
69 *449:13 *696:63 0
70 *449:27 *470:8 0.000121261
71 *449:27 *470:64 3.91559e-05
72 *449:27 *573:8 2.30661e-05
73 *449:39 *4623:A 0.000167191
74 *449:39 *462:12 2.95526e-05
75 *449:57 *4738:A 5.45644e-05
76 *449:57 *535:10 2.50118e-05
77 *449:67 *468:14 5.64572e-05
78 *449:67 *535:10 9.51389e-05
79 *449:67 *666:64 0.000141746
80 *449:67 *666:81 9.98565e-05
81 *449:71 *468:14 0.000101041
82 *449:73 *468:14 7.61229e-06
83 *449:94 *4463:RESET_B 1.27489e-05
84 *449:94 *4843:A 5.17484e-05
85 *449:94 *461:12 3.26241e-05
86 *449:94 *510:8 2.99277e-05
87 *449:94 *511:25 1.04117e-05
88 *449:125 *4721:A 0.000109081
89 *449:129 *4721:A 4.21633e-05
90 *449:175 *4399:A1 9.24795e-06
91 *449:175 *547:8 4.58924e-05
92 *449:175 *709:6 3.22879e-05
93 *449:175 *709:21 9.6103e-05
94 *449:175 *712:8 6.28591e-05
95 *449:177 *1011:10 2.30292e-05
96 *449:181 *486:60 5.12254e-05
97 *449:192 *4447:CLK 9.03979e-05
98 *449:222 *3925:A2 0
99 *449:222 *3945:A1 0.000126641
100 *449:222 *4414:CLK 0
101 *449:222 *475:65 0
102 *449:222 *519:10 0.00024217
103 *449:222 *664:51 0
104 *449:222 *694:10 0
105 *449:222 *694:12 0
106 *449:222 *694:14 0
107 *449:222 *696:63 5.08899e-05
108 *449:222 *741:31 5.97612e-05
109 *449:226 *3851:A1 0.000183658
110 *449:226 *3851:A2 2.64616e-05
111 *449:226 *4359:A 2.47702e-05
112 *449:226 *4771:A 7.59794e-05
113 *449:226 *4799:A 3.81572e-05
114 *449:226 *519:14 7.4416e-05
115 *449:226 *519:20 0.000213258
116 *449:226 *519:26 2.93845e-05
117 *449:226 *608:8 5.31757e-05
118 *449:226 *669:39 2.93845e-05
119 *449:226 *681:63 4.75206e-05
120 *449:228 *4528:RESET_B 3.31127e-05
121 *449:228 *459:8 0
122 *449:228 *681:63 2.64506e-05
123 *449:228 *682:14 3.18683e-05
124 *449:241 *4529:CLK 7.88828e-05
125 *449:246 *4528:RESET_B 0
126 *449:246 *682:14 0
127 *449:266 *4012:A 0.000221907
128 *449:266 *494:6 2.93845e-05
129 *449:266 *494:12 5.12254e-05
130 *449:266 *681:53 0
131 *449:266 *681:63 8.33469e-05
132 *449:266 *682:14 3.74442e-05
133 *449:284 *491:18 0
134 *449:296 *4791:A 0.000145784
135 *449:300 *4791:A 0
136 *449:300 *593:14 0.000207427
137 *449:300 *654:8 0.000204961
138 *449:300 *655:76 9.21347e-06
139 *449:300 *696:16 0
140 *449:322 *4791:A 0.000119313
141 *449:322 *465:10 8.16279e-05
142 *449:322 *655:76 7.84525e-05
143 *449:335 *540:14 0.00011378
144 *449:340 *4141:B1 3.72306e-05
145 *449:340 *540:14 3.41643e-05
146 *449:340 *768:10 0.000102313
147 *449:346 *4141:B1 1.75502e-05
148 *449:346 *659:37 9.8971e-06
149 *449:353 *659:37 9.71952e-05
150 *449:362 *451:8 6.93449e-05
151 *449:362 *659:37 4.70356e-05
152 *449:362 *790:12 6.6869e-05
153 *449:362 *791:10 7.75329e-06
154 *3851:B1 *449:226 4.67488e-05
155 *3887:B1 *449:192 0
156 *3949:B1 *449:27 2.95423e-05
157 *3949:B1 *449:125 9.53319e-05
158 *4047:B *449:67 9.67908e-05
159 *4055:B *449:27 4.80423e-06
160 *4399:A2 *449:175 6.74098e-05
161 *4399:B1 *449:175 3.22879e-05
162 *4401:D *449:222 0.000120781
163 *3:14 *449:246 0
164 *18:8 *449:226 3.98818e-05
165 *18:8 *449:296 3.12591e-05
166 *20:21 *449:13 0
167 *20:21 *449:222 0.00010763
168 *21:10 *449:222 0
169 *24:10 *449:27 3.46302e-05
170 *29:10 *449:13 6.53505e-05
171 *38:10 *449:192 7.59105e-05
172 *61:10 *449:266 0.000103647
173 *82:10 *449:175 0.00010655
174 *86:103 *449:113 9.64022e-05
175 *105:8 *449:13 0.00029569
176 *110:6 *449:125 0.000143887
177 *137:14 *449:113 0
178 *165:16 *449:13 0.000278277
179 *165:33 *449:13 7.19778e-05
180 *165:44 *449:13 0
181 *167:18 *449:226 8.58585e-05
182 *228:6 *449:266 9.06965e-05
183 *228:14 *449:226 6.17437e-06
184 *228:14 *449:228 3.3123e-05
185 *228:14 *449:266 0.000153574
186 *254:8 *449:362 0
187 *259:38 *449:113 6.7911e-05
188 *261:69 *449:27 3.41998e-06
189 *281:10 *449:222 9.85586e-06
190 *427:10 *449:226 1.94693e-05
191 *430:10 *449:13 1.18379e-05
*RES
1 *4602:X *449:6 38 
2 *449:6 *449:13 48.9507 
3 *449:13 *449:27 44.6132 
4 *449:27 *449:39 21.4163 
5 *449:39 *449:43 1.95232 
6 *449:43 *4615:A 23 
7 *449:43 *449:52 2.9 
8 *449:52 *449:57 5.26143 
9 *449:57 *449:67 45.7377 
10 *449:67 *449:71 2.01446 
11 *449:71 *449:73 1.86429 
12 *449:73 *449:94 40.4348 
13 *449:94 *4613:A 24.9523 
14 *449:71 *4614:A 23 
15 *449:57 *449:113 17.61 
16 *449:113 *4616:A 38 
17 *449:13 *449:125 15.4529 
18 *449:125 *449:129 1.98857 
19 *449:129 *4606:A 23.8493 
20 *449:129 *449:138 15 
21 *449:138 *449:145 17.2579 
22 *449:145 *449:147 2.22679 
23 *449:147 *4607:A 25.7239 
24 *449:145 *449:175 49.6371 
25 *449:175 *449:177 3.24179 
26 *449:177 *449:181 1.8125 
27 *449:181 *449:183 15 
28 *449:183 *449:192 21.8098 
29 *449:192 *4608:A 24.6416 
30 *449:181 *4609:A 23 
31 *4602:X *449:215 39.0979 
32 *449:215 *449:222 37.33 
33 *449:222 *449:226 48.0186 
34 *449:226 *449:228 3.31429 
35 *449:228 *449:232 15 
36 *449:232 *4612:A 23 
37 *449:232 *449:241 16.5743 
38 *449:241 *449:246 8.94857 
39 *449:246 *4611:A 38 
40 *449:226 *449:266 42.4671 
41 *449:266 *449:270 1.51214 
42 *449:270 *4603:A 23.6214 
43 *449:270 *449:279 15 
44 *449:279 *449:284 2.25786 
45 *449:284 *4610:A 38 
46 *449:222 *449:296 6.33857 
47 *449:296 *449:300 21.8357 
48 *449:300 *4617:A 39.0979 
49 *449:296 *449:322 9.75643 
50 *449:322 *449:326 1.69857 
51 *449:326 *4618:A 23 
52 *449:326 *449:335 3.01393 
53 *449:335 *449:340 15.5357 
54 *449:340 *449:346 2.51679 
55 *449:346 *4604:A 23 
56 *449:346 *449:353 2.00411 
57 *449:353 *449:362 18.4023 
58 *449:362 *4605:A 38 
*END

*D_NET *450 0.00459456
*CONN
*I *4619:A I *D sky130_fd_sc_hd__clkbuf_16
*I *4630:A I *D sky130_fd_sc_hd__clkbuf_16
*I *4603:X O *D sky130_fd_sc_hd__clkbuf_8
*CAP
1 *4619:A 3.93039e-05
2 *4630:A 0.000375291
3 *4603:X 7.26725e-05
4 *450:10 0.00108538
5 *450:8 0.000743455
6 *4619:A *4248:A1 9.58714e-05
7 *4619:A *677:33 4.9662e-05
8 *4630:A *4235:B1 5.25848e-05
9 *4630:A *4245:B1 2.55642e-05
10 *4630:A *586:43 0
11 *4630:A *663:26 0.000530399
12 *4630:A *876:37 0.000194309
13 *450:10 *4245:B1 0.000241355
14 *450:10 *4524:CLK 0
15 *450:10 *491:18 0
16 *450:10 *586:18 0.000215086
17 *450:10 *856:8 0
18 *450:10 *876:16 0
19 *450:10 *876:37 0.000206577
20 *450:10 *877:27 0
21 *220:38 *4630:A 6.93553e-05
22 *223:26 *450:10 0.000597695
*RES
1 *4603:X *450:8 39.0979 
2 *450:8 *450:10 16.6957 
3 *450:10 *4630:A 47.135 
4 *450:10 *4619:A 39.0979 
*END

*D_NET *451 0.00471391
*CONN
*I *4632:A I *D sky130_fd_sc_hd__clkbuf_16
*I *4631:A I *D sky130_fd_sc_hd__clkbuf_16
*I *4604:X O *D sky130_fd_sc_hd__clkbuf_8
*CAP
1 *4632:A 2.44744e-05
2 *4631:A 0.000366308
3 *4604:X 0
4 *451:8 0.00115664
5 *451:6 0.000765856
6 *4631:A *4573:CLK 0
7 *4631:A *478:8 0.000224504
8 *4631:A *478:10 0
9 *4631:A *478:54 0
10 *4631:A *594:12 0.000402806
11 *4631:A *697:12 0.000143204
12 *4631:A *697:18 8.16356e-05
13 *4632:A *658:36 9.84794e-05
14 *451:8 *4572:RESET_B 0.000158516
15 *451:8 *4573:CLK 0
16 *451:8 *531:32 0
17 *451:8 *531:42 0.000349386
18 *451:8 *626:10 0.000165593
19 *451:8 *660:14 0
20 *451:8 *697:10 5.2949e-05
21 *451:8 *697:12 6.33614e-05
22 *451:8 *791:10 0.000536721
23 *254:8 *451:8 0
24 *254:14 *451:8 0
25 *256:25 *4632:A 5.41288e-05
26 *449:362 *451:8 6.93449e-05
*RES
1 *4604:X *451:6 38 
2 *451:6 *451:8 18.8086 
3 *451:8 *4631:A 48.5643 
4 *451:8 *4632:A 39.0979 
*END

*D_NET *452 0.00578299
*CONN
*I *4633:A I *D sky130_fd_sc_hd__clkbuf_16
*I *4634:A I *D sky130_fd_sc_hd__clkbuf_16
*I *4605:X O *D sky130_fd_sc_hd__clkbuf_8
*CAP
1 *4633:A 0
2 *4634:A 3.44432e-05
3 *4605:X 0.000662317
4 *452:29 0.000633049
5 *452:14 0.00102431
6 *452:12 0.00101913
7 *452:12 *4564:CLK 1.94812e-05
8 *452:14 *481:20 0.000153677
9 *452:14 *481:53 0.000125915
10 *452:14 *659:74 3.72639e-05
11 *452:14 *761:12 8.4047e-05
12 *452:29 *4477:CLK 2.18409e-05
13 *452:29 *481:53 0.000212211
14 *452:29 *701:10 5.3304e-05
15 *452:29 *702:57 0.000478433
16 *452:29 *766:10 0.000370869
17 *4038:B *4634:A 9.84851e-05
18 *4134:A *452:29 0.000340163
19 *251:10 *452:14 0
20 *251:19 *452:14 0
21 *251:32 *452:29 0
22 *253:12 *4634:A 1.94812e-05
23 *253:12 *452:29 0.000394573
*RES
1 *4605:X *452:12 46.8864 
2 *452:12 *452:14 7.54 
3 *452:14 *4634:A 39.0979 
4 *452:14 *452:29 31.9236 
5 *452:29 *4633:A 23 
*END

*D_NET *453 0.00385993
*CONN
*I *4636:A I *D sky130_fd_sc_hd__clkbuf_16
*I *4635:A I *D sky130_fd_sc_hd__clkbuf_16
*I *4606:X O *D sky130_fd_sc_hd__clkbuf_8
*CAP
1 *4636:A 0.000590219
2 *4635:A 0.000192884
3 *4606:X 0.000607427
4 *453:8 0.00139053
5 *4635:A *521:22 0.000136532
6 *4635:A *541:42 0.000137525
7 *4636:A *3853:B 0.000124344
8 *4636:A *528:47 2.69729e-05
9 *4636:A *528:57 0.000106361
10 *453:8 *4415:RESET_B 0.000135794
11 *453:8 *520:8 8.57577e-05
12 *453:8 *521:10 5.20155e-05
13 *453:8 *521:22 2.53488e-05
14 *100:8 *4636:A 5.3304e-05
15 *102:23 *4635:A 0
16 *102:23 *4636:A 0.000194912
*RES
1 *4606:X *453:8 49.4136 
2 *453:8 *4635:A 41.48 
3 *453:8 *4636:A 48.6264 
*END

*D_NET *454 0.0026668
*CONN
*I *4638:A I *D sky130_fd_sc_hd__clkbuf_16
*I *4637:A I *D sky130_fd_sc_hd__clkbuf_16
*I *4607:X O *D sky130_fd_sc_hd__clkbuf_8
*CAP
1 *4638:A 0.000183165
2 *4637:A 0.000106039
3 *4607:X 0
4 *454:8 0.00109398
5 *454:6 0.000804774
6 *4638:A *485:10 0
7 *4638:A *706:59 3.59884e-05
8 *454:8 *4443:CLK 0
9 *454:8 *485:12 0
10 *79:14 *454:8 0.000232635
11 *80:10 *4637:A 1.59094e-05
12 *80:10 *454:8 0.000194309
13 *81:14 *454:8 0
14 *445:10 *454:8 0
*RES
1 *4607:X *454:6 38 
2 *454:6 *454:8 16.6957 
3 *454:8 *4637:A 39.5743 
4 *454:8 *4638:A 41.3557 
*END

*D_NET *455 0.00515142
*CONN
*I *4640:A I *D sky130_fd_sc_hd__clkbuf_16
*I *4639:A I *D sky130_fd_sc_hd__clkbuf_16
*I *4608:X O *D sky130_fd_sc_hd__clkbuf_8
*CAP
1 *4640:A 0
2 *4639:A 0
3 *4608:X 0.000175203
4 *455:25 0.000845603
5 *455:12 0.000375424
6 *455:6 0.00139623
7 *455:12 *4779:A 0.000271112
8 *455:12 *716:10 9.21347e-06
9 *455:12 *1024:44 0
10 *455:12 *1025:34 0.000332911
11 *455:25 *3888:A1 0.000373059
12 *455:25 *4779:A 5.3304e-05
13 *455:25 *1022:31 0.000217632
14 *455:25 *1024:14 1.07299e-05
15 *455:25 *1024:29 0.000292656
16 *113:21 *455:25 0
17 *118:14 *455:25 0
18 *126:10 *455:12 0.000582549
19 *126:44 *455:12 0.000215791
*RES
1 *4608:X *455:6 25.5271 
2 *455:6 *455:12 40.7093 
3 *455:12 *4639:A 23 
4 *455:6 *455:25 48.9743 
5 *455:25 *4640:A 23 
*END

*D_NET *456 0.00298623
*CONN
*I *4642:A I *D sky130_fd_sc_hd__clkbuf_16
*I *4643:A I *D sky130_fd_sc_hd__clkbuf_16
*I *4609:X O *D sky130_fd_sc_hd__clkbuf_8
*CAP
1 *4642:A 0
2 *4643:A 0
3 *4609:X 0.000367934
4 *456:25 0.000157449
5 *456:12 0.000208169
6 *456:8 0.000418655
7 *456:8 *715:10 0.000111852
8 *456:8 *715:16 0.000243596
9 *456:8 *715:75 0.000456496
10 *456:8 *1022:22 5.15848e-05
11 *456:12 *4390:A1 0.000182832
12 *456:25 *4390:A1 8.6949e-05
13 *456:25 *715:75 0
14 *456:25 *716:52 0.000277705
15 *4390:B1 *456:12 9.84794e-05
16 *114:61 *456:8 0
17 *123:67 *456:8 0
18 *431:8 *456:8 0.000167815
19 *431:8 *456:25 9.48381e-06
20 *431:21 *456:12 4.2573e-05
21 *431:21 *456:25 9.84794e-05
22 *443:6 *456:12 6.17437e-06
*RES
1 *4609:X *456:8 48.7093 
2 *456:8 *456:12 17.0507 
3 *456:12 *4643:A 23 
4 *456:12 *456:25 34.7643 
5 *456:25 *4642:A 23 
*END

*D_NET *457 0.00383109
*CONN
*I *4644:A I *D sky130_fd_sc_hd__clkbuf_16
*I *4641:A I *D sky130_fd_sc_hd__clkbuf_16
*I *4610:X O *D sky130_fd_sc_hd__clkbuf_8
*CAP
1 *4644:A 0
2 *4641:A 0
3 *4610:X 0.000357977
4 *457:25 0.000520132
5 *457:10 0.000878109
6 *457:10 *3982:B 1.34354e-05
7 *457:10 *4243:B1 5.47927e-05
8 *457:10 *488:67 0
9 *457:10 *491:16 0
10 *457:10 *491:18 0
11 *457:10 *586:6 1.95443e-05
12 *457:10 *586:18 4.04598e-06
13 *457:10 *936:14 0.000129412
14 *457:25 *3981:A 0.00014196
15 *457:25 *4418:CLK 3.81946e-05
16 *457:25 *4418:RESET_B 0.000480537
17 *457:25 *491:6 3.53115e-05
18 *457:25 *491:14 0.000239047
19 *457:25 *491:16 0
20 *457:25 *734:10 0.000378845
21 *457:25 *936:14 8.92841e-05
22 *4418:D *457:25 0.000124431
23 *198:8 *457:25 0.000100733
24 *223:26 *457:10 0.000169683
25 *372:10 *457:10 5.561e-05
*RES
1 *4610:X *457:10 46.3064 
2 *457:10 *4641:A 38 
3 *457:10 *457:25 33.4979 
4 *457:25 *4644:A 23 
*END

*D_NET *458 0.00287288
*CONN
*I *4646:A I *D sky130_fd_sc_hd__clkbuf_16
*I *4645:A I *D sky130_fd_sc_hd__clkbuf_16
*I *4611:X O *D sky130_fd_sc_hd__clkbuf_8
*CAP
1 *4646:A 8.43316e-05
2 *4645:A 0
3 *4611:X 0.000584771
4 *458:18 0.000300719
5 *458:12 0.000612273
6 *458:8 0.000811994
7 *4646:A *679:83 4.08664e-05
8 *4646:A *880:10 6.17437e-06
9 *458:8 *663:87 5.3656e-05
10 *458:8 *679:12 0
11 *458:8 *682:14 8.76088e-05
12 *458:8 *879:10 0
13 *458:8 *881:16 0
14 *458:12 *679:83 0.00017621
15 *458:12 *880:10 2.93747e-05
16 *458:18 *4168:A1 0
17 *458:18 *663:87 0
18 *458:18 *679:83 3.47781e-05
19 *458:18 *879:10 5.01247e-05
20 *225:20 *458:8 0
21 *326:20 *458:18 0
*RES
1 *4611:X *458:8 48.7093 
2 *458:8 *458:12 19.4329 
3 *458:12 *458:18 36.1314 
4 *458:18 *4645:A 23 
5 *458:12 *4646:A 24.595 
*END

*D_NET *459 0.00323132
*CONN
*I *4648:A I *D sky130_fd_sc_hd__clkbuf_16
*I *4647:A I *D sky130_fd_sc_hd__clkbuf_16
*I *4612:X O *D sky130_fd_sc_hd__clkbuf_8
*CAP
1 *4648:A 0.000686456
2 *4647:A 0.000217818
3 *4612:X 0.000347685
4 *459:12 0.000930406
5 *459:8 0.000373817
6 *4648:A *4652:A 5.41288e-05
7 *4648:A *495:6 8.85483e-05
8 *4648:A *669:50 5.79161e-05
9 *4648:A *669:60 4.93341e-05
10 *459:8 *681:63 0
11 *3:14 *459:8 0.000287426
12 *106:8 *459:8 0.000137788
13 *449:228 *459:8 0
*RES
1 *4612:X *459:8 45.1879 
2 *459:8 *459:12 15.3832 
3 *459:12 *4647:A 26.2625 
4 *459:12 *4648:A 32.4561 
*END

*D_NET *460 0.00204633
*CONN
*I *4650:A I *D sky130_fd_sc_hd__clkbuf_16
*I *4649:A I *D sky130_fd_sc_hd__clkbuf_16
*I *4613:X O *D sky130_fd_sc_hd__clkbuf_8
*CAP
1 *4650:A 0.000119086
2 *4649:A 0.000456391
3 *4613:X 0.000373506
4 *460:8 0.000710811
5 *4649:A *544:10 0.000110397
6 *4650:A *4843:A 2.95423e-05
7 *460:8 *3899:A 0.000159953
8 *460:8 *510:8 1.29944e-05
9 *3900:C *4649:A 2.93845e-05
10 *142:14 *4650:A 3.7122e-06
11 *142:20 *4650:A 4.05481e-05
*RES
1 *4613:X *460:8 43.075 
2 *460:8 *4649:A 45.7679 
3 *4613:X *4650:A 48.0507 
*END

*D_NET *461 0.00389577
*CONN
*I *4621:A I *D sky130_fd_sc_hd__clkbuf_16
*I *4620:A I *D sky130_fd_sc_hd__clkbuf_16
*I *4614:X O *D sky130_fd_sc_hd__clkbuf_8
*CAP
1 *4621:A 0
2 *4620:A 0.000131007
3 *4614:X 0.000121308
4 *461:33 0.000186861
5 *461:20 0.00105319
6 *461:12 0.000856627
7 *4620:A *692:16 7.9199e-05
8 *461:12 *3908:B 4.98333e-05
9 *461:20 *3908:B 3.6941e-05
10 *461:20 *4748:A 0
11 *461:20 *4754:A 0.000150413
12 *461:20 *511:25 0.00031008
13 *461:20 *546:8 6.33614e-05
14 *461:20 *684:8 1.42006e-05
15 *461:20 *692:16 8.7843e-05
16 *461:33 *3996:B 0.000245827
17 *461:33 *4505:RESET_B 0.000131744
18 *461:33 *4703:A 0.000269151
19 *461:33 *642:26 7.55595e-05
20 *260:41 *461:20 0
21 *449:94 *461:12 3.26241e-05
*RES
1 *4614:X *461:12 40.3925 
2 *461:12 *461:20 32.1204 
3 *461:20 *4620:A 25.5271 
4 *461:20 *461:33 35.4271 
5 *461:33 *4621:A 23 
*END

*D_NET *462 0.00355855
*CONN
*I *4623:A I *D sky130_fd_sc_hd__clkbuf_16
*I *4622:A I *D sky130_fd_sc_hd__clkbuf_16
*I *4615:X O *D sky130_fd_sc_hd__clkbuf_8
*CAP
1 *4623:A 0.000706995
2 *4622:A 0
3 *4615:X 0
4 *462:12 0.000614965
5 *462:4 0.00132196
6 *4623:A *4759:A 0.000141347
7 *4623:A *543:10 3.06803e-05
8 *4623:A *558:10 5.70419e-05
9 *462:12 *4416:RESET_B 3.78309e-05
10 *462:12 *558:10 2.93845e-05
11 *462:12 *668:81 0.00010546
12 *462:12 *673:53 0.000240897
13 *4055:B *462:12 0
14 *4056:B *4623:A 2.19403e-05
15 *4745:A *4623:A 5.3304e-05
16 *48:10 *462:12 0
17 *449:39 *4623:A 0.000167191
18 *449:39 *462:12 2.95526e-05
*RES
1 *4615:X *462:4 23 
2 *462:4 *462:12 42.3871 
3 *462:12 *4622:A 23 
4 *462:4 *4623:A 36.5057 
*END

*D_NET *463 0.00288099
*CONN
*I *4624:A I *D sky130_fd_sc_hd__clkbuf_16
*I *4625:A I *D sky130_fd_sc_hd__clkbuf_16
*I *4616:X O *D sky130_fd_sc_hd__clkbuf_8
*CAP
1 *4624:A 0.000129767
2 *4625:A 0.000119361
3 *4616:X 0
4 *463:8 0.00100246
5 *463:6 0.000753331
6 *4624:A *4323:B1 0
7 *4624:A *690:29 0
8 *4624:A *690:49 0
9 *4624:A *962:8 0
10 *463:8 *3902:B 0.000299178
11 *463:8 *4323:B1 0
12 *463:8 *4466:RESET_B 0
13 *463:8 *4841:A 0.000268491
14 *463:8 *469:60 0
15 *463:8 *512:14 0.000195248
16 *463:8 *690:29 0
17 *463:8 *691:19 0
18 *137:14 *463:8 0.000113153
19 *179:12 *463:8 0
*RES
1 *4616:X *463:6 38 
2 *463:6 *463:8 16.6957 
3 *463:8 *4625:A 40.0507 
4 *463:8 *4624:A 40.2579 
*END

*D_NET *464 0.00361895
*CONN
*I *4627:A I *D sky130_fd_sc_hd__clkbuf_16
*I *4626:A I *D sky130_fd_sc_hd__clkbuf_16
*I *4617:X O *D sky130_fd_sc_hd__clkbuf_8
*CAP
1 *4627:A 0
2 *4626:A 2.12847e-05
3 *4617:X 0.000114122
4 *464:31 0.000647018
5 *464:10 0.00129189
6 *464:8 0.000737706
7 *4626:A *564:20 0
8 *464:8 *4550:CLK 5.68958e-05
9 *464:10 *564:10 7.461e-05
10 *464:10 *564:20 0
11 *464:10 *564:110 0
12 *464:10 *815:12 9.03054e-05
13 *464:10 *817:8 0
14 *464:10 *840:33 7.07734e-05
15 *464:31 *474:6 3.11269e-05
16 *464:31 *653:106 0.00018382
17 *464:31 *814:8 8.51329e-05
18 *4202:B *464:10 0
19 *4202:B *464:31 0
20 *346:14 *464:31 9.1946e-06
21 *347:10 *464:31 4.21594e-06
22 *348:8 *464:10 0.000163361
23 *348:22 *464:10 3.74926e-05
*RES
1 *4617:X *464:8 40.0507 
2 *464:8 *464:10 12.6461 
3 *464:10 *4626:A 38.6732 
4 *464:10 *464:31 27.3146 
5 *464:31 *4627:A 23 
*END

*D_NET *465 0.00668745
*CONN
*I *4629:A I *D sky130_fd_sc_hd__clkbuf_16
*I *4628:A I *D sky130_fd_sc_hd__clkbuf_16
*I *4618:X O *D sky130_fd_sc_hd__clkbuf_8
*CAP
1 *4629:A 0.000152829
2 *4628:A 0.000157426
3 *4618:X 0.000243305
4 *465:25 0.00121191
5 *465:12 0.00121651
6 *465:10 0.000243305
7 *4629:A *4357:C_N 0.000229797
8 *4629:A *476:12 4.05196e-05
9 *465:25 *4204:B1 9.58714e-05
10 *465:25 *476:34 0.000524356
11 *465:25 *476:36 7.39034e-05
12 *465:25 *476:42 0.000795644
13 *465:25 *595:10 5.08733e-05
14 *465:25 *695:26 0
15 *465:25 *837:25 2.81043e-05
16 *4358:A2 *465:25 9.2467e-06
17 *241:57 *465:25 0.000143836
18 *426:8 *4629:A 0.000443229
19 *426:12 *465:25 0.000945158
20 *449:322 *465:10 8.16279e-05
*RES
1 *4618:X *465:10 42.8886 
2 *465:10 *465:12 15 
3 *465:12 *4628:A 25.0507 
4 *465:12 *465:25 42.5293 
5 *465:25 *4629:A 43.3857 
*END

*D_NET *466 0.00768739
*CONN
*I *4490:CLK I *D sky130_fd_sc_hd__dfrtp_2
*I *4489:CLK I *D sky130_fd_sc_hd__dfrtp_2
*I *4488:CLK I *D sky130_fd_sc_hd__dfrtp_2
*I *4487:CLK I *D sky130_fd_sc_hd__dfrtp_2
*I *4518:CLK I *D sky130_fd_sc_hd__dfrtp_2
*I *4517:CLK I *D sky130_fd_sc_hd__dfrtp_2
*I *4516:CLK I *D sky130_fd_sc_hd__dfrtp_2
*I *4619:X O *D sky130_fd_sc_hd__clkbuf_16
*CAP
1 *4490:CLK 0.000355817
2 *4489:CLK 0
3 *4488:CLK 0.000109736
4 *4487:CLK 4.23312e-05
5 *4518:CLK 0.000173358
6 *4517:CLK 4.23312e-05
7 *4516:CLK 0.000623759
8 *4619:X 0.000420167
9 *466:69 0.000520345
10 *466:58 0.000450899
11 *466:14 0.000832194
12 *466:12 0.000807025
13 *466:10 0.000836796
14 *466:8 0.000503537
15 *466:6 0.000420167
16 *4488:CLK *4488:D 9.88259e-05
17 *466:6 *4265:A 0.000118392
18 *466:6 *4265:B 7.43212e-05
19 *466:6 *4694:A 0.00015506
20 *466:6 *619:56 9.17365e-05
21 *466:6 *674:10 0.000128096
22 *466:12 *619:75 0
23 *466:58 *619:95 9.5876e-06
24 *466:69 *619:95 3.40698e-05
25 *4266:A1 *4488:CLK 4.65192e-05
26 *194:31 *466:6 0.000497081
27 *385:10 *466:6 0.000128106
28 *385:10 *466:58 6.81178e-05
29 *386:16 *466:6 7.87243e-05
30 *387:8 *466:6 2.02872e-05
*RES
1 *4619:X *466:6 36.485 
2 *466:6 *466:8 15 
3 *466:8 *466:10 6.13143 
4 *466:10 *466:12 8.59643 
5 *466:12 *466:14 2.96214 
6 *466:14 *4516:CLK 49.6829 
7 *466:14 *4517:CLK 38.6214 
8 *466:12 *4518:CLK 41.0036 
9 *466:10 *4487:CLK 38.6214 
10 *466:8 *466:58 3.72857 
11 *466:58 *4488:CLK 40.0507 
12 *466:58 *466:69 2.61 
13 *466:69 *4489:CLK 38 
14 *466:69 *4490:CLK 44.2557 
*END

*D_NET *467 0.00827866
*CONN
*I *4501:CLK I *D sky130_fd_sc_hd__dfrtp_2
*I *4456:CLK I *D sky130_fd_sc_hd__dfrtp_2
*I *4503:CLK I *D sky130_fd_sc_hd__dfrtp_2
*I *4502:CLK I *D sky130_fd_sc_hd__dfrtp_2
*I *4454:CLK I *D sky130_fd_sc_hd__dfrtp_2
*I *4500:CLK I *D sky130_fd_sc_hd__dfrtp_2
*I *4620:X O *D sky130_fd_sc_hd__clkbuf_16
*CAP
1 *4501:CLK 5.93903e-05
2 *4456:CLK 0.00023006
3 *4503:CLK 0.000624924
4 *4502:CLK 4.23312e-05
5 *4454:CLK 9.58204e-05
6 *4500:CLK 0.000510973
7 *4620:X 9.66739e-05
8 *467:46 0.00108678
9 *467:44 0.000845456
10 *467:31 0.000370764
11 *467:16 0.00155846
12 *467:12 0.00109838
13 *467:8 0.000167255
14 *4454:CLK *4454:D 2.93747e-05
15 *4456:CLK *630:44 5.51181e-06
16 *4456:CLK *900:8 5.25022e-05
17 *4500:CLK *4500:D 9.97406e-05
18 *4500:CLK *604:10 0.000113389
19 *4503:CLK *4503:D 0.000102389
20 *4503:CLK *630:25 5.79559e-05
21 *467:8 *4501:D 0
22 *467:8 *692:10 0
23 *467:16 *3991:C 1.59071e-05
24 *467:16 *921:24 6.22284e-05
25 *467:44 *717:10 0.00017949
26 *467:46 *717:10 0.000116526
27 *4291:B *4500:CLK 8.15864e-05
28 *205:64 *467:16 7.43114e-05
29 *207:12 *4500:CLK 4.62424e-05
30 *208:10 *467:16 2.31641e-05
31 *208:24 *4456:CLK 6.09194e-05
32 *209:18 *4503:CLK 5.50587e-05
33 *397:10 *4500:CLK 3.40698e-05
34 *398:8 *4500:CLK 0.000179557
35 *398:8 *467:31 4.95442e-05
36 *398:8 *467:44 5.19276e-05
*RES
1 *4620:X *467:8 39.5536 
2 *467:8 *467:12 16.0979 
3 *467:12 *467:16 28.0086 
4 *467:16 *4500:CLK 49.5379 
5 *467:16 *467:31 1.55357 
6 *467:31 *4454:CLK 39.595 
7 *467:31 *467:44 3.8425 
8 *467:44 *467:46 8.42036 
9 *467:46 *4502:CLK 38.6214 
10 *467:46 *4503:CLK 49.89 
11 *467:44 *4456:CLK 41.9461 
12 *467:12 *4501:CLK 24.6157 
*END

*D_NET *468 0.00901296
*CONN
*I *4505:CLK I *D sky130_fd_sc_hd__dfrtp_2
*I *4507:CLK I *D sky130_fd_sc_hd__dfrtp_2
*I *4508:CLK I *D sky130_fd_sc_hd__dfrtp_2
*I *4504:CLK I *D sky130_fd_sc_hd__dfrtp_2
*I *4506:CLK I *D sky130_fd_sc_hd__dfrtp_2
*I *4457:CLK I *D sky130_fd_sc_hd__dfrtp_2
*I *4621:X O *D sky130_fd_sc_hd__clkbuf_16
*CAP
1 *4505:CLK 0
2 *4507:CLK 0
3 *4508:CLK 0
4 *4504:CLK 0.000493348
5 *4506:CLK 0.00010776
6 *4457:CLK 0
7 *4621:X 7.27021e-05
8 *468:69 0.000391345
9 *468:54 0.00110283
10 *468:50 0.000336359
11 *468:37 0.000777598
12 *468:25 0.000757142
13 *468:14 0.00097314
14 *468:8 0.00125137
15 *4506:CLK *4300:A 8.48502e-06
16 *4506:CLK *642:14 6.17437e-06
17 *4506:CLK *905:6 7.28721e-05
18 *4506:CLK *927:16 2.93747e-05
19 *468:14 *4465:CLK 0
20 *468:14 *4748:A 0
21 *468:14 *515:14 0
22 *468:14 *666:81 0
23 *468:14 *672:89 0.000223805
24 *468:14 *929:10 5.61414e-05
25 *468:25 *4465:CLK 0
26 *468:25 *471:51 0
27 *468:25 *929:10 8.09007e-05
28 *468:37 *471:51 0
29 *468:37 *642:14 0.00024254
30 *468:37 *692:54 0.000219383
31 *468:37 *927:6 0.000298807
32 *468:37 *927:16 9.62666e-05
33 *468:37 *929:10 0.000274543
34 *468:50 *4299:A 5.15096e-05
35 *468:50 *926:34 0.000136486
36 *468:50 *927:16 0.000133316
37 *468:54 *3995:B 9.41704e-05
38 *468:54 *927:16 9.41704e-05
39 *468:69 *4299:A 0
40 *468:69 *4667:A 0.000126936
41 *468:69 *908:10 3.81391e-05
42 *4047:A *468:14 8.07477e-05
43 *42:10 *468:14 0
44 *142:14 *468:14 9.47208e-05
45 *211:42 *468:54 4.5051e-05
46 *211:42 *468:69 3.3123e-05
47 *211:54 *468:50 2.70469e-05
48 *212:26 *468:54 1.95443e-05
49 *213:20 *468:69 0
50 *402:10 *468:69 0
51 *449:67 *468:14 5.64572e-05
52 *449:71 *468:14 0.000101041
53 *449:73 *468:14 7.61229e-06
*RES
1 *4621:X *468:8 39.0979 
2 *468:8 *468:14 34.8236 
3 *468:14 *4457:CLK 23 
4 *468:8 *468:25 19.4121 
5 *468:25 *468:37 43.9821 
6 *468:37 *4506:CLK 25.0507 
7 *468:37 *468:50 32.61 
8 *468:50 *468:54 3.97714 
9 *468:54 *4504:CLK 31.265 
10 *468:54 *468:69 38.9486 
11 *468:69 *4508:CLK 23 
12 *468:50 *4507:CLK 23 
13 *468:25 *4505:CLK 23 
*END

*D_NET *469 0.00598762
*CONN
*I *4459:CLK I *D sky130_fd_sc_hd__dfrtp_2
*I *4583:CLK I *D sky130_fd_sc_hd__dfrtp_2
*I *4460:CLK I *D sky130_fd_sc_hd__dfrtp_2
*I *4458:CLK I *D sky130_fd_sc_hd__dfrtp_2
*I *4416:CLK I *D sky130_fd_sc_hd__dfrtp_2
*I *4420:CLK I *D sky130_fd_sc_hd__dfrtp_2
*I *4622:X O *D sky130_fd_sc_hd__clkbuf_16
*CAP
1 *4459:CLK 0
2 *4583:CLK 0
3 *4460:CLK 0
4 *4458:CLK 0.000233877
5 *4416:CLK 0
6 *4420:CLK 0.000137337
7 *4622:X 0.000310558
8 *469:60 0.000770685
9 *469:44 0.000233877
10 *469:42 0.000933046
11 *469:36 0.000540002
12 *469:10 0.000557571
13 *469:8 0.00110843
14 *4420:CLK *4470:RESET_B 2.30292e-05
15 *4420:CLK *671:16 6.63801e-05
16 *4420:CLK *758:8 0
17 *469:8 *668:29 0.000137394
18 *469:8 *668:31 6.17437e-06
19 *469:10 *4416:RESET_B 0
20 *469:10 *534:8 5.45887e-05
21 *469:10 *668:70 0
22 *469:10 *671:8 0
23 *469:10 *671:16 4.51974e-05
24 *469:10 *758:8 0
25 *469:36 *4459:RESET_B 0.000100477
26 *469:36 *668:81 5.91913e-05
27 *469:42 *4459:RESET_B 2.50118e-05
28 *469:60 *3902:B 0
29 *469:60 *4841:A 0
30 *469:60 *558:10 0
31 *4459:D *469:36 2.00704e-05
32 *4459:D *469:42 1.84917e-05
33 *47:8 *469:42 0.000166387
34 *47:8 *469:60 0.000343336
35 *48:10 *469:60 9.65075e-05
36 *137:14 *469:60 0
37 *179:12 *469:60 0
38 *180:14 *469:60 0
39 *261:12 *4420:CLK 0
40 *261:12 *469:10 0
41 *265:8 *469:60 0
42 *463:8 *469:60 0
*RES
1 *4622:X *469:8 42.4329 
2 *469:8 *469:10 7.89214 
3 *469:10 *4420:CLK 41.2314 
4 *469:10 *4416:CLK 38 
5 *469:8 *469:36 22.7264 
6 *469:36 *469:42 18.9357 
7 *469:42 *469:44 15 
8 *469:44 *4458:CLK 26.48 
9 *469:44 *4460:CLK 23 
10 *469:42 *469:60 28.8786 
11 *469:60 *4583:CLK 23 
12 *469:36 *4459:CLK 23 
*END

*D_NET *470 0.00939195
*CONN
*I *4587:CLK I *D sky130_fd_sc_hd__dfrtp_2
*I *4584:CLK I *D sky130_fd_sc_hd__dfrtp_2
*I *4462:CLK I *D sky130_fd_sc_hd__dfrtp_2
*I *4461:CLK I *D sky130_fd_sc_hd__dfrtp_2
*I *4474:CLK I *D sky130_fd_sc_hd__dfrtp_2
*I *4475:CLK I *D sky130_fd_sc_hd__dfrtp_2
*I *4623:X O *D sky130_fd_sc_hd__clkbuf_16
*CAP
1 *4587:CLK 0
2 *4584:CLK 7.45251e-05
3 *4462:CLK 0.000185915
4 *4461:CLK 6.63506e-05
5 *4474:CLK 0
6 *4475:CLK 0.000370995
7 *4623:X 0.000443094
8 *470:64 0.00102138
9 *470:20 0.000972501
10 *470:18 0.00122469
11 *470:12 0.000909754
12 *470:8 0.00155696
13 *4462:CLK *4462:D 1.24362e-05
14 *4462:CLK *687:24 1.12034e-05
15 *4475:CLK *3910:D 0.00014411
16 *4475:CLK *4353:B1 1.24376e-05
17 *4475:CLK *4740:A 0.000425472
18 *4584:CLK *4587:RESET_B 7.59964e-05
19 *470:12 *543:10 4.73379e-05
20 *470:18 *4462:D 2.34132e-05
21 *470:18 *4462:RESET_B 1.26547e-05
22 *470:18 *509:10 0.000182664
23 *470:18 *687:24 2.75275e-06
24 *470:20 *3910:D 0.00043546
25 *470:64 *4587:D 2.72257e-05
26 *470:64 *4587:RESET_B 1.38758e-05
27 *470:64 *4706:A 0
28 *470:64 *541:23 0
29 *470:64 *573:8 0
30 *470:64 *648:30 0.000186697
31 *470:64 *687:8 6.29744e-05
32 *3968:B *470:64 0
33 *45:10 *470:18 2.14404e-05
34 *53:10 *4475:CLK 0.000134226
35 *53:10 *470:20 4.21594e-06
36 *262:12 *470:64 0
37 *264:8 *470:20 0.000183259
38 *264:23 *470:18 0.000159425
39 *264:23 *470:20 0.000226087
40 *449:27 *470:8 0.000121261
41 *449:27 *470:64 3.91559e-05
*RES
1 *4623:X *470:8 44.3386 
2 *470:8 *470:12 17.9621 
3 *470:12 *470:18 23.5964 
4 *470:18 *470:20 14.2307 
5 *470:20 *4475:CLK 47.3836 
6 *470:20 *4474:CLK 38 
7 *470:18 *4461:CLK 39.0979 
8 *470:12 *4462:CLK 25.9 
9 *470:8 *470:64 32.6071 
10 *470:64 *4584:CLK 25.0507 
11 *470:64 *4587:CLK 23 
*END

*D_NET *471 0.00471841
*CONN
*I *4575:CLK I *D sky130_fd_sc_hd__dfrtp_2
*I *4466:CLK I *D sky130_fd_sc_hd__dfrtp_2
*I *4465:CLK I *D sky130_fd_sc_hd__dfrtp_2
*I *4576:CLK I *D sky130_fd_sc_hd__dfrtp_2
*I *4578:CLK I *D sky130_fd_sc_hd__dfrtp_2
*I *4577:CLK I *D sky130_fd_sc_hd__dfrtp_2
*I *4624:X O *D sky130_fd_sc_hd__clkbuf_16
*CAP
1 *4575:CLK 0
2 *4466:CLK 0
3 *4465:CLK 0.000221973
4 *4576:CLK 6.82566e-05
5 *4578:CLK 0.000144475
6 *4577:CLK 4.68731e-05
7 *4624:X 0.000139158
8 *471:51 0.000711748
9 *471:45 0.000644226
10 *471:23 0.000302707
11 *471:12 0.000656702
12 *471:6 0.000813462
13 *4465:CLK *721:14 0
14 *4576:CLK *4313:B1 0
15 *4576:CLK *951:10 5.86165e-05
16 *4578:CLK *951:10 5.67058e-05
17 *471:12 *647:43 8.68472e-05
18 *471:23 *4309:B1 5.11935e-06
19 *471:23 *4313:B1 0
20 *471:23 *647:43 5.77398e-05
21 *471:45 *940:8 0
22 *471:51 *721:14 0
23 *471:51 *929:10 0
24 *471:51 *940:8 0
25 *4309:A2 *471:12 0.000210945
26 *4309:A2 *471:23 2.34364e-05
27 *42:10 *4465:CLK 4.59027e-05
28 *174:10 *4577:CLK 5.41385e-05
29 *174:14 *471:23 0.000141879
30 *174:27 *4576:CLK 0.000188256
31 *174:27 *471:23 3.92407e-05
32 *468:14 *4465:CLK 0
33 *468:25 *4465:CLK 0
34 *468:25 *471:51 0
35 *468:37 *471:51 0
*RES
1 *4624:X *471:6 25.5271 
2 *471:6 *471:12 26.6 
3 *471:12 *4577:CLK 39.0979 
4 *471:12 *471:23 2.96214 
5 *471:23 *4578:CLK 40.5271 
6 *471:23 *4576:CLK 40.61 
7 *471:6 *471:45 17.9621 
8 *471:45 *471:51 9.36286 
9 *471:51 *4465:CLK 42.205 
10 *471:51 *4466:CLK 38 
11 *471:45 *4575:CLK 38 
*END

*D_NET *472 0.00685553
*CONN
*I *4580:CLK I *D sky130_fd_sc_hd__dfrtp_2
*I *4579:CLK I *D sky130_fd_sc_hd__dfrtp_2
*I *4581:CLK I *D sky130_fd_sc_hd__dfrtp_2
*I *4586:CLK I *D sky130_fd_sc_hd__dfrtp_2
*I *4585:CLK I *D sky130_fd_sc_hd__dfrtp_2
*I *4582:CLK I *D sky130_fd_sc_hd__dfrtp_2
*I *4625:X O *D sky130_fd_sc_hd__clkbuf_16
*CAP
1 *4580:CLK 5.93903e-05
2 *4579:CLK 0.000367791
3 *4581:CLK 0
4 *4586:CLK 0
5 *4585:CLK 7.08253e-05
6 *4582:CLK 0
7 *4625:X 0.000583294
8 *472:56 0.000624963
9 *472:50 0.00137611
10 *472:41 0.00119514
11 *472:28 0.00062403
12 *472:26 0.000845019
13 *472:10 0.000155891
14 *4579:CLK *4669:A 3.22879e-05
15 *4579:CLK *647:10 5.41385e-05
16 *4585:CLK *4585:RESET_B 5.47927e-05
17 *472:10 *649:24 7.03663e-05
18 *472:10 *981:10 8.62876e-05
19 *472:28 *3959:A 0.000111148
20 *472:28 *648:41 0
21 *472:28 *941:10 0
22 *472:41 *3959:A 0.000104719
23 *472:41 *648:41 0
24 *472:41 *978:10 6.07611e-06
25 *472:50 *4580:D 8.9238e-06
26 *472:50 *4580:RESET_B 1.94693e-05
27 *472:56 *647:10 0
28 *472:56 *647:14 0
29 *4314:B *472:50 4.79641e-05
30 *178:25 *4579:CLK 0
31 *178:25 *472:56 0
32 *409:10 *472:50 0.000135037
33 *411:10 *4579:CLK 0.000193379
34 *413:8 *472:10 2.84809e-05
*RES
1 *4625:X *472:10 41.0036 
2 *472:10 *4582:CLK 38 
3 *4625:X *472:26 44.815 
4 *472:26 *472:28 8.24429 
5 *472:28 *4585:CLK 39.5743 
6 *472:28 *472:41 17.9621 
7 *472:41 *4586:CLK 23 
8 *472:41 *472:50 13.8579 
9 *472:50 *472:56 18.9564 
10 *472:56 *4581:CLK 38 
11 *472:56 *4579:CLK 45.8714 
12 *472:50 *4580:CLK 24.6157 
*END

*D_NET *473 0.0108794
*CONN
*I *4548:CLK I *D sky130_fd_sc_hd__dfrtp_2
*I *4533:CLK I *D sky130_fd_sc_hd__dfrtp_2
*I *4532:CLK I *D sky130_fd_sc_hd__dfrtp_2
*I *4534:CLK I *D sky130_fd_sc_hd__dfrtp_2
*I *4543:CLK I *D sky130_fd_sc_hd__dfrtp_2
*I *4542:CLK I *D sky130_fd_sc_hd__dfrtp_2
*I *4541:CLK I *D sky130_fd_sc_hd__dfrtp_2
*I *4626:X O *D sky130_fd_sc_hd__clkbuf_16
*CAP
1 *4548:CLK 0
2 *4533:CLK 0
3 *4532:CLK 0
4 *4534:CLK 2.79004e-05
5 *4543:CLK 0.000107513
6 *4542:CLK 6.18348e-05
7 *4541:CLK 0.000140543
8 *4626:X 0
9 *473:88 0.000472015
10 *473:68 0.000524372
11 *473:26 0.000322431
12 *473:24 0.000703213
13 *473:22 0.000636341
14 *473:20 0.000691447
15 *473:16 0.000791114
16 *473:4 0.00122885
17 *4534:CLK *4534:D 5.50106e-05
18 *4541:CLK *828:6 2.64616e-05
19 *4541:CLK *828:17 0.000165394
20 *473:16 *4157:A1 0.000141888
21 *473:16 *4533:D 7.88828e-05
22 *473:16 *653:96 0.000282277
23 *473:22 *4157:B1 0.000207507
24 *473:22 *653:38 1.01436e-05
25 *473:22 *819:8 0
26 *473:24 *4157:B1 0.00025307
27 *473:24 *4182:A1 0.000186025
28 *473:24 *652:52 0
29 *473:24 *652:56 0
30 *473:24 *808:10 0
31 *473:24 *819:8 0
32 *473:26 *4182:A1 0.000254872
33 *473:26 *828:17 0.000183781
34 *473:68 *4158:A1 0.000118786
35 *473:68 *653:36 0.000401231
36 *473:68 *653:38 0.000155829
37 *473:68 *827:10 0.000107548
38 *473:68 *827:12 1.37349e-05
39 *473:88 *4548:D 0.000140927
40 *473:88 *653:96 0.000201912
41 *473:88 *653:106 0.000120603
42 *473:88 *655:40 9.5877e-05
43 *4020:B *4541:CLK 0.000167296
44 *4160:A2 *473:16 0.00012308
45 *4160:A2 *473:20 1.94812e-05
46 *4195:B *473:88 0.000140888
47 *4199:A2 *473:88 0.000100061
48 *229:16 *473:68 0.000164291
49 *229:27 *473:68 0
50 *232:16 *473:24 0
51 *234:17 *4542:CLK 5.3304e-05
52 *234:19 *4541:CLK 5.29888e-05
53 *234:40 *4542:CLK 1.47795e-05
54 *234:47 *4541:CLK 2.45092e-05
55 *234:47 *473:26 0.00019288
56 *234:62 *473:24 0.000222123
57 *234:62 *473:26 0.000241259
58 *235:8 *4541:CLK 8.52094e-06
59 *318:12 *473:68 0.000166522
60 *319:10 *473:22 0
61 *319:10 *473:24 0
62 *319:10 *473:68 0
63 *320:8 *473:16 7.03869e-05
64 *342:22 *473:88 0.000196664
65 *344:6 *473:88 1.10658e-05
*RES
1 *4626:X *473:4 23 
2 *473:4 *473:16 43.775 
3 *473:16 *473:20 15.6214 
4 *473:20 *473:22 2.96214 
5 *473:22 *473:24 11.4136 
6 *473:24 *473:26 5.77929 
7 *473:26 *4541:CLK 41.5836 
8 *473:26 *4542:CLK 39.0979 
9 *473:24 *4543:CLK 39.5743 
10 *473:22 *4534:CLK 38.6214 
11 *473:20 *473:68 28.8786 
12 *473:68 *4532:CLK 23 
13 *473:16 *4533:CLK 23 
14 *473:4 *473:88 40.295 
15 *473:88 *4548:CLK 23 
*END

*D_NET *474 0.00983424
*CONN
*I *4571:CLK I *D sky130_fd_sc_hd__dfrtp_2
*I *4547:CLK I *D sky130_fd_sc_hd__dfrtp_2
*I *4654:A I *D sky130_fd_sc_hd__clkbuf_4
*I *4546:CLK I *D sky130_fd_sc_hd__dfrtp_2
*I *4544:CLK I *D sky130_fd_sc_hd__dfrtp_2
*I *4545:CLK I *D sky130_fd_sc_hd__dfrtp_2
*I *4549:CLK I *D sky130_fd_sc_hd__dfrtp_2
*I *4627:X O *D sky130_fd_sc_hd__clkbuf_16
*CAP
1 *4571:CLK 0
2 *4547:CLK 0
3 *4654:A 7.26725e-05
4 *4546:CLK 0
5 *4544:CLK 0
6 *4545:CLK 0.000297306
7 *4549:CLK 0
8 *4627:X 0.000920979
9 *474:95 0.000683421
10 *474:82 0.00103937
11 *474:71 0.00063877
12 *474:31 0.000608498
13 *474:25 0.000887852
14 *474:16 0.000530795
15 *474:6 0.00181829
16 *4545:CLK *4545:D 0.000102093
17 *4545:CLK *564:61 0.0001366
18 *4545:CLK *652:79 2.94211e-05
19 *4545:CLK *810:10 0.000167522
20 *474:16 *4201:A1 3.18142e-05
21 *474:16 *564:20 9.98995e-05
22 *474:16 *564:26 4.43614e-05
23 *474:16 *654:16 0.000103415
24 *474:25 *4024:A 0
25 *474:25 *655:54 0
26 *474:25 *811:10 5.32058e-05
27 *474:25 *831:25 0
28 *474:25 *832:31 0
29 *474:31 *810:10 0.000168515
30 *474:31 *811:10 3.50862e-06
31 *474:82 *4196:A1 1.05658e-05
32 *474:82 *812:8 5.6393e-05
33 *474:82 *834:44 2.35393e-05
34 *4194:B *474:82 0.000209729
35 *4194:B *474:95 0.000225265
36 *4202:B *474:25 0
37 *236:80 *474:25 8.62876e-05
38 *238:14 *474:25 0.000221184
39 *239:31 *474:71 9.63918e-05
40 *239:31 *474:82 6.67764e-05
41 *239:46 *474:82 0.00019654
42 *242:8 *474:95 3.47781e-05
43 *242:12 *474:95 5.3304e-05
44 *343:8 *474:82 0
45 *343:8 *474:95 0
46 *344:14 *474:82 0
47 *345:8 *474:71 0
48 *345:8 *474:82 0
49 *347:10 *474:25 8.4047e-05
50 *464:31 *474:6 3.11269e-05
*RES
1 *4627:X *474:6 31.2443 
2 *474:6 *474:16 38.7207 
3 *474:16 *4549:CLK 23 
4 *474:6 *474:25 25.3571 
5 *474:25 *474:31 6.54571 
6 *474:31 *4545:CLK 44.7321 
7 *474:31 *4544:CLK 38 
8 *474:25 *4546:CLK 38 
9 *4627:X *474:71 41.7079 
10 *474:71 *4654:A 39.0979 
11 *474:71 *474:82 8.24429 
12 *474:82 *4547:CLK 38 
13 *474:82 *474:95 28.63 
14 *474:95 *4571:CLK 23 
*END

*D_NET *475 0.00578044
*CONN
*I *4414:CLK I *D sky130_fd_sc_hd__dfrtp_2
*I *4401:CLK I *D sky130_fd_sc_hd__dfrtp_2
*I *4655:A I *D sky130_fd_sc_hd__clkbuf_4
*I *4552:CLK I *D sky130_fd_sc_hd__dfrtp_2
*I *4550:CLK I *D sky130_fd_sc_hd__dfrtp_2
*I *4551:CLK I *D sky130_fd_sc_hd__dfrtp_2
*I *4531:CLK I *D sky130_fd_sc_hd__dfrtp_2
*I *4628:X O *D sky130_fd_sc_hd__clkbuf_16
*CAP
1 *4414:CLK 0.000310358
2 *4401:CLK 6.80978e-05
3 *4655:A 0
4 *4552:CLK 9.14048e-05
5 *4550:CLK 0.000144431
6 *4551:CLK 0
7 *4531:CLK 0
8 *4628:X 0
9 *475:65 0.000482431
10 *475:58 0.000171572
11 *475:43 0.000475157
12 *475:27 0.000143104
13 *475:19 0.000727867
14 *475:12 0.000490339
15 *475:8 0.000512335
16 *475:6 0.000354123
17 *4414:CLK *664:51 0.000412026
18 *4414:CLK *696:16 0.000107648
19 *475:8 *4552:RESET_B 0.000104879
20 *475:8 *696:16 0.00024009
21 *475:8 *818:8 6.25829e-05
22 *475:12 *4552:RESET_B 0.000141869
23 *475:12 *818:8 0.000139647
24 *475:27 *4551:D 2.93431e-05
25 *475:27 *817:8 0.000195248
26 *475:43 *4552:D 9.91701e-05
27 *475:58 *4531:RESET_B 0
28 *475:58 *4552:RESET_B 0
29 *475:58 *4660:A 5.03449e-05
30 *475:65 *696:16 9.98891e-05
31 *4401:D *475:8 0
32 *4401:D *475:58 1.83667e-05
33 *4401:D *475:65 0
34 *4617:A *475:19 5.12254e-05
35 *449:222 *4414:CLK 0
36 *449:222 *475:65 0
37 *464:8 *4550:CLK 5.68958e-05
*RES
1 *4628:X *475:6 38 
2 *475:6 *475:8 7.18786 
3 *475:8 *475:12 16.9057 
4 *475:12 *4531:CLK 23 
5 *475:12 *475:19 6.33857 
6 *475:19 *475:27 33.2314 
7 *475:27 *4551:CLK 23 
8 *475:19 *4550:CLK 26.0036 
9 *475:8 *475:43 18.0036 
10 *475:43 *4552:CLK 24.4707 
11 *475:43 *475:58 33.3143 
12 *475:58 *4655:A 23 
13 *475:6 *475:65 2.61 
14 *475:65 *4401:CLK 39.0979 
15 *475:65 *4414:CLK 46.2443 
*END

*D_NET *476 0.0122679
*CONN
*I *4453:CLK I *D sky130_fd_sc_hd__dfrtp_2
*I *4452:CLK I *D sky130_fd_sc_hd__dfrtp_2
*I *4451:CLK I *D sky130_fd_sc_hd__dfstp_2
*I *4570:CLK I *D sky130_fd_sc_hd__dfrtp_2
*I *4400:CLK I *D sky130_fd_sc_hd__dfrtp_2
*I *4404:CLK I *D sky130_fd_sc_hd__dfrtp_2
*I *4629:X O *D sky130_fd_sc_hd__clkbuf_16
*CAP
1 *4453:CLK 0
2 *4452:CLK 0
3 *4451:CLK 0.000191026
4 *4570:CLK 0
5 *4400:CLK 0.000140653
6 *4404:CLK 6.68966e-05
7 *4629:X 9.69362e-05
8 *476:80 0.000336192
9 *476:70 0.000336192
10 *476:68 0.000868813
11 *476:42 0.000860116
12 *476:36 0.00109416
13 *476:34 0.00113265
14 *476:12 0.000643006
15 *476:6 0.000753214
16 *4400:CLK *529:23 1.80023e-05
17 *4404:CLK *3939:A1 3.17634e-05
18 *4451:CLK *4790:A 0.000303724
19 *476:12 *529:23 2.99716e-05
20 *476:12 *744:34 0
21 *476:34 *744:34 0.000281995
22 *476:42 *4742:A 0.000197479
23 *476:42 *837:25 0.000192681
24 *476:42 *839:8 5.50049e-05
25 *476:68 *4424:RESET_B 4.94168e-05
26 *476:68 *4713:A 0.000175903
27 *476:68 *4790:A 6.9805e-05
28 *476:68 *559:10 3.11916e-05
29 *476:68 *745:50 8.58779e-05
30 *476:80 *3926:B2 2.93335e-05
31 *476:80 *696:41 4.75206e-05
32 *476:80 *713:31 0.000190499
33 *476:80 *743:10 7.4416e-05
34 *476:80 *745:50 0.000111134
35 *3926:A2 *476:80 3.05214e-05
36 *3926:B1 *476:80 4.44669e-05
37 *3941:B *4404:CLK 2.93747e-05
38 *4358:A1 *476:34 0.000349395
39 *4358:A1 *476:36 8.4047e-05
40 *4358:A1 *476:42 0.000375718
41 *4451:D *476:68 8.15864e-05
42 *4452:D *476:80 7.53384e-06
43 *4629:A *476:12 4.05196e-05
44 *27:10 *4400:CLK 6.93449e-05
45 *27:10 *4404:CLK 3.22879e-05
46 *32:8 *476:80 0.000423298
47 *154:16 *476:80 0.000428691
48 *159:12 *4451:CLK 0.000262394
49 *159:12 *476:68 0.0001125
50 *241:57 *476:42 6.7177e-06
51 *465:25 *476:34 0.000524356
52 *465:25 *476:36 7.39034e-05
53 *465:25 *476:42 0.000795644
*RES
1 *4629:X *476:6 24.0979 
2 *476:6 *476:12 22.1257 
3 *476:12 *4404:CLK 39.5743 
4 *476:12 *4400:CLK 40.61 
5 *476:6 *476:34 23.5964 
6 *476:34 *476:36 1.20143 
7 *476:36 *476:42 36.605 
8 *476:42 *4570:CLK 23 
9 *476:36 *4451:CLK 43.075 
10 *476:34 *476:68 42.4079 
11 *476:68 *476:70 15 
12 *476:70 *476:80 41.31 
13 *476:80 *4452:CLK 23 
14 *476:70 *4453:CLK 23 
*END

*D_NET *477 0.0073336
*CONN
*I *4521:CLK I *D sky130_fd_sc_hd__dfrtp_2
*I *4651:A I *D sky130_fd_sc_hd__clkbuf_4
*I *4520:CLK I *D sky130_fd_sc_hd__dfrtp_2
*I *4519:CLK I *D sky130_fd_sc_hd__dfrtp_2
*I *4513:CLK I *D sky130_fd_sc_hd__dfrtp_2
*I *4515:CLK I *D sky130_fd_sc_hd__dfrtp_2
*I *4514:CLK I *D sky130_fd_sc_hd__dfrtp_2
*I *4630:X O *D sky130_fd_sc_hd__clkbuf_16
*CAP
1 *4521:CLK 0
2 *4651:A 0.00032312
3 *4520:CLK 3.47751e-05
4 *4519:CLK 0
5 *4513:CLK 0
6 *4515:CLK 0.000241226
7 *4514:CLK 9.0044e-05
8 *4630:X 0.000606661
9 *477:69 0.00032312
10 *477:26 0.000442219
11 *477:24 0.00062003
12 *477:20 0.000823202
13 *477:12 0.000463265
14 *477:10 0.000721031
15 *4514:CLK *4221:B1 6.437e-05
16 *4514:CLK *661:22 0.00018065
17 *4515:CLK *4219:A1 7.17698e-05
18 *4515:CLK *4220:A 0.000124874
19 *4515:CLK *866:18 0.000138859
20 *4520:CLK *4233:A 7.88926e-05
21 *4520:CLK *663:26 5.67058e-05
22 *4520:CLK *853:10 4.66047e-05
23 *4651:A *575:8 5.79715e-05
24 *4651:A *575:85 9.84794e-05
25 *4651:A *608:28 1.59094e-05
26 *477:10 *4235:B1 7.44257e-05
27 *477:10 *663:26 8.26672e-05
28 *477:12 *661:12 0
29 *477:12 *663:26 0.000104123
30 *477:20 *4519:D 1.10317e-05
31 *477:20 *575:14 0
32 *477:20 *661:12 0
33 *477:20 *851:8 3.71198e-05
34 *477:24 *575:14 7.42471e-05
35 *477:24 *575:16 0
36 *477:24 *575:18 0
37 *477:24 *661:22 0.000255027
38 *477:24 *661:59 0.000130433
39 *477:26 *661:22 0.000190056
40 *4219:A2 *4514:CLK 0.000217534
41 *4234:A *477:24 3.92407e-05
42 *218:25 *477:20 6.70017e-05
43 *220:38 *477:10 0.00015954
44 *220:38 *477:12 0.000231212
45 *220:38 *477:20 1.01436e-05
46 *367:8 *477:24 2.60152e-05
*RES
1 *4630:X *477:10 48.5021 
2 *477:10 *477:12 3.31429 
3 *477:12 *477:20 20.7586 
4 *477:20 *477:24 26.4136 
5 *477:24 *477:26 2.61 
6 *477:26 *4514:CLK 41.3143 
7 *477:26 *4515:CLK 42.93 
8 *477:24 *4513:CLK 38 
9 *477:20 *4519:CLK 23 
10 *477:12 *4520:CLK 39.5743 
11 *477:10 *477:69 15 
12 *477:69 *4651:A 28.4064 
13 *477:69 *4521:CLK 23 
*END

*D_NET *478 0.00603257
*CONN
*I *4573:CLK I *D sky130_fd_sc_hd__dfrtp_2
*I *4574:CLK I *D sky130_fd_sc_hd__dfrtp_2
*I *4553:CLK I *D sky130_fd_sc_hd__dfrtp_2
*I *4554:CLK I *D sky130_fd_sc_hd__dfrtp_2
*I *4556:CLK I *D sky130_fd_sc_hd__dfrtp_2
*I *4555:CLK I *D sky130_fd_sc_hd__dfrtp_2
*I *4631:X O *D sky130_fd_sc_hd__clkbuf_16
*CAP
1 *4573:CLK 0.000253578
2 *4574:CLK 0
3 *4553:CLK 0
4 *4554:CLK 0
5 *4556:CLK 0
6 *4555:CLK 0
7 *4631:X 0.000440999
8 *478:54 0.000344426
9 *478:28 0.000326023
10 *478:16 0.000840508
11 *478:12 0.000799859
12 *478:10 0.000518753
13 *478:8 0.000765228
14 *4573:CLK *658:20 9.49336e-05
15 *4573:CLK *660:14 0.000190227
16 *4573:CLK *660:28 4.73716e-05
17 *478:8 *594:12 8.2832e-05
18 *478:10 *658:20 1.80023e-05
19 *478:10 *697:18 0
20 *478:10 *773:8 6.07611e-06
21 *478:12 *581:10 0
22 *478:12 *697:18 0
23 *478:12 *697:20 0
24 *478:12 *711:12 0
25 *478:12 *711:23 8.51225e-05
26 *478:16 *657:46 0.000242738
27 *478:16 *711:23 0.00010404
28 *478:16 *711:27 0.00021188
29 *478:28 *4556:D 0.000141344
30 *478:28 *657:46 6.58124e-05
31 *478:28 *774:10 0.000168524
32 *478:54 *658:20 1.02387e-05
33 *478:54 *773:8 4.95442e-05
34 *4103:A2 *478:16 0
35 *4631:A *4573:CLK 0
36 *4631:A *478:8 0.000224504
37 *4631:A *478:10 0
38 *4631:A *478:54 0
39 *451:8 *4573:CLK 0
*RES
1 *4631:X *478:8 44.815 
2 *478:8 *478:10 4.01857 
3 *478:10 *478:12 5.77929 
4 *478:12 *478:16 26.4136 
5 *478:16 *478:28 36.8564 
6 *478:28 *4555:CLK 23 
7 *478:16 *4556:CLK 23 
8 *478:12 *4554:CLK 38 
9 *478:10 *4553:CLK 38 
10 *478:8 *478:54 1.90571 
11 *478:54 *4574:CLK 38 
12 *478:54 *4573:CLK 43.7793 
*END

*D_NET *479 0.00657732
*CONN
*I *4561:CLK I *D sky130_fd_sc_hd__dfrtp_2
*I *4560:CLK I *D sky130_fd_sc_hd__dfrtp_2
*I *4559:CLK I *D sky130_fd_sc_hd__dfrtp_2
*I *4558:CLK I *D sky130_fd_sc_hd__dfrtp_2
*I *4557:CLK I *D sky130_fd_sc_hd__dfrtp_2
*I *4562:CLK I *D sky130_fd_sc_hd__dfrtp_2
*I *4632:X O *D sky130_fd_sc_hd__clkbuf_16
*CAP
1 *4561:CLK 3.65708e-05
2 *4560:CLK 0
3 *4559:CLK 0.00038131
4 *4558:CLK 0
5 *4557:CLK 0.000364498
6 *4562:CLK 0.000415915
7 *4632:X 0
8 *479:35 0.00050344
9 *479:33 0.00106832
10 *479:27 0.000674232
11 *479:23 0.000467306
12 *479:4 0.000720484
13 *4557:CLK *4106:B1 0.000102135
14 *4557:CLK *4557:D 1.11466e-05
15 *4557:CLK *4557:RESET_B 0.00010766
16 *4557:CLK *711:95 5.71002e-06
17 *4557:CLK *776:8 0.000113398
18 *4559:CLK *4108:B1 0.000217798
19 *4559:CLK *657:55 9.67842e-05
20 *4562:CLK *4114:A1 0.00017171
21 *4562:CLK *4562:D 4.06849e-05
22 *4562:CLK *658:36 1.55097e-05
23 *4562:CLK *779:10 4.21352e-05
24 *479:23 *4114:B1 9.64022e-05
25 *479:23 *795:10 9.84794e-05
26 *479:23 *795:19 5.3304e-05
27 *479:27 *4043:A 0
28 *479:33 *4111:B1 7.03869e-05
29 *479:33 *4114:B1 0
30 *479:33 *657:10 0
31 *479:33 *657:92 0
32 *479:33 *711:111 0
33 *479:35 *4106:B1 0.000113328
34 *479:35 *4111:B1 1.12487e-05
35 *4043:B *479:23 0.000195248
36 *4114:A2 *4562:CLK 7.88828e-05
37 *256:8 *479:23 1.01436e-05
38 *288:8 *4557:CLK 6.57673e-05
39 *293:10 *479:27 0.000114645
40 *293:10 *479:33 0.000112737
*RES
1 *4632:X *479:4 23 
2 *479:4 *4562:CLK 30.8093 
3 *479:4 *479:23 36.09 
4 *479:23 *479:27 17.9621 
5 *479:27 *479:33 11.8279 
6 *479:33 *479:35 3.31429 
7 *479:35 *4557:CLK 45.83 
8 *479:35 *4558:CLK 38 
9 *479:33 *4559:CLK 45.3121 
10 *479:27 *4560:CLK 38 
11 *479:23 *4561:CLK 23.6214 
*END

*D_NET *480 0.00667979
*CONN
*I *4476:CLK I *D sky130_fd_sc_hd__dfrtp_2
*I *4568:CLK I *D sky130_fd_sc_hd__dfrtp_2
*I *4567:CLK I *D sky130_fd_sc_hd__dfrtp_2
*I *4424:CLK I *D sky130_fd_sc_hd__dfrtp_2
*I *4569:CLK I *D sky130_fd_sc_hd__dfrtp_2
*I *4566:CLK I *D sky130_fd_sc_hd__dfrtp_2
*I *4633:X O *D sky130_fd_sc_hd__clkbuf_16
*CAP
1 *4476:CLK 0.00058367
2 *4568:CLK 0.000901582
3 *4567:CLK 0
4 *4424:CLK 0
5 *4569:CLK 0.000213535
6 *4566:CLK 0.000307936
7 *4633:X 0
8 *480:31 0.000619285
9 *480:25 0.000731317
10 *480:10 0.000675829
11 *480:8 0.00100268
12 *480:6 0.000642441
13 *4476:CLK *4680:A 0
14 *4476:CLK *659:21 0.000151899
15 *4476:CLK *713:37 0
16 *4566:CLK *659:21 9.74235e-05
17 *4566:CLK *702:6 0.000116554
18 *4566:CLK *713:37 0
19 *4568:CLK *4133:A1 9.67842e-05
20 *4568:CLK *4133:B1 1.65629e-05
21 *4568:CLK *699:92 0.000263159
22 *4568:CLK *787:8 2.35663e-05
23 *4569:CLK *767:8 0
24 *480:8 *659:21 4.08641e-05
25 *480:8 *713:37 0
26 *480:10 *659:21 4.54033e-05
27 *480:10 *713:37 0
28 *480:31 *695:8 1.94812e-05
29 *480:31 *695:14 0
30 *480:31 *767:8 0
31 *4358:A1 *4569:CLK 0
32 *4358:A1 *480:31 0
33 *63:10 *4569:CLK 3.56537e-05
34 *305:10 *4568:CLK 9.41704e-05
*RES
1 *4633:X *480:6 38 
2 *480:6 *480:8 1.20143 
3 *480:8 *480:10 1.20143 
4 *480:10 *4566:CLK 44.09 
5 *480:10 *480:25 20.3857 
6 *480:25 *480:31 21.9186 
7 *480:31 *4569:CLK 41.8529 
8 *480:31 *4424:CLK 38 
9 *480:25 *4567:CLK 23 
10 *480:8 *4568:CLK 49.9521 
11 *480:6 *4476:CLK 49.3514 
*END

*D_NET *481 0.00894667
*CONN
*I *4565:CLK I *D sky130_fd_sc_hd__dfrtp_2
*I *4479:CLK I *D sky130_fd_sc_hd__dfrtp_2
*I *4477:CLK I *D sky130_fd_sc_hd__dfrtp_2
*I *4564:CLK I *D sky130_fd_sc_hd__dfrtp_2
*I *4563:CLK I *D sky130_fd_sc_hd__dfrtp_2
*I *4572:CLK I *D sky130_fd_sc_hd__dfrtp_2
*I *4634:X O *D sky130_fd_sc_hd__clkbuf_16
*CAP
1 *4565:CLK 0
2 *4479:CLK 0.000442213
3 *4477:CLK 5.28842e-05
4 *4564:CLK 3.42813e-05
5 *4563:CLK 0
6 *4572:CLK 0
7 *4634:X 0.000245617
8 *481:53 0.00109935
9 *481:32 0.000322144
10 *481:24 0.00045743
11 *481:20 0.000467314
12 *481:18 0.00134134
13 *481:12 0.000439341
14 *481:10 0.000245617
15 *4477:CLK *699:92 0.000140259
16 *4477:CLK *702:57 5.50106e-05
17 *4479:CLK *4479:D 2.30292e-05
18 *4479:CLK *4770:A 7.45491e-05
19 *4479:CLK *570:10 5.50049e-05
20 *481:10 *4564:RESET_B 2.22079e-05
21 *481:10 *701:37 3.21327e-05
22 *481:10 *763:8 4.90787e-05
23 *481:18 *4565:RESET_B 5.47927e-05
24 *481:20 *761:12 2.72055e-05
25 *481:24 *659:74 0
26 *481:24 *761:12 6.63698e-05
27 *481:32 *4563:RESET_B 0.000487147
28 *481:32 *702:27 0.000406288
29 *481:53 *4038:A 0
30 *481:53 *766:10 0.000367707
31 *4126:B *481:18 1.14762e-05
32 *4134:A *4479:CLK 0.00010514
33 *4134:A *481:53 1.34354e-05
34 *4134:B *4479:CLK 6.17437e-06
35 *252:10 *481:53 0
36 *253:52 *481:24 0
37 *253:52 *481:32 0.000339242
38 *253:56 *481:32 6.48049e-05
39 *301:10 *481:18 0.00010018
40 *305:10 *4479:CLK 0
41 *306:10 *4479:CLK 0.000127272
42 *306:10 *481:53 0.000637509
43 *452:12 *4564:CLK 1.94812e-05
44 *452:14 *481:20 0.000153677
45 *452:14 *481:53 0.000125915
46 *452:29 *4477:CLK 2.18409e-05
47 *452:29 *481:53 0.000212211
*RES
1 *4634:X *481:10 41.8321 
2 *481:10 *481:12 15 
3 *481:12 *481:18 22.7886 
4 *481:18 *481:20 5.42714 
5 *481:20 *481:24 17.9621 
6 *481:24 *481:32 40.8129 
7 *481:32 *4572:CLK 23 
8 *481:24 *4563:CLK 23 
9 *481:20 *4564:CLK 38.6214 
10 *481:18 *481:53 14.935 
11 *481:53 *4477:CLK 39.5743 
12 *481:53 *4479:CLK 47.0936 
13 *481:12 *4565:CLK 23 
*END

*D_NET *482 0.00908788
*CONN
*I *4427:CLK I *D sky130_fd_sc_hd__dfrtp_2
*I *4426:CLK I *D sky130_fd_sc_hd__dfrtp_2
*I *4411:CLK I *D sky130_fd_sc_hd__dfrtp_2
*I *4403:CLK I *D sky130_fd_sc_hd__dfrtp_2
*I *4407:CLK I *D sky130_fd_sc_hd__dfrtp_2
*I *4415:CLK I *D sky130_fd_sc_hd__dfrtp_2
*I *4410:CLK I *D sky130_fd_sc_hd__dfrtp_2
*I *4635:X O *D sky130_fd_sc_hd__clkbuf_16
*CAP
1 *4427:CLK 0.000309452
2 *4426:CLK 0.000113047
3 *4411:CLK 0.000154812
4 *4403:CLK 0
5 *4407:CLK 0
6 *4415:CLK 0
7 *4410:CLK 0.000317953
8 *4635:X 0.000161442
9 *482:69 0.000602155
10 *482:58 0.000453372
11 *482:39 0.000390949
12 *482:27 0.000716399
13 *482:12 0.000746777
14 *482:10 0.000303749
15 *482:8 0.000480721
16 *4410:CLK *4407:RESET_B 0
17 *4410:CLK *499:29 0.000398069
18 *4410:CLK *603:10 0.000108681
19 *4410:CLK *742:26 0.000222113
20 *4411:CLK *541:10 0.000103521
21 *4426:CLK *742:12 4.42603e-05
22 *4427:CLK *4365:B2 1.28818e-05
23 *4427:CLK *521:78 2.33782e-05
24 *482:8 *4361:A0 0.00022823
25 *482:8 *498:20 6.93345e-05
26 *482:8 *526:14 0.000172429
27 *482:8 *526:24 0.000141355
28 *482:10 *4407:RESET_B 0
29 *482:10 *526:24 0
30 *482:10 *742:18 3.4678e-05
31 *482:10 *742:26 0.000158229
32 *482:12 *4407:RESET_B 0
33 *482:12 *742:26 0.000216051
34 *482:27 *499:29 1.59094e-05
35 *482:39 *4410:RESET_B 0.00011229
36 *482:39 *527:8 2.93747e-05
37 *482:69 *742:12 1.70419e-05
38 *482:69 *742:18 8.52094e-06
39 *4365:B1 *4427:CLK 5.3304e-05
40 *4365:C1 *4427:CLK 0.000276552
41 *4407:D *482:27 5.12328e-05
42 *4411:D *4411:CLK 9.8672e-05
43 *4427:D *4427:CLK 4.53082e-05
44 *20:6 *482:27 3.7122e-06
45 *24:10 *4427:CLK 0.000190742
46 *24:10 *482:69 0.000368415
47 *29:10 *482:10 7.90939e-05
48 *65:10 *482:69 0.000110267
49 *88:24 *4410:CLK 0.000145775
50 *105:8 *482:39 6.63801e-05
51 *165:16 *4427:CLK 7.75593e-05
52 *428:8 *482:8 0.000100486
53 *429:10 *482:10 0.000194043
54 *429:10 *482:58 0.000178512
55 *429:10 *482:69 0.00018065
56 *449:13 *4410:CLK 0
57 *449:13 *482:10 0
*RES
1 *4635:X *482:8 43.3857 
2 *482:8 *482:10 6.13143 
3 *482:10 *482:12 2.96214 
4 *482:12 *4410:CLK 46.7829 
5 *482:12 *482:27 20.3857 
6 *482:27 *482:39 38.1614 
7 *482:39 *4415:CLK 23 
8 *482:27 *4407:CLK 23 
9 *482:10 *4403:CLK 38 
10 *482:8 *482:58 2.61 
11 *482:58 *4411:CLK 41.48 
12 *482:58 *482:69 5.77929 
13 *482:69 *4426:CLK 40.0507 
14 *482:69 *4427:CLK 45.5193 
*END

*D_NET *483 0.0103928
*CONN
*I *4656:A I *D sky130_fd_sc_hd__clkbuf_4
*I *4405:CLK I *D sky130_fd_sc_hd__dfrtp_2
*I *4408:CLK I *D sky130_fd_sc_hd__dfrtp_2
*I *4446:CLK I *D sky130_fd_sc_hd__dfrtp_2
*I *4412:CLK I *D sky130_fd_sc_hd__dfrtp_2
*I *4413:CLK I *D sky130_fd_sc_hd__dfrtp_2
*I *4402:CLK I *D sky130_fd_sc_hd__dfrtp_2
*I *4636:X O *D sky130_fd_sc_hd__clkbuf_16
*CAP
1 *4656:A 0.000383595
2 *4405:CLK 4.93533e-05
3 *4408:CLK 0
4 *4446:CLK 0
5 *4412:CLK 0
6 *4413:CLK 3.22151e-05
7 *4402:CLK 0
8 *4636:X 0.000601126
9 *483:57 0.000576644
10 *483:40 0.000118688
11 *483:34 0.00107874
12 *483:23 0.000992268
13 *483:21 0.000360182
14 *483:14 0.00070379
15 *483:8 0.0015214
16 *4405:CLK *4405:D 6.17437e-06
17 *4413:CLK *4408:RESET_B 5.3304e-05
18 *4656:A *623:8 5.15635e-05
19 *483:8 *3853:B 2.193e-05
20 *483:8 *528:47 0.000648363
21 *483:14 *4400:RESET_B 0.00031867
22 *483:14 *520:29 8.50366e-05
23 *483:14 *744:42 6.37012e-05
24 *483:14 *984:42 0
25 *483:21 *520:29 0.000161748
26 *483:21 *623:8 0.0001366
27 *483:34 *4408:RESET_B 0.000144858
28 *483:34 *4446:RESET_B 3.20631e-05
29 *483:34 *4813:A 0.000145171
30 *483:34 *522:14 3.20631e-05
31 *483:40 *4446:RESET_B 5.0518e-05
32 *483:40 *707:37 1.7403e-05
33 *483:57 *623:8 0.000209662
34 *3865:B *483:14 6.38433e-05
35 *22:10 *483:14 9.43771e-06
36 *22:10 *483:21 4.07693e-05
37 *99:12 *483:14 5.20759e-05
38 *99:22 *483:14 0.000157964
39 *100:14 *483:14 0.000949002
40 *100:26 *483:14 0.000128106
41 *103:10 *483:14 0.000289333
42 *123:55 *483:40 0.000105451
*RES
1 *4636:X *483:8 46.2443 
2 *483:8 *483:14 33.7671 
3 *483:14 *4402:CLK 23 
4 *483:8 *483:21 4.72286 
5 *483:21 *483:23 15 
6 *483:23 *4413:CLK 23.6214 
7 *483:23 *483:34 17.3171 
8 *483:34 *483:40 32.9621 
9 *483:40 *4412:CLK 23 
10 *483:34 *4446:CLK 23 
11 *483:23 *4408:CLK 23 
12 *483:21 *483:57 2.96214 
13 *483:57 *4405:CLK 38.6214 
14 *483:57 *4656:A 44.5664 
*END

*D_NET *484 0.00758765
*CONN
*I *4590:CLK I *D sky130_fd_sc_hd__dfrtp_2
*I *4440:CLK I *D sky130_fd_sc_hd__dfrtp_2
*I *4589:CLK I *D sky130_fd_sc_hd__dfrtp_2
*I *4588:CLK I *D sky130_fd_sc_hd__dfrtp_2
*I *4593:CLK I *D sky130_fd_sc_hd__dfrtp_2
*I *4592:CLK I *D sky130_fd_sc_hd__dfrtp_2
*I *4637:X O *D sky130_fd_sc_hd__clkbuf_16
*CAP
1 *4590:CLK 0
2 *4440:CLK 0.000679195
3 *4589:CLK 0
4 *4588:CLK 0.00013859
5 *4593:CLK 0.000148647
6 *4592:CLK 0.000126064
7 *4637:X 0.000252309
8 *484:56 0.000679195
9 *484:42 0.000404039
10 *484:36 0.000553076
11 *484:12 0.00120324
12 *484:6 0.00146846
13 *4440:CLK *4440:RESET_B 0.000391657
14 *4440:CLK *4590:D 8.1796e-05
15 *4588:CLK *4589:D 6.17437e-06
16 *4593:CLK *648:71 5.41385e-05
17 *4593:CLK *948:10 0.000187335
18 *4593:CLK *949:8 0
19 *484:6 *3969:A 5.50049e-05
20 *484:6 *3969:B 0.000141052
21 *484:6 *3971:A 0.000185428
22 *484:12 *3964:A 0
23 *484:12 *606:10 0
24 *484:12 *939:27 0
25 *484:12 *948:10 6.48049e-05
26 *484:12 *949:8 0
27 *484:12 *963:10 0
28 *484:12 *964:14 0.000216139
29 *484:36 *3969:A 0
30 *484:36 *3971:A 0
31 *484:36 *946:10 0
32 *484:42 *4589:D 7.27182e-05
33 *3966:C *484:36 7.80354e-05
34 *3966:C *484:42 4.6318e-06
35 *4338:B *484:36 3.70094e-05
36 *181:40 *484:12 0
37 *181:57 *484:42 0
38 *183:10 *484:12 0
39 *183:12 *484:36 5.30621e-05
40 *185:10 *484:12 3.80641e-05
41 *187:10 *484:6 1.03955e-05
42 *187:10 *484:12 5.79715e-05
43 *188:10 *484:36 0.000166522
44 *189:8 *484:6 3.28964e-05
45 *420:8 *484:36 0
46 *420:8 *484:42 0
*RES
1 *4637:X *484:6 28.3857 
2 *484:6 *484:12 32.3586 
3 *484:12 *4592:CLK 40.0507 
4 *484:12 *4593:CLK 41.7079 
5 *484:6 *484:36 21.1314 
6 *484:36 *484:42 19.5364 
7 *484:42 *4588:CLK 25.5271 
8 *484:42 *4589:CLK 23 
9 *484:36 *484:56 15 
10 *484:56 *4440:CLK 36.195 
11 *484:56 *4590:CLK 23 
*END

*D_NET *485 0.00742723
*CONN
*I *4441:CLK I *D sky130_fd_sc_hd__dfrtp_2
*I *4595:CLK I *D sky130_fd_sc_hd__dfrtp_2
*I *4594:CLK I *D sky130_fd_sc_hd__dfrtp_2
*I *4591:CLK I *D sky130_fd_sc_hd__dfrtp_2
*I *4442:CLK I *D sky130_fd_sc_hd__dfrtp_2
*I *4443:CLK I *D sky130_fd_sc_hd__dfrtp_2
*I *4638:X O *D sky130_fd_sc_hd__clkbuf_16
*CAP
1 *4441:CLK 0
2 *4595:CLK 0.000297549
3 *4594:CLK 2.42792e-05
4 *4591:CLK 0
5 *4442:CLK 0.000198262
6 *4443:CLK 0.000338673
7 *4638:X 0.000271696
8 *485:51 0.000580303
9 *485:42 0.000728114
10 *485:36 0.000880243
11 *485:12 0.000769204
12 *485:10 0.000914568
13 *4442:CLK *713:52 0.000267494
14 *4594:CLK *4594:D 2.88744e-05
15 *4594:CLK *939:40 1.83408e-05
16 *4595:CLK *649:14 0.000154421
17 *485:10 *706:59 1.39431e-05
18 *485:42 *649:70 5.44006e-05
19 *485:42 *706:59 0.000240447
20 *485:51 *649:14 2.33476e-05
21 *485:51 *649:70 5.86328e-05
22 *485:51 *950:8 0.000114074
23 *4392:B1 *4443:CLK 8.96322e-05
24 *4392:B1 *485:12 6.15872e-05
25 *4394:A2 *485:10 0.00010549
26 *4394:A2 *485:12 0.00013419
27 *4397:A *4443:CLK 5.83407e-05
28 *4397:B *4443:CLK 0.000103647
29 *4442:D *4442:CLK 0.000106369
30 *4638:A *485:10 0
31 *4671:A *4595:CLK 2.07484e-05
32 *81:14 *4443:CLK 0.000285634
33 *189:10 *485:51 0
34 *424:10 *4595:CLK 4.32475e-05
35 *424:10 *485:51 3.95578e-05
36 *445:10 *485:10 0.000209662
37 *445:10 *485:12 0.000192261
38 *454:8 *4443:CLK 0
39 *454:8 *485:12 0
*RES
1 *4638:X *485:10 43.8207 
2 *485:10 *485:12 5.77929 
3 *485:12 *4443:CLK 45.83 
4 *485:12 *4442:CLK 43.3857 
5 *485:10 *485:36 21.815 
6 *485:36 *485:42 25.7714 
7 *485:42 *4591:CLK 38 
8 *485:42 *485:51 5.77929 
9 *485:51 *4594:CLK 38.6214 
10 *485:51 *4595:CLK 44.3179 
11 *485:36 *4441:CLK 23 
*END

*D_NET *486 0.00824013
*CONN
*I *4445:CLK I *D sky130_fd_sc_hd__dfrtp_2
*I *4447:CLK I *D sky130_fd_sc_hd__dfrtp_2
*I *4444:CLK I *D sky130_fd_sc_hd__dfstp_2
*I *4485:CLK I *D sky130_fd_sc_hd__dfstp_2
*I *4484:CLK I *D sky130_fd_sc_hd__dfstp_2
*I *4482:CLK I *D sky130_fd_sc_hd__dfstp_2
*I *4639:X O *D sky130_fd_sc_hd__clkbuf_16
*CAP
1 *4445:CLK 0.000489413
2 *4447:CLK 0.000221277
3 *4444:CLK 0
4 *4485:CLK 0.000179307
5 *4484:CLK 4.19934e-05
6 *4482:CLK 0
7 *4639:X 0.000206382
8 *486:60 0.00118388
9 *486:49 0.000950227
10 *486:22 0.000909506
11 *486:12 0.00108996
12 *486:10 0.000511679
13 *486:8 0.000877327
14 *4445:CLK *3886:A 0
15 *4445:CLK *712:8 0
16 *4447:CLK *712:8 0
17 *4447:CLK *712:23 9.67842e-05
18 *486:8 *3891:A1 0
19 *486:8 *1022:59 0.000296035
20 *486:10 *3891:A1 0
21 *486:10 *4727:A 1.05658e-05
22 *486:10 *710:10 0
23 *486:49 *4444:SET_B 2.56078e-05
24 *486:49 *710:26 0.000100733
25 *486:49 *1022:6 0.00025737
26 *486:49 *1022:22 0.000163852
27 *486:60 *1022:22 5.67058e-05
28 *3887:B1 *4445:CLK 0
29 *3887:B1 *4447:CLK 0
30 *4086:A2 *486:22 0.000108713
31 *4087:A2 *486:22 3.46302e-05
32 *36:10 *4445:CLK 0
33 *121:6 *4485:CLK 4.06849e-05
34 *121:10 *486:10 0
35 *121:19 *486:8 0
36 *121:19 *486:10 0
37 *121:32 *486:8 0
38 *125:10 *4445:CLK 0
39 *125:12 *4445:CLK 0
40 *270:23 *486:10 0
41 *270:23 *486:12 0
42 *270:23 *486:22 0
43 *271:43 *486:22 0
44 *271:56 *486:10 0
45 *271:56 *486:12 0
46 *271:56 *486:22 0
47 *277:8 *486:22 0.000245869
48 *449:181 *486:60 5.12254e-05
49 *449:192 *4447:CLK 9.03979e-05
*RES
1 *4639:X *486:8 42.7229 
2 *486:8 *486:10 3.31429 
3 *486:10 *486:12 2.61 
4 *486:12 *486:22 33.0421 
5 *486:22 *4482:CLK 23 
6 *486:12 *4484:CLK 38.6214 
7 *486:10 *4485:CLK 41.48 
8 *486:8 *486:49 24.6736 
9 *486:49 *4444:CLK 23 
10 *486:49 *486:60 22.7886 
11 *486:60 *4447:CLK 42.4121 
12 *486:60 *4445:CLK 46.5136 
*END

*D_NET *487 0.00837807
*CONN
*I *4657:A I *D sky130_fd_sc_hd__clkbuf_4
*I *4481:CLK I *D sky130_fd_sc_hd__dfstp_2
*I *4428:CLK I *D sky130_fd_sc_hd__dfrtp_2
*I *4483:CLK I *D sky130_fd_sc_hd__dfrtp_2
*I *4478:CLK I *D sky130_fd_sc_hd__dfstp_2
*I *4429:CLK I *D sky130_fd_sc_hd__dfrtp_2
*I *4480:CLK I *D sky130_fd_sc_hd__dfrtp_2
*I *4640:X O *D sky130_fd_sc_hd__clkbuf_16
*CAP
1 *4657:A 0.000342257
2 *4481:CLK 0
3 *4428:CLK 0
4 *4483:CLK 0
5 *4478:CLK 0
6 *4429:CLK 0.000148264
7 *4480:CLK 0.000195901
8 *4640:X 0
9 *487:73 0.000518912
10 *487:62 0.00147205
11 *487:33 0.000463178
12 *487:16 0.000794036
13 *487:10 0.000317902
14 *487:8 0.0015865
15 *487:6 0.000256423
16 *4429:CLK *4478:SET_B 0.00023032
17 *4480:CLK *999:12 4.91387e-05
18 *4480:CLK *999:49 6.25829e-05
19 *4657:A *4085:A1_N 0.00024097
20 *487:16 *999:49 0.000215131
21 *487:33 *4478:SET_B 0.000189763
22 *487:33 *999:6 2.64616e-05
23 *487:33 *999:12 5.12254e-05
24 *487:62 *4428:RESET_B 0.000260563
25 *487:62 *985:8 7.5341e-05
26 *487:62 *985:38 1.04148e-05
27 *487:73 *4085:A1_N 5.50049e-05
28 *4077:B1 *487:8 3.56537e-05
29 *4077:B1 *487:10 2.22079e-05
30 *4077:B1 *487:16 9.88442e-05
31 *4077:B1 *487:73 9.20311e-06
32 *4080:A1 *4480:CLK 6.48049e-05
33 *4081:B *4480:CLK 0.000141879
34 *4085:A2_N *4657:A 5.58003e-05
35 *4085:B2 *4657:A 7.59964e-05
36 *89:8 *487:62 0
37 *118:14 *487:73 0
38 *271:19 *487:73 0.000247599
39 *272:12 *4480:CLK 0
40 *272:12 *487:16 0
41 *272:20 *4480:CLK 6.37358e-05
*RES
1 *4640:X *487:6 38 
2 *487:6 *487:8 1.55357 
3 *487:8 *487:10 0.849286 
4 *487:10 *487:16 6.89786 
5 *487:16 *4480:CLK 43.4271 
6 *487:16 *487:33 21.9807 
7 *487:33 *4429:CLK 27.4329 
8 *487:33 *4478:CLK 23 
9 *487:10 *4483:CLK 38 
10 *487:8 *487:62 35.8179 
11 *487:62 *4428:CLK 23 
12 *487:6 *487:73 19.2879 
13 *487:73 *4481:CLK 23 
14 *487:73 *4657:A 30.3121 
*END

*D_NET *488 0.00777723
*CONN
*I *4522:CLK I *D sky130_fd_sc_hd__dfrtp_2
*I *4523:CLK I *D sky130_fd_sc_hd__dfrtp_2
*I *4492:CLK I *D sky130_fd_sc_hd__dfrtp_2
*I *4491:CLK I *D sky130_fd_sc_hd__dfrtp_2
*I *4494:CLK I *D sky130_fd_sc_hd__dfrtp_2
*I *4493:CLK I *D sky130_fd_sc_hd__dfrtp_2
*I *4641:X O *D sky130_fd_sc_hd__clkbuf_16
*CAP
1 *4522:CLK 0
2 *4523:CLK 0.000120225
3 *4492:CLK 6.21689e-05
4 *4491:CLK 0
5 *4494:CLK 0.000133578
6 *4493:CLK 7.08253e-05
7 *4641:X 0.000462972
8 *488:67 0.000349811
9 *488:65 0.00063535
10 *488:40 0.000487854
11 *488:32 0.00129656
12 *488:10 0.000432663
13 *488:6 0.001032
14 *4493:CLK *619:25 5.47927e-05
15 *4494:CLK *4276:B1 0
16 *4494:CLK *619:10 0
17 *4523:CLK *586:18 0.000130212
18 *4523:CLK *877:14 1.02387e-05
19 *488:6 *4492:RESET_B 5.50049e-05
20 *488:6 *675:36 5.50106e-05
21 *488:10 *4276:B1 0
22 *488:10 *4491:RESET_B 0.000188926
23 *488:10 *913:10 0
24 *488:32 *4492:RESET_B 8.40919e-05
25 *488:32 *934:8 4.45734e-07
26 *488:65 *675:36 5.41288e-05
27 *488:67 *3982:B 0.000327903
28 *488:67 *586:18 0.000171906
29 *488:67 *677:14 0.000149341
30 *488:67 *854:8 1.02387e-05
31 *4271:B *4494:CLK 0.000101554
32 *4271:B *488:10 6.07611e-06
33 *195:47 *488:10 0.000184634
34 *196:22 *488:40 0
35 *223:10 *4523:CLK 0.000196549
36 *223:26 *488:67 0
37 *371:14 *4523:CLK 0.000412601
38 *371:14 *488:67 0.00042671
39 *372:10 *488:67 7.28526e-05
40 *457:10 *488:67 0
*RES
1 *4641:X *488:6 24.0979 
2 *488:6 *488:10 20.075 
3 *488:10 *4493:CLK 39.5743 
4 *488:10 *4494:CLK 40.9621 
5 *488:6 *488:32 9.21786 
6 *488:32 *488:40 36.3386 
7 *488:40 *4491:CLK 23 
8 *488:32 *4492:CLK 24.6157 
9 *4641:X *488:65 42.9093 
10 *488:65 *488:67 9.65286 
11 *488:67 *4523:CLK 43.4271 
12 *488:67 *4522:CLK 38 
*END

*D_NET *489 0.00654793
*CONN
*I *4438:CLK I *D sky130_fd_sc_hd__dfrtp_2
*I *4436:CLK I *D sky130_fd_sc_hd__dfrtp_2
*I *4435:CLK I *D sky130_fd_sc_hd__dfrtp_2
*I *4437:CLK I *D sky130_fd_sc_hd__dfrtp_2
*I *4596:CLK I *D sky130_fd_sc_hd__dfrtp_2
*I *4439:CLK I *D sky130_fd_sc_hd__dfrtp_2
*I *4642:X O *D sky130_fd_sc_hd__clkbuf_16
*CAP
1 *4438:CLK 0.000216757
2 *4436:CLK 0.000305379
3 *4435:CLK 0.000224776
4 *4437:CLK 0.000138459
5 *4596:CLK 0.000267504
6 *4439:CLK 0
7 *4642:X 0.000175906
8 *489:55 0.000665621
9 *489:42 0.000406819
10 *489:27 0.000993054
11 *489:21 0.000956435
12 *489:10 0.000322929
13 *4435:CLK *4384:A2 5.50106e-05
14 *4436:CLK *715:89 2.62401e-05
15 *4436:CLK *939:50 0
16 *4437:CLK *4348:A 0
17 *4437:CLK *939:40 0.000267173
18 *4438:CLK *4388:A2 0
19 *4438:CLK *4438:RESET_B 4.08664e-05
20 *4596:CLK *4386:A1 2.30292e-05
21 *4596:CLK *4386:A2 7.50016e-06
22 *4596:CLK *567:10 0.000137651
23 *4596:CLK *651:16 7.43025e-06
24 *489:10 *4438:RESET_B 0
25 *489:21 *4438:RESET_B 0.000225265
26 *489:21 *709:69 0
27 *489:21 *1020:25 0
28 *489:27 *4386:A1 5.8112e-05
29 *489:27 *4438:RESET_B 0.000135338
30 *489:27 *567:10 7.76364e-06
31 *489:27 *651:16 1.27424e-05
32 *489:27 *709:69 0
33 *489:27 *1020:6 1.94693e-05
34 *489:27 *1020:25 0.0001042
35 *489:42 *4386:A1 0.00010403
36 *489:42 *709:69 0
37 *489:42 *709:76 0
38 *489:55 *4386:A1 4.74809e-05
39 *489:55 *715:89 4.68476e-05
40 *489:55 *939:50 0
41 *4384:B1 *4435:CLK 0.000209396
42 *4386:B1 *4596:CLK 3.7122e-06
43 *4437:D *4437:CLK 3.25709e-05
44 *4438:D *4438:CLK 5.47808e-05
45 *75:10 *4436:CLK 0.000111852
46 *78:10 *489:10 3.56537e-05
47 *442:8 *489:10 0.00010018
*RES
1 *4642:X *489:10 41.3557 
2 *489:10 *4439:CLK 38 
3 *489:10 *489:21 18.6664 
4 *489:21 *489:27 23.9486 
5 *489:27 *4596:CLK 43.5514 
6 *489:27 *489:42 2.96214 
7 *489:42 *4437:CLK 41.5007 
8 *489:42 *489:55 2.61 
9 *489:55 *4435:CLK 42.9093 
10 *489:55 *4436:CLK 42.8057 
11 *489:21 *4438:CLK 26.3764 
*END

*D_NET *490 0.00569372
*CONN
*I *4434:CLK I *D sky130_fd_sc_hd__dfrtp_2
*I *4433:CLK I *D sky130_fd_sc_hd__dfrtp_2
*I *4432:CLK I *D sky130_fd_sc_hd__dfrtp_2
*I *4431:CLK I *D sky130_fd_sc_hd__dfrtp_2
*I *4430:CLK I *D sky130_fd_sc_hd__dfrtp_2
*I *4486:CLK I *D sky130_fd_sc_hd__dfrtp_2
*I *4643:X O *D sky130_fd_sc_hd__clkbuf_16
*CAP
1 *4434:CLK 0.000292643
2 *4433:CLK 0.000328267
3 *4432:CLK 4.70812e-05
4 *4431:CLK 0
5 *4430:CLK 0
6 *4486:CLK 0.00048257
7 *4643:X 0.000196331
8 *490:52 0.000757968
9 *490:39 0.000497971
10 *490:30 0.000599118
11 *490:21 0.000420181
12 *490:8 0.000813797
13 *4433:CLK *4434:RESET_B 8.87126e-05
14 *4434:CLK *4378:A1 5.48415e-05
15 *4434:CLK *4766:A 1.59094e-05
16 *4434:CLK *566:10 2.64616e-05
17 *4434:CLK *689:12 0.00021356
18 *4434:CLK *1015:8 0
19 *4486:CLK *3883:A 1.41077e-05
20 *4486:CLK *4486:D 7.53384e-06
21 *4486:CLK *1022:59 0
22 *4486:CLK *1024:74 0
23 *490:21 *1024:74 0
24 *490:30 *651:92 0
25 *490:30 *716:82 0
26 *490:30 *1024:74 0
27 *490:39 *651:92 0
28 *490:39 *716:65 3.98859e-05
29 *490:39 *716:89 9.35752e-05
30 *490:52 *4378:A1 4.67762e-05
31 *490:52 *716:89 1.11121e-05
32 *4093:C *4486:CLK 9.98995e-05
33 *4376:B1 *4432:CLK 0.000109895
34 *69:10 *490:30 3.46181e-05
35 *70:10 *490:39 3.81391e-05
36 *71:14 *4432:CLK 4.26687e-05
37 *121:19 *4486:CLK 3.92407e-05
38 *121:32 *4486:CLK 0.000280856
39 *121:40 *4486:CLK 0
40 *123:10 *4486:CLK 0
41 *434:8 *490:21 0
42 *434:8 *490:30 0
*RES
1 *4643:X *490:8 41.48 
2 *490:8 *4486:CLK 48.5229 
3 *490:8 *490:21 2.61 
4 *490:21 *4430:CLK 38 
5 *490:21 *490:30 5.77929 
6 *490:30 *4431:CLK 38 
7 *490:30 *490:39 6.48357 
8 *490:39 *4432:CLK 39.595 
9 *490:39 *490:52 2.61 
10 *490:52 *4433:CLK 43.3857 
11 *490:52 *4434:CLK 44.0486 
*END

*D_NET *491 0.00727244
*CONN
*I *4418:CLK I *D sky130_fd_sc_hd__dfrtp_2
*I *4423:CLK I *D sky130_fd_sc_hd__dfrtp_2
*I *4419:CLK I *D sky130_fd_sc_hd__dfrtp_2
*I *4422:CLK I *D sky130_fd_sc_hd__dfrtp_2
*I *4530:CLK I *D sky130_fd_sc_hd__dfrtp_2
*I *4524:CLK I *D sky130_fd_sc_hd__dfrtp_2
*I *4644:X O *D sky130_fd_sc_hd__clkbuf_16
*CAP
1 *4418:CLK 4.39962e-05
2 *4423:CLK 0.000152417
3 *4419:CLK 0
4 *4422:CLK 9.37145e-05
5 *4530:CLK 0.000471302
6 *4524:CLK 0.000348817
7 *4644:X 0.000591749
8 *491:51 0.000344909
9 *491:18 0.00127459
10 *491:16 0.000699865
11 *491:14 0.000918057
12 *491:6 0.00120963
13 *4423:CLK *4418:RESET_B 0
14 *4524:CLK *4523:RESET_B 4.6318e-06
15 *4524:CLK *876:16 0.000111852
16 *4524:CLK *876:55 0
17 *4530:CLK *4522:RESET_B 0.000367698
18 *4530:CLK *876:16 3.44502e-05
19 *491:6 *4448:CLK 6.69899e-05
20 *491:14 *4418:RESET_B 0.000187701
21 *491:51 *4418:RESET_B 0
22 *4418:D *491:6 3.75146e-05
23 *58:10 *4423:CLK 0
24 *223:26 *491:18 0
25 *449:284 *491:18 0
26 *450:10 *4524:CLK 0
27 *450:10 *491:18 0
28 *457:10 *491:16 0
29 *457:10 *491:18 0
30 *457:25 *4418:CLK 3.81946e-05
31 *457:25 *491:6 3.53115e-05
32 *457:25 *491:14 0.000239047
33 *457:25 *491:16 0
*RES
1 *4644:X *491:6 31.2443 
2 *491:6 *491:14 24.8393 
3 *491:14 *491:16 2.61 
4 *491:16 *491:18 8.24429 
5 *491:18 *4524:CLK 44.1107 
6 *491:18 *4530:CLK 48.6264 
7 *491:16 *4422:CLK 39.5743 
8 *491:14 *491:51 3.31429 
9 *491:51 *4419:CLK 38 
10 *491:51 *4423:CLK 40.9621 
11 *491:6 *4418:CLK 24.6157 
*END

*D_NET *492 0.00592605
*CONN
*I *4526:CLK I *D sky130_fd_sc_hd__dfrtp_2
*I *4525:CLK I *D sky130_fd_sc_hd__dfrtp_2
*I *4509:CLK I *D sky130_fd_sc_hd__dfrtp_2
*I *4510:CLK I *D sky130_fd_sc_hd__dfrtp_2
*I *4511:CLK I *D sky130_fd_sc_hd__dfrtp_2
*I *4512:CLK I *D sky130_fd_sc_hd__dfrtp_2
*I *4645:X O *D sky130_fd_sc_hd__clkbuf_16
*CAP
1 *4526:CLK 0.000344957
2 *4525:CLK 4.24211e-05
3 *4509:CLK 0.000121854
4 *4510:CLK 0
5 *4511:CLK 7.22115e-05
6 *4512:CLK 0.000166436
7 *4645:X 0.000215498
8 *492:58 0.000536139
9 *492:18 0.000477748
10 *492:16 0.000372803
11 *492:10 0.000495691
12 *492:8 0.000604391
13 *4511:CLK *4213:A1 2.02872e-05
14 *4511:CLK *4213:B1 5.58003e-05
15 *4511:CLK *4511:D 9.79925e-05
16 *4512:CLK *4216:B1 0.000140884
17 *4512:CLK *662:16 2.53488e-05
18 *4526:CLK *597:20 0
19 *4526:CLK *608:28 0.000235459
20 *4526:CLK *663:65 0
21 *492:8 *4252:B1 2.93747e-05
22 *492:8 *597:20 5.50106e-05
23 *492:8 *597:31 5.67058e-05
24 *492:10 *4252:B1 6.67764e-05
25 *492:10 *597:31 0
26 *492:10 *662:14 0.000129412
27 *492:16 *662:14 0.000226935
28 *492:16 *662:53 2.77955e-05
29 *492:16 *850:8 7.45175e-05
30 *492:18 *662:14 0.000264539
31 *492:18 *662:16 0.000376662
32 *492:18 *662:53 0.000249283
33 *492:58 *857:8 0
34 *4215:A *4512:CLK 0.000138593
35 *216:8 *4512:CLK 3.67392e-05
36 *216:8 *492:18 0.000156141
37 *353:12 *492:18 1.16455e-05
38 *378:10 *4526:CLK 0
39 *378:10 *492:10 0
40 *378:10 *492:58 0
*RES
1 *4645:X *492:8 41.9564 
2 *492:8 *492:10 5.77929 
3 *492:10 *492:16 4.08071 
4 *492:16 *492:18 8.59643 
5 *492:18 *4512:CLK 41.8529 
6 *492:18 *4511:CLK 39.5743 
7 *492:16 *4510:CLK 38 
8 *492:10 *4509:CLK 40.0507 
9 *492:8 *492:58 2.61 
10 *492:58 *4525:CLK 38.6214 
11 *492:58 *4526:CLK 44.9186 
*END

*D_NET *493 0.00474207
*CONN
*I *4535:CLK I *D sky130_fd_sc_hd__dfrtp_2
*I *4536:CLK I *D sky130_fd_sc_hd__dfrtp_2
*I *4537:CLK I *D sky130_fd_sc_hd__dfrtp_2
*I *4539:CLK I *D sky130_fd_sc_hd__dfrtp_2
*I *4538:CLK I *D sky130_fd_sc_hd__dfrtp_2
*I *4540:CLK I *D sky130_fd_sc_hd__dfrtp_2
*I *4646:X O *D sky130_fd_sc_hd__clkbuf_16
*CAP
1 *4535:CLK 0.000203998
2 *4536:CLK 7.70667e-05
3 *4537:CLK 4.56634e-05
4 *4539:CLK 0
5 *4538:CLK 0
6 *4540:CLK 0.000366506
7 *4646:X 9.82853e-05
8 *493:16 0.000579141
9 *493:14 0.000445491
10 *493:12 0.000529696
11 *493:10 0.00043282
12 *493:8 0.00040686
13 *4535:CLK *4165:B1 2.93747e-05
14 *4535:CLK *679:83 9.67842e-05
15 *4535:CLK *843:52 0.000134667
16 *4537:CLK *4537:D 7.44354e-05
17 *4537:CLK *542:43 0.000139357
18 *4540:CLK *4176:B1 0.000107788
19 *493:10 *843:52 8.26569e-05
20 *493:12 *4168:A1 0
21 *493:12 *652:10 8.16459e-05
22 *493:12 *823:8 4.59027e-05
23 *493:12 *843:52 0.000108319
24 *493:12 *844:18 0
25 *493:14 *4168:A1 0
26 *493:14 *542:45 0
27 *493:14 *652:10 0.000218686
28 *493:14 *825:8 2.70366e-05
29 *493:16 *4176:B1 3.13857e-05
30 *493:16 *652:10 0.000116463
31 *493:16 *652:12 5.90941e-05
32 *493:16 *825:8 0.00018884
33 *4165:A2 *4535:CLK 1.41077e-05
34 *326:20 *493:12 0
*RES
1 *4646:X *493:8 39.0979 
2 *493:8 *493:10 2.25786 
3 *493:10 *493:12 5.77929 
4 *493:12 *493:14 5.77929 
5 *493:14 *493:16 5.77929 
6 *493:16 *4540:CLK 45.0014 
7 *493:16 *4538:CLK 38 
8 *493:14 *4539:CLK 38 
9 *493:12 *4537:CLK 39.5743 
10 *493:10 *4536:CLK 39.0979 
11 *493:8 *4535:CLK 42.7643 
*END

*D_NET *494 0.0097966
*CONN
*I *4528:CLK I *D sky130_fd_sc_hd__dfrtp_2
*I *4527:CLK I *D sky130_fd_sc_hd__dfrtp_2
*I *4470:CLK I *D sky130_fd_sc_hd__dfrtp_2
*I *4469:CLK I *D sky130_fd_sc_hd__dfrtp_2
*I *4450:CLK I *D sky130_fd_sc_hd__dfrtp_2
*I *4448:CLK I *D sky130_fd_sc_hd__dfstp_2
*I *4647:X O *D sky130_fd_sc_hd__clkbuf_16
*CAP
1 *4528:CLK 0
2 *4527:CLK 0
3 *4470:CLK 8.56557e-05
4 *4469:CLK 0.000122948
5 *4450:CLK 0
6 *4448:CLK 0.000188113
7 *4647:X 1.53034e-05
8 *494:66 0.000436
9 *494:60 0.000868628
10 *494:32 0.000669246
11 *494:23 0.000650126
12 *494:12 0.000624988
13 *494:6 0.000695323
14 *4470:CLK *756:10 4.23714e-05
15 *494:6 *4012:A 4.2573e-05
16 *494:12 *4012:A 9.84794e-05
17 *494:12 *738:22 0.000216721
18 *494:23 *738:22 0.000141888
19 *494:32 *3954:B 5.86432e-05
20 *494:32 *4450:D 5.3365e-05
21 *494:32 *755:10 0.000382583
22 *494:32 *756:10 7.66085e-05
23 *494:60 *4260:B1 4.07715e-05
24 *494:60 *608:14 0.000191649
25 *494:60 *608:57 0.000256935
26 *494:60 *884:10 4.08537e-05
27 *494:66 *4260:B1 1.47563e-05
28 *494:66 *4527:D 2.64616e-05
29 *494:66 *597:10 0.000136486
30 *494:66 *608:14 0.000127452
31 *494:66 *608:16 0.00038535
32 *494:66 *608:28 0.000215801
33 *494:66 *663:57 0
34 *494:66 *879:25 4.56219e-05
35 *3911:A *4469:CLK 0
36 *4262:B *494:12 0
37 *4262:B *494:60 7.10099e-05
38 *86:21 *4469:CLK 0.000181131
39 *92:14 *494:12 0.000271392
40 *92:14 *494:60 0.000231502
41 *107:45 *494:12 9.27814e-05
42 *107:45 *494:23 0.000335851
43 *111:18 *4448:CLK 0.000180812
44 *111:18 *494:23 2.19436e-05
45 *111:26 *494:23 0.000111148
46 *111:26 *494:32 0.000248188
47 *138:25 *494:23 0
48 *138:25 *494:32 0
49 *147:12 *4470:CLK 7.69935e-05
50 *147:12 *494:32 0.000295164
51 *148:12 *4470:CLK 0
52 *148:12 *494:32 0
53 *224:49 *494:66 9.4713e-05
54 *225:34 *494:66 0.000404066
55 *226:8 *494:66 7.28526e-05
56 *227:10 *494:60 0
57 *381:10 *494:66 7.75329e-06
58 *449:266 *494:6 2.93845e-05
59 *449:266 *494:12 5.12254e-05
60 *491:6 *4448:CLK 6.69899e-05
*RES
1 *4647:X *494:6 23.6214 
2 *494:6 *494:12 22.2293 
3 *494:12 *4448:CLK 42.9093 
4 *494:12 *494:23 5.77929 
5 *494:23 *4450:CLK 38 
6 *494:23 *494:32 14.5829 
7 *494:32 *4469:CLK 40.5479 
8 *494:32 *4470:CLK 40.2579 
9 *494:6 *494:60 27.18 
10 *494:60 *494:66 28.1121 
11 *494:66 *4527:CLK 23 
12 *494:60 *4528:CLK 38 
*END

*D_NET *495 0.0102588
*CONN
*I *4406:CLK I *D sky130_fd_sc_hd__dfrtp_2
*I *4449:CLK I *D sky130_fd_sc_hd__dfrtp_2
*I *4425:CLK I *D sky130_fd_sc_hd__dfrtp_2
*I *4409:CLK I *D sky130_fd_sc_hd__dfrtp_2
*I *4529:CLK I *D sky130_fd_sc_hd__dfrtp_2
*I *4471:CLK I *D sky130_fd_sc_hd__dfrtp_2
*I *4652:A I *D sky130_fd_sc_hd__clkbuf_4
*I *4648:X O *D sky130_fd_sc_hd__clkbuf_16
*CAP
1 *4406:CLK 0
2 *4449:CLK 0
3 *4425:CLK 0
4 *4409:CLK 0.000154546
5 *4529:CLK 0.000712614
6 *4471:CLK 0.000246727
7 *4652:A 2.44744e-05
8 *4648:X 0
9 *495:84 0.000432908
10 *495:71 0.000570638
11 *495:44 0.00086716
12 *495:33 0.000530483
13 *495:23 0.000462504
14 *495:15 0.000749386
15 *495:6 0.000512593
16 *495:4 0.000921027
17 *4409:CLK *3870:A2 2.18813e-05
18 *4409:CLK *518:60 5.03898e-05
19 *4409:CLK *669:16 2.64616e-05
20 *4409:CLK *747:78 0.000336473
21 *4471:CLK *4360:A1 0.000144203
22 *4471:CLK *669:16 0.000138708
23 *4471:CLK *747:55 3.47781e-05
24 *4471:CLK *753:8 0
25 *4529:CLK *4528:RESET_B 2.45549e-06
26 *4529:CLK *669:16 6.17437e-06
27 *4529:CLK *747:78 5.3304e-05
28 *4652:A *669:50 9.84794e-05
29 *495:6 *669:50 0.000648929
30 *495:23 *4425:RESET_B 9.84794e-05
31 *495:33 *3851:A2 5.94125e-05
32 *495:33 *4425:RESET_B 2.18506e-05
33 *495:33 *669:16 6.25829e-05
34 *495:33 *747:55 0.000181943
35 *495:71 *518:46 0
36 *495:71 *519:65 0.000138718
37 *495:71 *747:109 0.000188926
38 *495:71 *751:10 0.000111158
39 *495:84 *3915:A0 0
40 *495:84 *3930:A2 0
41 *495:84 *501:14 0
42 *495:84 *518:14 0
43 *495:84 *519:38 0.000167443
44 *495:84 *644:8 0
45 *495:84 *752:19 0
46 *3869:B *495:23 0
47 *3869:B *495:33 3.70187e-05
48 *3870:B1 *4409:CLK 1.5769e-05
49 *3870:B1 *4529:CLK 2.79543e-05
50 *3870:B1 *495:33 0.000173635
51 *4409:D *4409:CLK 1.94812e-05
52 *4648:A *4652:A 5.41288e-05
53 *4648:A *495:6 8.85483e-05
54 *64:16 *495:33 0.000199016
55 *96:8 *495:71 0.000191649
56 *98:14 *495:71 0.00021039
57 *98:26 *495:71 0
58 *111:10 *495:71 5.83189e-05
59 *111:61 *495:71 7.06124e-05
60 *111:99 *495:71 4.06408e-05
61 *160:27 *495:71 4.99753e-06
62 *167:18 *495:23 7.56417e-05
63 *167:18 *495:33 0
64 *167:18 *495:71 0.000134279
65 *316:8 *4471:CLK 0
66 *427:10 *4471:CLK 0
67 *449:241 *4529:CLK 7.88828e-05
*RES
1 *4648:X *495:4 23 
2 *495:4 *495:6 10.15 
3 *495:6 *4652:A 24.0979 
4 *495:6 *495:15 15 
5 *495:15 *495:23 18.8529 
6 *495:23 *495:33 22.8714 
7 *495:33 *4471:CLK 43.075 
8 *495:33 *495:44 15 
9 *495:44 *4529:CLK 35.0764 
10 *495:44 *4409:CLK 27.4536 
11 *495:23 *4425:CLK 23 
12 *495:15 *495:71 29.2307 
13 *495:71 *4449:CLK 23 
14 *495:4 *495:84 37.83 
15 *495:84 *4406:CLK 23 
*END

*D_NET *496 0.00939459
*CONN
*I *4473:CLK I *D sky130_fd_sc_hd__dfrtp_2
*I *4472:CLK I *D sky130_fd_sc_hd__dfrtp_2
*I *4499:CLK I *D sky130_fd_sc_hd__dfrtp_2
*I *4498:CLK I *D sky130_fd_sc_hd__dfrtp_2
*I *4497:CLK I *D sky130_fd_sc_hd__dfrtp_2
*I *4496:CLK I *D sky130_fd_sc_hd__dfrtp_2
*I *4495:CLK I *D sky130_fd_sc_hd__dfrtp_2
*I *4649:X O *D sky130_fd_sc_hd__clkbuf_16
*CAP
1 *4473:CLK 0
2 *4472:CLK 0.000217143
3 *4499:CLK 0
4 *4498:CLK 2.30556e-05
5 *4497:CLK 0
6 *4496:CLK 0.000255799
7 *4495:CLK 9.55372e-05
8 *4649:X 0.000553864
9 *496:88 0.000644665
10 *496:72 0.000321238
11 *496:54 0.000243905
12 *496:46 0.000312541
13 *496:24 0.000656673
14 *496:22 0.000982192
15 *496:8 0.00107885
16 *4472:CLK *714:16 0.000406288
17 *4495:CLK *611:10 0.000189157
18 *4495:CLK *642:65 6.05451e-05
19 *4495:CLK *916:8 8.89816e-05
20 *4496:CLK *4496:D 0.000110065
21 *496:22 *896:8 5.93746e-05
22 *496:22 *918:35 8.50457e-05
23 *496:24 *611:10 0.000127585
24 *496:24 *642:65 1.35751e-05
25 *496:24 *916:8 0.000164019
26 *496:54 *4283:A 0.000102389
27 *496:54 *633:10 0.000169385
28 *496:72 *615:10 6.15434e-05
29 *496:72 *683:36 0.000557619
30 *496:72 *898:10 1.03972e-05
31 *496:72 *920:44 8.57485e-05
32 *496:88 *714:16 0.000169665
33 *4284:A1 *496:22 2.19764e-05
34 *4284:A2 *496:22 0.000139113
35 *52:8 *4472:CLK 0
36 *203:21 *496:24 0.000167123
37 *203:38 *496:22 3.43144e-05
38 *203:38 *496:24 0.000292875
39 *203:38 *496:46 9.64943e-05
40 *203:38 *496:54 5.56356e-05
41 *204:16 *496:8 9.41704e-05
42 *204:16 *496:22 9.41704e-05
43 *205:10 *496:72 1.26815e-05
44 *394:10 *496:22 0.000151463
45 *394:10 *496:24 0.000116391
46 *394:10 *496:46 8.68049e-06
47 *394:10 *496:54 2.25988e-05
48 *395:8 *496:72 0.000240056
*RES
1 *4649:X *496:8 25.0714 
2 *496:8 *496:22 26.165 
3 *496:22 *496:24 8.94857 
4 *496:24 *4495:CLK 40.9621 
5 *496:24 *4496:CLK 42.9093 
6 *496:22 *496:46 16.0979 
7 *496:46 *496:54 35.2614 
8 *496:54 *4497:CLK 23 
9 *496:46 *4498:CLK 23.4971 
10 *496:8 *496:72 38.9486 
11 *496:72 *4499:CLK 23 
12 *4649:X *496:88 44.6907 
13 *496:88 *4472:CLK 43.4271 
14 *496:88 *4473:CLK 38 
*END

*D_NET *497 0.00792265
*CONN
*I *4417:CLK I *D sky130_fd_sc_hd__dfrtp_2
*I *4421:CLK I *D sky130_fd_sc_hd__dfrtp_2
*I *4464:CLK I *D sky130_fd_sc_hd__dfrtp_2
*I *4468:CLK I *D sky130_fd_sc_hd__dfrtp_2
*I *4467:CLK I *D sky130_fd_sc_hd__dfrtp_2
*I *4463:CLK I *D sky130_fd_sc_hd__dfrtp_2
*I *4653:A I *D sky130_fd_sc_hd__clkbuf_4
*I *4650:X O *D sky130_fd_sc_hd__clkbuf_16
*CAP
1 *4417:CLK 0
2 *4421:CLK 0.00023682
3 *4464:CLK 0
4 *4468:CLK 0.000242949
5 *4467:CLK 0.000225584
6 *4463:CLK 0
7 *4653:A 3.64733e-05
8 *4650:X 0.000320666
9 *497:77 0.000752791
10 *497:44 0.000570313
11 *497:35 0.000392029
12 *497:29 0.000587549
13 *497:27 0.00129866
14 *497:10 0.000842531
15 *4421:CLK *4417:RESET_B 0
16 *4421:CLK *642:28 0.000144168
17 *4468:CLK *685:62 1.24376e-05
18 *4468:CLK *714:16 0.000119266
19 *4653:A *672:55 3.13857e-05
20 *497:10 *672:55 4.41821e-06
21 *497:10 *672:89 4.60997e-05
22 *497:27 *515:14 0.000100477
23 *497:35 *714:16 0.00011429
24 *497:44 *714:16 8.69631e-05
25 *497:77 *3898:C 9.00439e-05
26 *497:77 *3899:A 0
27 *497:77 *4417:RESET_B 0
28 *497:77 *4472:RESET_B 0.000424572
29 *497:77 *4746:A 4.41619e-05
30 *497:77 *4747:A 0
31 *497:77 *503:10 0
32 *497:77 *642:28 9.02129e-05
33 *497:77 *684:46 6.437e-05
34 *497:77 *684:48 0.000408193
35 *3908:A *497:27 6.4554e-05
36 *4054:A1 *4467:CLK 0.000100486
37 *4467:D *4467:CLK 8.09331e-05
38 *39:8 *4468:CLK 4.69613e-05
39 *44:10 *4467:CLK 0.000100477
40 *56:10 *497:77 0
41 *60:10 *4421:CLK 1.01436e-05
42 *142:14 *497:10 1.0092e-05
43 *261:41 *497:27 0.000132842
44 *261:41 *497:29 8.87345e-05
*RES
1 *4650:X *497:10 42.5571 
2 *497:10 *4653:A 38.8493 
3 *497:10 *497:27 24.3629 
4 *497:27 *497:29 5.38571 
5 *497:29 *497:35 21.0486 
6 *497:35 *4463:CLK 38 
7 *497:35 *497:44 2.61 
8 *497:44 *4467:CLK 43.075 
9 *497:44 *4468:CLK 43.365 
10 *497:29 *4464:CLK 23 
11 *497:27 *497:77 29.2307 
12 *497:77 *4421:CLK 43.2614 
13 *497:77 *4417:CLK 38 
*END

*D_NET *498 0.00795151
*CONN
*I *4744:A I *D sky130_fd_sc_hd__dlygate4sd3_1
*I *4349:B2 I *D sky130_fd_sc_hd__o32a_2
*I *4415:Q O *D sky130_fd_sc_hd__dfrtp_2
*CAP
1 *4744:A 0
2 *4349:B2 2.84054e-05
3 *4415:Q 0.000636161
4 *498:37 0.000219134
5 *498:20 0.00205163
6 *498:14 0.00257547
7 *498:10 0.000969274
8 *4349:B2 *4068:B 1.21972e-05
9 *4349:B2 *671:55 6.17437e-06
10 *498:10 *4415:RESET_B 9.42865e-05
11 *498:10 *713:12 0.000299178
12 *498:14 *4361:S 0.000164528
13 *498:14 *541:42 6.62982e-06
14 *498:20 *3910:C 9.94675e-05
15 *498:20 *3910:D 1.59094e-05
16 *498:20 *4361:A0 4.94192e-05
17 *498:20 *4361:S 0.000243237
18 *498:20 *671:55 0.000110922
19 *498:20 *732:10 6.48142e-05
20 *498:37 *4361:A0 8.71382e-05
21 *498:37 *4403:RESET_B 0
22 *498:37 *528:57 4.83192e-05
23 *4068:C *4349:B2 2.93845e-05
24 *111:99 *498:20 1.01436e-05
25 *165:6 *498:37 2.95526e-05
26 *261:69 *498:20 1.17049e-05
27 *428:8 *498:20 1.90919e-05
28 *482:8 *498:20 6.93345e-05
*RES
1 *4415:Q *498:10 47.8807 
2 *498:10 *498:14 19.4329 
3 *498:14 *498:20 42.6536 
4 *498:20 *4349:B2 38.6214 
5 *498:14 *498:37 34.2879 
6 *498:37 *4744:A 23 
*END

*D_NET *499 0.00389743
*CONN
*I *4751:A I *D sky130_fd_sc_hd__dlygate4sd3_1
*I *4353:B2 I *D sky130_fd_sc_hd__o32a_2
*I *4407:Q O *D sky130_fd_sc_hd__dfrtp_2
*CAP
1 *4751:A 0
2 *4353:B2 0
3 *4407:Q 0
4 *499:29 0.000653413
5 *499:14 0.000737736
6 *499:4 0.00139115
7 *499:14 *560:10 0.000313255
8 *499:14 *668:10 0.000113262
9 *499:29 *4072:A1 7.53384e-06
10 *4410:CLK *499:29 0.000398069
11 *88:24 *499:29 1.22822e-05
12 *111:99 *499:14 8.51432e-05
13 *264:8 *499:14 0.000169674
14 *449:13 *499:29 0
15 *482:27 *499:29 1.59094e-05
*RES
1 *4407:Q *499:4 23 
2 *499:4 *499:14 44.8107 
3 *499:14 *4353:B2 23 
4 *499:4 *499:29 40.6057 
5 *499:29 *4751:A 23 
*END

*D_NET *500 0.00513887
*CONN
*I *3944:B1 I *D sky130_fd_sc_hd__a21o_2
*I *3915:A1 I *D sky130_fd_sc_hd__mux2_1
*I *4799:A I *D sky130_fd_sc_hd__dlygate4sd3_1
*I *4409:Q O *D sky130_fd_sc_hd__dfrtp_2
*CAP
1 *3944:B1 0
2 *3915:A1 0.00108423
3 *4799:A 4.93272e-05
4 *4409:Q 0.000449583
5 *500:47 0.000676081
6 *500:10 0.000907059
7 *3915:A1 *3850:A_N 2.18506e-05
8 *3915:A1 *3915:A0 5.50049e-05
9 *3915:A1 *3915:S 5.3304e-05
10 *3915:A1 *4409:RESET_B 0.000152943
11 *3915:A1 *571:8 1.01436e-05
12 *3915:A1 *669:46 0.000404936
13 *3915:A1 *669:76 0.000154138
14 *3915:A1 *669:82 6.52836e-05
15 *4799:A *3851:A1 2.02648e-05
16 *500:10 *4409:RESET_B 0.000187504
17 *500:10 *571:8 0.000136486
18 *500:47 *3850:A_N 5.3304e-05
19 *500:47 *3915:A0 0.000288134
20 *500:47 *3944:A1 6.39632e-05
21 *500:47 *4836:A 1.21972e-05
22 *3933:A2 *3915:A1 1.12487e-05
23 *107:92 *3915:A1 0
24 *107:111 *500:10 0.000188724
25 *162:16 *3915:A1 0
26 *169:10 *500:47 5.50049e-05
27 *449:226 *4799:A 3.81572e-05
*RES
1 *4409:Q *500:10 45.7679 
2 *500:10 *4799:A 39.2636 
3 *500:10 *3915:A1 48.4607 
4 *3915:A1 *500:47 33.0464 
5 *500:47 *3944:B1 23 
*END

*D_NET *501 0.00247508
*CONN
*I *3915:A0 I *D sky130_fd_sc_hd__mux2_1
*I *4772:A I *D sky130_fd_sc_hd__dlygate4sd3_1
*I *3933:B1 I *D sky130_fd_sc_hd__a21o_2
*I *4401:Q O *D sky130_fd_sc_hd__dfrtp_2
*CAP
1 *3915:A0 0.000304385
2 *4772:A 0.000113531
3 *3933:B1 3.34522e-05
4 *4401:Q 9.82853e-05
5 *501:14 0.0003379
6 *501:8 0.000593587
7 *3915:A0 *3850:A_N 9.58714e-05
8 *3915:A0 *3915:S 2.02872e-05
9 *3915:A0 *4836:A 9.84794e-05
10 *3915:A0 *518:14 3.47781e-05
11 *3915:A0 *519:38 0.000112697
12 *501:14 *519:26 0
13 *501:14 *519:38 0
14 *3915:A1 *3915:A0 5.50049e-05
15 *163:8 *4772:A 9.84851e-05
16 *163:14 *3915:A0 6.32688e-05
17 *163:14 *501:14 0.000126936
18 *495:84 *3915:A0 0
19 *495:84 *501:14 0
20 *500:47 *3915:A0 0.000288134
*RES
1 *4401:Q *501:8 39.0979 
2 *501:8 *501:14 19.2879 
3 *501:14 *3933:B1 23.6214 
4 *501:14 *4772:A 25.5271 
5 *501:8 *3915:A0 47.0729 
*END

*D_NET *502 0.00195807
*CONN
*I *4773:A I *D sky130_fd_sc_hd__dlygate4sd3_1
*I *3897:A1 I *D sky130_fd_sc_hd__o21a_2
*I *4461:Q O *D sky130_fd_sc_hd__dfrtp_2
*CAP
1 *4773:A 0.00027238
2 *3897:A1 0.000472407
3 *4461:Q 0
4 *502:6 0.000744787
5 *3897:A1 *541:10 0.000323335
6 *3897:A1 *668:23 0.000145163
*RES
1 *4461:Q *502:6 38 
2 *502:6 *3897:A1 49.4136 
3 *502:6 *4773:A 43.2407 
*END

*D_NET *503 0.00142229
*CONN
*I *4747:A I *D sky130_fd_sc_hd__dlygate4sd3_1
*I *3898:B I *D sky130_fd_sc_hd__or3_2
*I *4472:Q O *D sky130_fd_sc_hd__dfrtp_2
*CAP
1 *4747:A 4.52391e-05
2 *3898:B 0.000332066
3 *4472:Q 0.000173867
4 *503:10 0.000551172
5 *3898:B *3898:A 0.000131855
6 *3898:B *545:8 0.00018282
7 *56:10 *503:10 5.27215e-06
8 *497:77 *4747:A 0
9 *497:77 *503:10 0
*RES
1 *4472:Q *503:10 40.2993 
2 *503:10 *3898:B 42.9093 
3 *503:10 *4747:A 38.8493 
*END

*D_NET *504 0.00172625
*CONN
*I *4746:A I *D sky130_fd_sc_hd__dlygate4sd3_1
*I *3898:C I *D sky130_fd_sc_hd__or3_2
*I *4473:Q O *D sky130_fd_sc_hd__dfrtp_2
*CAP
1 *4746:A 4.93265e-05
2 *3898:C 0.00020965
3 *4473:Q 0
4 *504:6 0.000258977
5 *3898:C *3898:A 0.000353209
6 *133:10 *3898:C 0.000225265
7 *133:10 *4746:A 0.00014411
8 *266:10 *3898:C 0.000351508
9 *497:77 *3898:C 9.00439e-05
10 *497:77 *4746:A 4.41619e-05
*RES
1 *4473:Q *504:6 38 
2 *504:6 *3898:C 45.6229 
3 *504:6 *4746:A 39.9057 
*END

*D_NET *505 0.00305774
*CONN
*I *4738:A I *D sky130_fd_sc_hd__dlygate4sd3_1
*I *3901:B I *D sky130_fd_sc_hd__or3_2
*I *4457:Q O *D sky130_fd_sc_hd__dfrtp_2
*CAP
1 *4738:A 4.96639e-05
2 *3901:B 0.000461228
3 *4457:Q 0.000330588
4 *505:28 0.000246654
5 *505:8 0.000594826
6 *3901:B *4064:A2 0.000187914
7 *3901:B *668:31 1.61385e-05
8 *4064:A3 *3901:B 5.74176e-05
9 *50:14 *3901:B 0.000220592
10 *50:14 *505:8 0.000290917
11 *50:14 *505:28 0.000141038
12 *86:71 *505:28 5.58003e-05
13 *86:77 *505:8 2.14486e-05
14 *86:77 *505:28 4.41821e-06
15 *132:12 *505:8 0.000165394
16 *137:14 *505:28 9.66339e-05
17 *259:38 *505:28 6.25038e-05
18 *449:57 *4738:A 5.45644e-05
*RES
1 *4457:Q *505:8 42.0186 
2 *505:8 *3901:B 44.3386 
3 *4457:Q *505:28 43.3443 
4 *505:28 *4738:A 39.0979 
*END

*D_NET *506 0.0019242
*CONN
*I *4848:A I *D sky130_fd_sc_hd__dlygate4sd3_1
*I *3901:C I *D sky130_fd_sc_hd__or3_2
*I *4458:Q O *D sky130_fd_sc_hd__dfrtp_2
*CAP
1 *4848:A 8.71316e-05
2 *3901:C 0.000396402
3 *4458:Q 0.000126484
4 *506:8 0.000610017
5 *3901:C *666:58 4.41821e-06
6 *3901:C *668:52 6.68282e-05
7 *3901:C *672:71 0.000166233
8 *4848:A *668:52 0.000136678
9 *4848:A *672:106 0.000196165
10 *506:8 *672:106 3.32626e-05
11 *49:10 *3901:C 3.6608e-05
12 *49:10 *4848:A 3.42043e-05
13 *87:62 *3901:C 2.97697e-05
*RES
1 *4458:Q *506:8 39.5743 
2 *506:8 *3901:C 45.8921 
3 *506:8 *4848:A 41.6664 
*END

*D_NET *507 0.00270155
*CONN
*I *4759:A I *D sky130_fd_sc_hd__dlygate4sd3_1
*I *3893:A2 I *D sky130_fd_sc_hd__o311a_2
*I *4459:Q O *D sky130_fd_sc_hd__dfrtp_2
*CAP
1 *4759:A 0.000258964
2 *3893:A2 0.000318556
3 *4459:Q 0
4 *507:6 0.00057752
5 *3893:A2 *3893:C1 9.51377e-05
6 *3893:A2 *508:12 0.000657235
7 *4759:A *4753:A 5.94107e-05
8 *4759:A *508:12 0.00021898
9 *4056:B *4759:A 9.91548e-05
10 *4623:A *4759:A 0.000141347
11 *131:41 *4759:A 9.28078e-06
12 *264:8 *3893:A2 4.41821e-06
13 *264:23 *3893:A2 4.46184e-05
14 *264:23 *4759:A 0.000216926
*RES
1 *4459:Q *507:6 38 
2 *507:6 *3893:A2 46.5964 
3 *507:6 *4759:A 46.8243 
*END

*D_NET *508 0.00279146
*CONN
*I *4753:A I *D sky130_fd_sc_hd__dlygate4sd3_1
*I *3893:A3 I *D sky130_fd_sc_hd__o311a_2
*I *4460:Q O *D sky130_fd_sc_hd__dfrtp_2
*CAP
1 *4753:A 0.000214058
2 *3893:A3 0
3 *4460:Q 0
4 *508:12 0.000446411
5 *508:6 0.000660469
6 *4753:A *714:63 2.93845e-05
7 *3893:A2 *508:12 0.000657235
8 *4055:B *4753:A 0.000120644
9 *4759:A *4753:A 5.94107e-05
10 *4759:A *508:12 0.00021898
11 *131:41 *4753:A 6.71372e-05
12 *261:69 *4753:A 4.53474e-05
13 *261:69 *508:12 0.000266674
14 *264:8 *508:12 5.71002e-06
*RES
1 *4460:Q *508:6 38 
2 *508:6 *508:12 27.5736 
3 *508:12 *3893:A3 23 
4 *508:6 *4753:A 43.3443 
*END

*D_NET *509 0.00207724
*CONN
*I *3842:A I *D sky130_fd_sc_hd__inv_2
*I *3897:A2 I *D sky130_fd_sc_hd__o21a_2
*I *4462:Q O *D sky130_fd_sc_hd__dfrtp_2
*CAP
1 *3842:A 0
2 *3897:A2 0.000133944
3 *4462:Q 0.000485139
4 *509:10 0.000619082
5 *3897:A2 *541:10 0.000168524
6 *3897:A2 *541:23 3.90213e-05
7 *3897:A2 *668:23 5.58003e-05
8 *509:10 *541:23 0.000393065
9 *470:18 *509:10 0.000182664
*RES
1 *4462:Q *509:10 48.3364 
2 *509:10 *3897:A2 41.2314 
3 *509:10 *3842:A 38 
*END

*D_NET *510 0.00274266
*CONN
*I *4843:A I *D sky130_fd_sc_hd__dlygate4sd3_1
*I *3899:A I *D sky130_fd_sc_hd__or3b_2
*I *4463:Q O *D sky130_fd_sc_hd__dfrtp_2
*CAP
1 *4843:A 0.000191402
2 *3899:A 0.000248167
3 *4463:Q 8.43091e-05
4 *510:8 0.000523878
5 *3899:A *3899:B 0.000429983
6 *3899:A *511:25 9.88765e-05
7 *510:8 *511:25 0.00019288
8 *4613:A *4843:A 5.82654e-05
9 *4650:A *4843:A 2.95423e-05
10 *133:10 *3899:A 6.63698e-05
11 *134:8 *3899:A 2.84809e-05
12 *142:20 *4843:A 0.000535881
13 *449:94 *4843:A 5.17484e-05
14 *449:94 *510:8 2.99277e-05
15 *460:8 *3899:A 0.000159953
16 *460:8 *510:8 1.29944e-05
17 *497:77 *3899:A 0
*RES
1 *4463:Q *510:8 40.61 
2 *510:8 *3899:A 45.8921 
3 *510:8 *4843:A 44.3593 
*END

*D_NET *511 0.00321906
*CONN
*I *4735:A I *D sky130_fd_sc_hd__dlygate4sd3_1
*I *3899:B I *D sky130_fd_sc_hd__or3b_2
*I *4464:Q O *D sky130_fd_sc_hd__dfrtp_2
*CAP
1 *4735:A 0
2 *3899:B 0.000250701
3 *4464:Q 0
4 *511:25 0.000517147
5 *511:6 0.000767849
6 *511:25 *4049:A 2.64616e-05
7 *511:25 *4467:RESET_B 0.000170807
8 *511:25 *684:8 0.000194209
9 *3899:A *3899:B 0.000429983
10 *3899:A *511:25 9.88765e-05
11 *134:8 *3899:B 0.000166413
12 *142:46 *3899:B 4.43801e-05
13 *142:46 *511:25 3.88629e-05
14 *449:94 *511:25 1.04117e-05
15 *461:20 *511:25 0.00031008
16 *510:8 *511:25 0.00019288
*RES
1 *4464:Q *511:6 38 
2 *511:6 *3899:B 44.4007 
3 *511:6 *511:25 28.9407 
4 *511:25 *4735:A 23 
*END

*D_NET *512 0.00114384
*CONN
*I *4840:A I *D sky130_fd_sc_hd__dlygate4sd3_1
*I *3902:A I *D sky130_fd_sc_hd__or3b_2
*I *4465:Q O *D sky130_fd_sc_hd__dfrtp_2
*CAP
1 *4840:A 4.52954e-05
2 *3902:A 0
3 *4465:Q 0.000216758
4 *512:14 0.000131507
5 *512:6 0.00039356
6 *512:14 *691:19 6.38947e-05
7 *512:14 *691:32 9.75779e-05
8 *463:8 *512:14 0.000195248
*RES
1 *4465:Q *512:6 26.48 
2 *512:6 *512:14 33.7079 
3 *512:14 *3902:A 23 
4 *512:6 *4840:A 23.6214 
*END

*D_NET *513 0.00218533
*CONN
*I *4841:A I *D sky130_fd_sc_hd__dlygate4sd3_1
*I *3902:B I *D sky130_fd_sc_hd__or3b_2
*I *4466:Q O *D sky130_fd_sc_hd__dfrtp_2
*CAP
1 *4841:A 0.000354868
2 *3902:B 0.000160925
3 *4466:Q 0.00029304
4 *513:8 0.000808833
5 *4841:A *960:10 0
6 *179:12 *4841:A 0
7 *463:8 *3902:B 0.000299178
8 *463:8 *4841:A 0.000268491
9 *469:60 *3902:B 0
10 *469:60 *4841:A 0
*RES
1 *4466:Q *513:8 41.48 
2 *513:8 *3902:B 42.0186 
3 *513:8 *4841:A 45.1464 
*END

*D_NET *514 0.00269446
*CONN
*I *4754:A I *D sky130_fd_sc_hd__dlygate4sd3_1
*I *3908:B I *D sky130_fd_sc_hd__or4_2
*I *4467:Q O *D sky130_fd_sc_hd__dfrtp_2
*CAP
1 *4754:A 0.000285898
2 *3908:B 0.000234271
3 *4467:Q 0.00013814
4 *514:8 0.000658309
5 *3908:B *515:14 0.000508744
6 *4754:A *4748:A 0.000129504
7 *4754:A *515:14 0.000357034
8 *4754:A *714:61 0.000123934
9 *142:46 *3908:B 2.14404e-05
10 *461:12 *3908:B 4.98333e-05
11 *461:20 *3908:B 3.6941e-05
12 *461:20 *4754:A 0.000150413
*RES
1 *4467:Q *514:8 39.5743 
2 *514:8 *3908:B 44.8357 
3 *514:8 *4754:A 47.0107 
*END

*D_NET *515 0.00299331
*CONN
*I *4748:A I *D sky130_fd_sc_hd__dlygate4sd3_1
*I *3908:C I *D sky130_fd_sc_hd__or4_2
*I *4468:Q O *D sky130_fd_sc_hd__dfrtp_2
*CAP
1 *4748:A 0.00024668
2 *3908:C 0
3 *4468:Q 0.000117518
4 *515:14 0.00042549
5 *515:8 0.000789688
6 *3908:A *515:14 3.26241e-05
7 *3908:B *515:14 0.000508744
8 *4047:A *515:14 4.54619e-05
9 *4754:A *4748:A 0.000129504
10 *4754:A *515:14 0.000357034
11 *142:14 *515:14 0.000137893
12 *260:10 *515:8 9.84794e-05
13 *261:41 *515:14 3.7122e-06
14 *461:20 *4748:A 0
15 *468:14 *4748:A 0
16 *468:14 *515:14 0
17 *497:27 *515:14 0.000100477
*RES
1 *4468:Q *515:8 39.5743 
2 *515:8 *515:14 28.2157 
3 *515:14 *3908:C 23 
4 *515:8 *4748:A 42.7229 
*END

*D_NET *516 0.000505651
*CONN
*I *3894:A I *D sky130_fd_sc_hd__nor2_2
*I *4761:A I *D sky130_fd_sc_hd__dlygate4sd3_1
*I *4474:Q O *D sky130_fd_sc_hd__dfrtp_2
*CAP
1 *3894:A 6.48336e-05
2 *4761:A 0
3 *4474:Q 0
4 *516:10 0.000108289
5 *516:4 0.000173122
6 *516:10 *4475:RESET_B 0.000102365
7 *516:10 *517:20 0
8 *129:12 *3894:A 5.70419e-05
*RES
1 *4474:Q *516:4 23 
2 *516:4 *516:10 32.61 
3 *516:10 *4761:A 23 
4 *516:4 *3894:A 24.595 
*END

*D_NET *517 0.00153666
*CONN
*I *3894:B I *D sky130_fd_sc_hd__nor2_2
*I *4800:A I *D sky130_fd_sc_hd__dlygate4sd3_1
*I *4475:Q O *D sky130_fd_sc_hd__dfrtp_2
*CAP
1 *3894:B 9.37445e-05
2 *4800:A 0
3 *4475:Q 0.000409701
4 *517:20 0.00030344
5 *517:6 0.000200005
6 *517:6 *603:10 2.64616e-05
7 *517:6 *742:26 0.000310641
8 *517:20 *4475:RESET_B 0
9 *517:20 *742:26 0.000192671
10 *516:10 *517:20 0
*RES
1 *4475:Q *517:6 27.4329 
2 *517:6 *4800:A 23 
3 *4475:Q *517:20 43.075 
4 *517:20 *3894:B 39.5743 
*END

*D_NET *518 0.0084703
*CONN
*I *3930:A1 I *D sky130_fd_sc_hd__a21bo_2
*I *3847:A1 I *D sky130_fd_sc_hd__o21ai_2
*I *3942:B I *D sky130_fd_sc_hd__and4b_2
*I *3846:A I *D sky130_fd_sc_hd__nor2_2
*I *3870:A1 I *D sky130_fd_sc_hd__o211a_2
*I *3944:A1 I *D sky130_fd_sc_hd__a21o_2
*I *4836:A I *D sky130_fd_sc_hd__dlygate4sd3_1
*I *4414:Q O *D sky130_fd_sc_hd__dfrtp_2
*CAP
1 *3930:A1 2.0995e-05
2 *3847:A1 9.43564e-05
3 *3942:B 0.000270827
4 *3846:A 4.43406e-05
5 *3870:A1 0
6 *3944:A1 0.000194708
7 *4836:A 7.56453e-05
8 *4414:Q 0.000212065
9 *518:60 0.000582536
10 *518:48 0.000705761
11 *518:46 0.000482691
12 *518:42 0.000338994
13 *518:38 0.000789959
14 *518:14 0.00043972
15 *518:10 0.00103874
16 *3847:A1 *3847:A2 0.000166522
17 *3942:B *519:65 2.02872e-05
18 *3942:B *747:109 1.36806e-05
19 *518:38 *3930:A2 0.000152038
20 *518:42 *519:53 1.37689e-05
21 *518:42 *519:65 2.18773e-05
22 *518:46 *3847:A2 1.42006e-05
23 *518:46 *519:49 1.34354e-05
24 *518:46 *519:65 7.75329e-06
25 *518:60 *3870:A2 4.83835e-05
26 *518:60 *753:8 0.000135557
27 *3851:B1 *518:60 5.02657e-05
28 *3915:A0 *4836:A 9.84794e-05
29 *3915:A0 *518:14 3.47781e-05
30 *3943:A *3944:A1 2.02517e-05
31 *4406:D *518:38 5.41288e-05
32 *4409:CLK *518:60 5.03898e-05
33 *64:16 *518:60 0
34 *98:14 *3846:A 0.000136738
35 *98:26 *3942:B 9.67842e-05
36 *111:65 *518:10 1.11304e-05
37 *150:16 *3846:A 0.000139352
38 *160:10 *3847:A1 0
39 *160:10 *518:46 4.6318e-06
40 *160:27 *3847:A1 4.21594e-06
41 *162:16 *518:46 4.6318e-06
42 *162:16 *518:48 6.4393e-05
43 *162:16 *518:60 0.000291763
44 *163:14 *518:10 8.4047e-05
45 *163:14 *518:14 0.000296965
46 *167:18 *518:46 1.12487e-05
47 *167:18 *518:48 5.97612e-05
48 *167:18 *518:60 0.000655643
49 *167:33 *3942:B 9.67842e-05
50 *167:33 *518:38 0.00014555
51 *167:33 *518:42 5.10805e-05
52 *169:10 *3944:A1 3.22879e-05
53 *495:71 *518:46 0
54 *495:84 *518:14 0
55 *500:47 *3944:A1 6.39632e-05
56 *500:47 *4836:A 1.21972e-05
*RES
1 *4414:Q *518:10 40.7757 
2 *518:10 *518:14 19.0186 
3 *518:14 *4836:A 24.5743 
4 *518:14 *3944:A1 26.9771 
5 *518:10 *518:38 25.3157 
6 *518:38 *518:42 17.0507 
7 *518:42 *518:46 2.65143 
8 *518:46 *518:48 1.90571 
9 *518:48 *518:60 28.8113 
10 *518:60 *3870:A1 23 
11 *518:48 *3846:A 39.5743 
12 *518:46 *3942:B 41.48 
13 *518:42 *3847:A1 40.2579 
14 *518:38 *3930:A1 23.4971 
*END

*D_NET *519 0.00855551
*CONN
*I *3863:A1 I *D sky130_fd_sc_hd__o21ba_2
*I *3849:A1 I *D sky130_fd_sc_hd__a21oi_2
*I *3933:A1 I *D sky130_fd_sc_hd__a21o_2
*I *3847:A2 I *D sky130_fd_sc_hd__o21ai_2
*I *3930:B1_N I *D sky130_fd_sc_hd__a21bo_2
*I *3846:B I *D sky130_fd_sc_hd__nor2_2
*I *3850:B I *D sky130_fd_sc_hd__nand2b_2
*I *4406:Q O *D sky130_fd_sc_hd__dfrtp_2
*CAP
1 *3863:A1 0
2 *3849:A1 0
3 *3933:A1 0
4 *3847:A2 0.000187433
5 *3930:B1_N 0
6 *3846:B 0
7 *3850:B 2.66148e-05
8 *4406:Q 0.000396127
9 *519:65 0.000298655
10 *519:53 0.000310079
11 *519:49 0.000349085
12 *519:38 0.000991854
13 *519:26 0.0010161
14 *519:20 0.000484277
15 *519:14 0.000329893
16 *519:10 0.000442836
17 *3847:A2 *669:82 0
18 *519:10 *4531:RESET_B 0.000410379
19 *519:10 *694:14 0.000406279
20 *519:26 *644:8 0
21 *519:26 *747:78 2.76611e-06
22 *519:38 *3850:A_N 6.89881e-05
23 *519:38 *3915:S 8.17328e-05
24 *519:38 *644:8 0
25 *519:38 *669:82 0.00018282
26 *519:49 *669:82 0
27 *519:65 *3862:C 0
28 *519:65 *747:109 6.17437e-06
29 *3847:A1 *3847:A2 0.000166522
30 *3915:A0 *519:38 0.000112697
31 *3942:B *519:65 2.02872e-05
32 *4401:D *519:10 0
33 *18:8 *519:14 6.9805e-05
34 *18:8 *519:20 0.000230604
35 *95:10 *519:65 3.91386e-05
36 *97:12 *519:26 2.36804e-05
37 *107:92 *3850:B 2.93845e-05
38 *107:92 *519:38 4.6595e-05
39 *107:128 *519:26 0
40 *111:65 *3847:A2 5.41288e-05
41 *150:16 *3850:B 2.64616e-05
42 *150:16 *519:38 4.66047e-05
43 *150:16 *519:65 0.000150773
44 *160:10 *519:65 5.41288e-05
45 *160:27 *3847:A2 0
46 *161:10 *3847:A2 3.16665e-05
47 *162:16 *519:49 0.000164291
48 *167:18 *519:65 0.000110922
49 *167:33 *519:53 1.51028e-05
50 *167:33 *519:65 0.000209502
51 *281:10 *519:10 2.46922e-05
52 *449:222 *519:10 0.00024217
53 *449:226 *519:14 7.4416e-05
54 *449:226 *519:20 0.000213258
55 *449:226 *519:26 2.93845e-05
56 *495:71 *519:65 0.000138718
57 *495:84 *519:38 0.000167443
58 *501:14 *519:26 0
59 *501:14 *519:38 0
60 *518:42 *519:53 1.37689e-05
61 *518:42 *519:65 2.18773e-05
62 *518:46 *3847:A2 1.42006e-05
63 *518:46 *519:49 1.34354e-05
64 *518:46 *519:65 7.75329e-06
*RES
1 *4406:Q *519:10 49.8071 
2 *519:10 *519:14 16.5743 
3 *519:14 *519:20 7.33286 
4 *519:20 *519:26 18.9357 
5 *519:26 *519:38 29.5829 
6 *519:38 *3850:B 23.6214 
7 *519:38 *519:49 17.9621 
8 *519:49 *519:53 15.3211 
9 *519:53 *519:65 37.1568 
10 *519:65 *3846:B 23 
11 *519:53 *3930:B1_N 23 
12 *519:49 *3847:A2 42.4121 
13 *519:26 *3933:A1 38 
14 *519:20 *3849:A1 23 
15 *519:14 *3863:A1 23 
*END

*D_NET *520 0.0041453
*CONN
*I *4774:A I *D sky130_fd_sc_hd__dlygate4sd3_1
*I *3854:A I *D sky130_fd_sc_hd__or3_2
*I *3853:A I *D sky130_fd_sc_hd__nor3_2
*I *3948:C I *D sky130_fd_sc_hd__and3b_2
*I *4413:Q O *D sky130_fd_sc_hd__dfrtp_2
*CAP
1 *4774:A 8.84621e-05
2 *3854:A 0
3 *3853:A 0
4 *3948:C 0
5 *4413:Q 3.62511e-05
6 *520:42 0.000209545
7 *520:36 0.000457171
8 *520:29 0.000125575
9 *520:23 0.000710695
10 *520:12 0.000655593
11 *520:8 0.000265888
12 *520:8 *4415:RESET_B 8.78864e-05
13 *520:12 *984:36 6.55462e-05
14 *520:23 *3948:A_N 2.93431e-05
15 *520:23 *984:36 7.39362e-05
16 *3948:B *520:23 0.000204349
17 *3948:B *520:36 0.000135925
18 *4818:A *520:23 1.34914e-05
19 *22:10 *520:29 0.000109603
20 *101:8 *520:42 0.00016547
21 *103:59 *4774:A 6.55954e-05
22 *103:59 *520:36 6.17437e-06
23 *171:10 *520:12 0.000102092
24 *172:14 *520:42 0.000204165
25 *453:8 *520:8 8.57577e-05
26 *483:14 *520:29 8.50366e-05
27 *483:21 *520:29 0.000161748
*RES
1 *4413:Q *520:8 39.2014 
2 *520:8 *520:12 18.4334 
3 *520:12 *3948:C 23 
4 *520:12 *520:23 7.85589 
5 *520:23 *520:29 33.3143 
6 *520:29 *3853:A 23 
7 *520:23 *520:36 3.00357 
8 *520:36 *520:42 35.7793 
9 *520:42 *3854:A 23 
10 *520:36 *4774:A 24.5743 
*END

*D_NET *521 0.0105289
*CONN
*I *4363:A1 I *D sky130_fd_sc_hd__a221o_2
*I *4365:A1 I *D sky130_fd_sc_hd__a221o_2
*I *3860:B1 I *D sky130_fd_sc_hd__o21a_2
*I *3938:B2 I *D sky130_fd_sc_hd__a22o_2
*I *3852:A I *D sky130_fd_sc_hd__nor3_2
*I *3856:A1 I *D sky130_fd_sc_hd__o31ai_2
*I *4405:Q O *D sky130_fd_sc_hd__dfrtp_2
*CAP
1 *4363:A1 2.50183e-05
2 *4365:A1 0
3 *3860:B1 0
4 *3938:B2 0.00045636
5 *3852:A 0
6 *3856:A1 0.000115382
7 *4405:Q 0.000198532
8 *521:78 0.000356372
9 *521:66 0.0011864
10 *521:32 0.00088261
11 *521:22 0.00142525
12 *521:18 0.000462829
13 *521:10 0.0012647
14 *3856:A1 *523:35 5.40263e-05
15 *3938:B2 *3867:C 0.000528019
16 *3938:B2 *3938:A1 5.70419e-05
17 *4363:A1 *742:68 3.30725e-06
18 *521:10 *4415:RESET_B 0.000113398
19 *521:10 *984:8 0.000290371
20 *521:18 *3937:A 0.000162254
21 *521:18 *4415:RESET_B 0.000315264
22 *521:18 *622:33 2.2385e-05
23 *521:18 *713:12 8.52094e-06
24 *521:18 *984:8 8.65972e-05
25 *521:22 *4415:RESET_B 0.000417347
26 *521:32 *4415:RESET_B 0.000166513
27 *521:32 *523:35 2.75733e-06
28 *521:32 *665:32 0
29 *521:32 *713:12 0
30 *521:66 *622:16 5.64625e-06
31 *521:66 *706:24 0.000450326
32 *521:66 *742:68 0.000223565
33 *3939:A3 *3856:A1 0.00011994
34 *3939:A3 *521:32 5.08422e-06
35 *4363:B1 *4363:A1 1.37702e-05
36 *4363:B1 *521:66 2.27167e-05
37 *4363:B1 *521:78 1.79284e-05
38 *4365:B1 *521:78 1.24376e-05
39 *4427:CLK *521:78 2.33782e-05
40 *4635:A *521:22 0.000136532
41 *17:8 *3938:B2 2.02872e-05
42 *24:10 *521:78 1.61983e-05
43 *102:23 *521:18 9.41704e-05
44 *102:23 *521:22 0
45 *102:23 *521:32 0
46 *165:33 *521:78 1.70467e-05
47 *171:10 *521:66 0.00010186
48 *430:10 *521:78 0.0003717
49 *449:13 *521:78 0.000197732
50 *453:8 *521:10 5.20155e-05
51 *453:8 *521:22 2.53488e-05
*RES
1 *4405:Q *521:10 43.1164 
2 *521:10 *521:18 20.9657 
3 *521:18 *521:22 20.7793 
4 *521:22 *521:32 19.9273 
5 *521:32 *3856:A1 41.3143 
6 *521:32 *3852:A 38 
7 *521:22 *3938:B2 47.6736 
8 *521:18 *3860:B1 23 
9 *521:10 *521:66 26.5793 
10 *521:66 *521:78 37.9957 
11 *521:78 *4365:A1 23 
12 *521:66 *4363:A1 23.6577 
*END

*D_NET *522 0.00513777
*CONN
*I *4784:A I *D sky130_fd_sc_hd__dlygate4sd3_1
*I *3854:B I *D sky130_fd_sc_hd__or3_2
*I *3853:B I *D sky130_fd_sc_hd__nor3_2
*I *3872:A1 I *D sky130_fd_sc_hd__mux2_1
*I *3947:A1 I *D sky130_fd_sc_hd__a32o_2
*I *4408:Q O *D sky130_fd_sc_hd__dfrtp_2
*CAP
1 *4784:A 0
2 *3854:B 0.000283057
3 *3853:B 0.000373073
4 *3872:A1 0.000339878
5 *3947:A1 0
6 *4408:Q 0
7 *522:49 0.000548949
8 *522:18 0.000474057
9 *522:14 0.000849464
10 *522:4 0.000608104
11 *3853:B *3853:C 5.47983e-06
12 *3853:B *528:47 0.000738479
13 *3854:B *3854:C 0.00014209
14 *3872:A1 *3872:A0 9.41704e-05
15 *3872:A1 *3947:B2 7.9566e-05
16 *3872:A1 *665:16 1.03836e-05
17 *3872:A1 *665:22 8.75739e-05
18 *522:14 *3854:C 7.8929e-05
19 *522:14 *528:47 0.000246176
20 *4636:A *3853:B 0.000124344
21 *483:8 *3853:B 2.193e-05
22 *483:34 *522:14 3.20631e-05
*RES
1 *4408:Q *522:4 23 
2 *522:4 *522:14 21.5871 
3 *522:14 *522:18 17.2579 
4 *522:18 *3947:A1 23 
5 *522:18 *3872:A1 27.9093 
6 *522:14 *3853:B 47.2179 
7 *522:4 *522:49 34.7643 
8 *522:49 *3854:B 27.9507 
9 *522:49 *4784:A 23 
*END

*D_NET *523 0.00690932
*CONN
*I *3872:A0 I *D sky130_fd_sc_hd__mux2_1
*I *3936:A1 I *D sky130_fd_sc_hd__a31o_2
*I *3940:B1 I *D sky130_fd_sc_hd__o21ai_2
*I *3852:B I *D sky130_fd_sc_hd__nor3_2
*I *3856:A2 I *D sky130_fd_sc_hd__o31ai_2
*I *4400:Q O *D sky130_fd_sc_hd__dfrtp_2
*CAP
1 *3872:A0 0.000249542
2 *3936:A1 0.000404868
3 *3940:B1 0
4 *3852:B 0
5 *3856:A2 3.47052e-05
6 *4400:Q 0.000114548
7 *523:47 0.000811805
8 *523:35 9.20592e-05
9 *523:22 0.000614881
10 *523:16 0.000838641
11 *523:10 0.000622468
12 *3856:A2 *3856:A3 1.11037e-05
13 *3872:A0 *528:16 0.000297164
14 *3872:A0 *617:8 3.67392e-05
15 *3872:A0 *665:14 6.99589e-05
16 *3872:A0 *665:16 6.17437e-06
17 *3872:A0 *665:65 0.000163812
18 *523:10 *987:14 3.83778e-05
19 *523:16 *529:76 0.000228903
20 *523:22 *529:27 0.000354739
21 *523:22 *529:35 9.65021e-05
22 *523:22 *744:34 2.98648e-05
23 *523:35 *529:35 0.000167123
24 *523:47 *3935:A1 8.68016e-06
25 *523:47 *528:16 0.000271382
26 *523:47 *529:76 0
27 *523:47 *665:65 0.000131169
28 *523:47 *987:14 2.96154e-05
29 *3856:A1 *523:35 5.40263e-05
30 *3857:A *523:22 1.59071e-05
31 *3872:A1 *3872:A0 9.41704e-05
32 *3936:A2 *3936:A1 5.50049e-05
33 *89:8 *3936:A1 0.000181131
34 *89:10 *3936:A1 0.000357631
35 *90:10 *523:10 2.30292e-05
36 *102:34 *523:47 0
37 *103:10 *523:22 0.000139067
38 *103:10 *523:35 8.16757e-06
39 *108:10 *3872:A0 8.68922e-05
40 *166:10 *523:16 2.4754e-05
41 *166:10 *523:22 0.00014196
42 *521:32 *523:35 2.75733e-06
*RES
1 *4400:Q *523:10 39.8229 
2 *523:10 *523:16 20.4064 
3 *523:16 *523:22 10.0671 
4 *523:22 *3856:A2 23.8493 
5 *523:22 *523:35 32.61 
6 *523:35 *3852:B 23 
7 *523:16 *3940:B1 23 
8 *523:10 *523:47 4.72286 
9 *523:47 *3936:A1 44.3386 
10 *523:47 *3872:A0 45.0014 
*END

*D_NET *524 0.00315086
*CONN
*I *4782:A I *D sky130_fd_sc_hd__dlygate4sd3_1
*I *3921:A2 I *D sky130_fd_sc_hd__a31oi_2
*I *4410:Q O *D sky130_fd_sc_hd__dfrtp_2
*CAP
1 *4782:A 0.000274944
2 *3921:A2 0.00024397
3 *4410:Q 8.81957e-05
4 *524:8 0.00060711
5 *3921:A2 *3920:A 5.33597e-05
6 *3921:A2 *3921:A1 0.000135547
7 *3921:A2 *583:16 0
8 *3921:A2 *664:33 8.62783e-05
9 *3921:A2 *664:43 0.000215168
10 *3921:A2 *741:14 0.000242926
11 *4782:A *528:57 0.000140958
12 *4782:A *583:10 0
13 *4782:A *583:16 0
14 *4782:A *664:27 0.000210659
15 *4782:A *664:33 0.000268231
16 *524:8 *703:90 9.41704e-05
17 *17:16 *3921:A2 1.89075e-05
18 *104:16 *4782:A 9.41704e-05
19 *153:8 *3921:A2 0.000116314
20 *153:8 *4782:A 0.000259946
*RES
1 *4410:Q *524:8 39.0979 
2 *524:8 *3921:A2 45.54 
3 *524:8 *4782:A 45.5814 
*END

*D_NET *525 0.00350313
*CONN
*I *4783:A I *D sky130_fd_sc_hd__dlygate4sd3_1
*I *3925:A2 I *D sky130_fd_sc_hd__a31oi_2
*I *4402:Q O *D sky130_fd_sc_hd__dfrtp_2
*CAP
1 *4783:A 0.000114774
2 *3925:A2 0.000351194
3 *4402:Q 0.000422201
4 *525:26 0.000170981
5 *525:8 0.000717188
6 *3925:A2 *3945:A1 6.07611e-06
7 *3925:A2 *4410:RESET_B 1.94418e-05
8 *3925:A2 *583:16 0.00078054
9 *3925:A2 *741:31 6.33511e-05
10 *525:8 *742:41 2.45549e-06
11 *525:26 *713:12 0.000138718
12 *3950:A2 *525:8 0.000135037
13 *3950:B1 *525:8 3.39489e-05
14 *17:16 *525:26 0.000138718
15 *20:21 *3925:A2 0
16 *23:8 *3925:A2 0.000138727
17 *104:16 *4783:A 0.000269775
18 *449:222 *3925:A2 0
*RES
1 *4402:Q *525:8 42.4329 
2 *525:8 *3925:A2 48.3571 
3 *4402:Q *525:26 39.9057 
4 *525:26 *4783:A 41.0036 
*END

*D_NET *526 0.00359928
*CONN
*I *4757:A I *D sky130_fd_sc_hd__dlygate4sd3_1
*I *4361:A1 I *D sky130_fd_sc_hd__mux2_1
*I *3867:B I *D sky130_fd_sc_hd__and3_2
*I *4411:Q O *D sky130_fd_sc_hd__dfrtp_2
*CAP
1 *4757:A 0.000458023
2 *4361:A1 0
3 *3867:B 0
4 *4411:Q 4.30532e-05
5 *526:24 0.000363462
6 *526:14 0.000697694
7 *526:8 0.000835309
8 *4757:A *4427:RESET_B 5.75756e-06
9 *4757:A *703:8 3.53698e-05
10 *4757:A *703:25 0.00012267
11 *4757:A *742:6 2.95526e-05
12 *4757:A *742:12 2.64616e-05
13 *4757:A *742:68 0.000108129
14 *4757:A *742:84 8.56042e-05
15 *526:14 *4361:A0 4.839e-05
16 *526:14 *4403:RESET_B 4.73379e-05
17 *526:14 *541:42 8.36198e-05
18 *526:14 *703:8 5.60351e-05
19 *526:24 *3867:C 2.47702e-05
20 *29:10 *526:24 5.50106e-05
21 *165:6 *526:8 5.5792e-05
22 *449:13 *526:24 0.000103455
23 *482:8 *526:14 0.000172429
24 *482:8 *526:24 0.000141355
25 *482:10 *526:24 0
*RES
1 *4411:Q *526:8 38.6214 
2 *526:8 *526:14 20.9657 
3 *526:14 *526:24 36.1107 
4 *526:24 *3867:B 23 
5 *526:14 *4361:A1 23 
6 *526:8 *4757:A 47.6321 
*END

*D_NET *527 0.00293335
*CONN
*I *4361:A0 I *D sky130_fd_sc_hd__mux2_1
*I *4763:A I *D sky130_fd_sc_hd__dlygate4sd3_1
*I *3859:B I *D sky130_fd_sc_hd__and3_2
*I *4403:Q O *D sky130_fd_sc_hd__dfrtp_2
*CAP
1 *4361:A0 0.000282054
2 *4763:A 0
3 *3859:B 0.000302879
4 *4403:Q 4.55529e-05
5 *527:21 0.000400296
6 *527:8 0.000466674
7 *3859:B *4403:RESET_B 0
8 *3859:B *4410:RESET_B 0
9 *3859:B *528:57 0.000108672
10 *4361:A0 *4361:S 0.000481931
11 *4361:A0 *4403:RESET_B 0
12 *4361:A0 *528:57 0.000107274
13 *4361:A0 *541:42 0.000149877
14 *527:21 *4403:RESET_B 0
15 *527:21 *528:57 7.461e-05
16 *104:16 *3859:B 7.09783e-05
17 *482:8 *4361:A0 0.00022823
18 *482:39 *527:8 2.93747e-05
19 *498:20 *4361:A0 4.94192e-05
20 *498:37 *4361:A0 8.71382e-05
21 *526:14 *4361:A0 4.839e-05
*RES
1 *4403:Q *527:8 38.6214 
2 *527:8 *3859:B 43.4893 
3 *527:8 *527:21 2.25786 
4 *527:21 *4763:A 38 
5 *527:21 *4361:A0 47.7771 
*END

*D_NET *528 0.0118956
*CONN
*I *3854:C I *D sky130_fd_sc_hd__or3_2
*I *3853:C I *D sky130_fd_sc_hd__nor3_2
*I *3950:A1 I *D sky130_fd_sc_hd__a32o_2
*I *4813:A I *D sky130_fd_sc_hd__dlygate4sd3_1
*I *3873:A1 I *D sky130_fd_sc_hd__mux2_1
*I *4412:Q O *D sky130_fd_sc_hd__dfrtp_2
*CAP
1 *3854:C 0.000366139
2 *3853:C 2.13128e-05
3 *3950:A1 0
4 *4813:A 0.000215392
5 *3873:A1 0
6 *4412:Q 0.000451632
7 *528:57 0.00121992
8 *528:47 0.00162453
9 *528:41 0.000809115
10 *528:16 0.000585127
11 *528:8 0.00119247
12 *4813:A *617:8 6.16603e-05
13 *528:16 *3935:A1 0.000222113
14 *528:16 *617:8 4.2651e-05
15 *528:16 *707:10 0
16 *528:16 *707:37 0
17 *528:57 *3937:A 7.0127e-05
18 *528:57 *4410:RESET_B 0
19 *528:57 *576:18 5.79559e-05
20 *528:57 *583:10 0
21 *528:57 *664:23 3.63581e-05
22 *528:57 *664:25 0.000216526
23 *528:57 *664:27 0.00020134
24 *528:57 *742:41 0
25 *3853:B *3853:C 5.47983e-06
26 *3853:B *528:47 0.000738479
27 *3854:B *3854:C 0.00014209
28 *3859:B *528:57 0.000108672
29 *3872:A0 *528:16 0.000297164
30 *4361:A0 *528:57 0.000107274
31 *4636:A *528:47 2.69729e-05
32 *4636:A *528:57 0.000106361
33 *4782:A *528:57 0.000140958
34 *19:10 *528:57 0.000324716
35 *89:36 *528:47 3.13192e-05
36 *90:43 *528:16 0
37 *102:23 *528:57 0.000429933
38 *103:59 *3854:C 0.000173613
39 *103:59 *528:47 5.93605e-05
40 *108:10 *528:16 0.000240056
41 *165:6 *528:57 5.58003e-05
42 *483:8 *528:47 0.000648363
43 *483:34 *4813:A 0.000145171
44 *498:37 *528:57 4.83192e-05
45 *522:14 *3854:C 7.8929e-05
46 *522:14 *528:47 0.000246176
47 *523:47 *528:16 0.000271382
48 *527:21 *528:57 7.461e-05
*RES
1 *4412:Q *528:8 42.9093 
2 *528:8 *528:16 28.9407 
3 *528:16 *3873:A1 23 
4 *528:8 *4813:A 43.2407 
5 *4412:Q *528:41 38.6214 
6 *528:41 *528:47 27.5114 
7 *528:47 *528:57 42.405 
8 *528:57 *3950:A1 38 
9 *528:47 *3853:C 23.4971 
10 *528:41 *3854:C 46.0786 
*END

*D_NET *529 0.00856523
*CONN
*I *3873:A0 I *D sky130_fd_sc_hd__mux2_1
*I *3935:B1 I *D sky130_fd_sc_hd__o21a_2
*I *3856:A3 I *D sky130_fd_sc_hd__o31ai_2
*I *3852:C I *D sky130_fd_sc_hd__nor3_2
*I *3939:A1 I *D sky130_fd_sc_hd__a32o_2
*I *4404:Q O *D sky130_fd_sc_hd__dfrtp_2
*CAP
1 *3873:A0 0
2 *3935:B1 2.34823e-05
3 *3856:A3 1.83742e-05
4 *3852:C 0
5 *3939:A1 0.000606709
6 *4404:Q 0.000659261
7 *529:76 0.000320763
8 *529:57 0.000685043
9 *529:35 0.000119365
10 *529:27 0.00026803
11 *529:23 0.00072807
12 *529:6 0.00152295
13 *529:6 *4404:RESET_B 4.83893e-05
14 *529:23 *744:34 0.000216956
15 *529:27 *744:34 0.000121021
16 *529:76 *3940:A1 7.55599e-05
17 *529:76 *4786:A 1.24376e-05
18 *529:76 *665:65 9.51367e-05
19 *3856:A2 *3856:A3 1.11037e-05
20 *3857:A *529:35 5.25022e-05
21 *3935:A2 *529:57 6.17437e-06
22 *3935:A2 *529:76 0.000189952
23 *3936:A2 *529:57 5.70419e-05
24 *3936:A3 *529:57 2.93845e-05
25 *3936:B1 *529:57 0.000143655
26 *3941:A *3939:A1 0.000551365
27 *3941:B *3939:A1 5.50049e-05
28 *3941:B *529:6 0.000182832
29 *4400:CLK *529:23 1.80023e-05
30 *4404:CLK *3939:A1 3.17634e-05
31 *27:10 *529:23 0.000345304
32 *30:10 *529:23 1.69668e-05
33 *30:10 *529:57 0.000148614
34 *30:10 *529:76 0
35 *89:10 *529:57 6.67283e-05
36 *89:10 *529:76 2.93747e-05
37 *99:12 *529:35 0.000191429
38 *100:14 *529:23 0
39 *100:14 *529:57 0
40 *102:34 *529:76 3.92407e-05
41 *476:12 *529:23 2.99716e-05
42 *523:16 *529:76 0.000228903
43 *523:22 *529:27 0.000354739
44 *523:22 *529:35 9.65021e-05
45 *523:35 *529:35 0.000167123
46 *523:47 *529:76 0
*RES
1 *4404:Q *529:6 32.1971 
2 *529:6 *3939:A1 33.3364 
3 *529:6 *529:23 21.8357 
4 *529:23 *529:27 18.9564 
5 *529:27 *529:35 33.7079 
6 *529:35 *3852:C 23 
7 *529:27 *3856:A3 23.4971 
8 *529:23 *529:57 23.2857 
9 *529:57 *3935:B1 23.4971 
10 *529:57 *529:76 37.9129 
11 *529:76 *3873:A0 23 
*END

*D_NET *530 0.00221376
*CONN
*I *4456:RESET_B I *D sky130_fd_sc_hd__dfrtp_2
*I *4454:RESET_B I *D sky130_fd_sc_hd__dfrtp_2
*I *4851:X O *D sky130_fd_sc_hd__clkdlybuf4s25_1
*CAP
1 *4456:RESET_B 7.95678e-05
2 *4454:RESET_B 0.000168471
3 *4851:X 0.000580899
4 *530:18 0.000828938
5 *4454:RESET_B *630:50 5.31557e-05
6 *4454:RESET_B *718:10 2.59524e-05
7 *4456:RESET_B *900:8 9.3307e-05
8 *530:18 *4298:B1 5.3304e-05
9 *530:18 *630:44 0.000137594
10 *530:18 *718:10 9.67247e-05
11 *4298:A2 *530:18 7.25404e-05
12 *208:24 *4456:RESET_B 2.33053e-05
13 *208:24 *530:18 0
*RES
1 *4851:X *530:18 48.0361 
2 *530:18 *4454:RESET_B 18.8425 
3 *530:18 *4456:RESET_B 16.9679 
*END

*D_NET *531 0.0113379
*CONN
*I *4116:A1 I *D sky130_fd_sc_hd__o21ai_2
*I *4119:A1 I *D sky130_fd_sc_hd__o21ai_2
*I *4114:A1 I *D sky130_fd_sc_hd__o21ai_2
*I *4734:A I *D sky130_fd_sc_hd__clkdlybuf4s25_1
*I *4139:A1 I *D sky130_fd_sc_hd__o21ai_2
*I *4141:A1 I *D sky130_fd_sc_hd__o21ai_2
*I *4728:A I *D sky130_fd_sc_hd__clkdlybuf4s25_1
*I *4658:X O *D sky130_fd_sc_hd__clkdlybuf4s25_1
*CAP
1 *4116:A1 0.000117451
2 *4119:A1 0
3 *4114:A1 0.000383807
4 *4734:A 0
5 *4139:A1 0
6 *4141:A1 0
7 *4728:A 0
8 *4658:X 0.000403523
9 *531:95 0.000290079
10 *531:59 0.000814982
11 *531:46 0.00100587
12 *531:42 0.000967142
13 *531:32 0.00157317
14 *531:22 0.00145568
15 *531:20 0.000600561
16 *531:6 0.000250539
17 *4114:A1 *658:36 0.000196032
18 *4114:A1 *779:10 2.93845e-05
19 *531:6 *581:10 3.22879e-05
20 *531:22 *660:28 0.000760173
21 *531:22 *697:12 0
22 *531:22 *697:18 0
23 *531:22 *697:20 0
24 *531:22 *782:10 0
25 *531:32 *4572:RESET_B 0
26 *531:32 *4715:A 2.46922e-05
27 *531:32 *626:10 0
28 *531:32 *697:10 0
29 *531:32 *697:12 0
30 *531:32 *702:27 0.000354721
31 *531:32 *720:10 6.17437e-06
32 *531:32 *720:26 3.28382e-05
33 *531:32 *770:8 0.000166513
34 *531:32 *794:12 0
35 *531:42 *4570:RESET_B 0.000173442
36 *531:42 *4571:RESET_B 0.000137651
37 *531:46 *660:12 0
38 *531:46 *660:14 0
39 *531:46 *768:10 0
40 *531:59 *4139:B1 5.50049e-05
41 *531:59 *660:12 0
42 *531:59 *660:51 0
43 *531:59 *713:31 5.50049e-05
44 *531:59 *765:8 5.26101e-05
45 *531:95 *3845:A 0
46 *531:95 *779:10 6.7177e-06
47 *531:95 *780:8 0
48 *4143:B *531:46 0
49 *4562:CLK *4114:A1 0.00017171
50 *253:56 *531:32 7.76364e-06
51 *254:8 *531:42 0
52 *256:8 *4114:A1 0
53 *256:8 *4116:A1 0
54 *256:8 *531:22 0
55 *256:8 *531:32 0
56 *256:25 *4114:A1 0.000227208
57 *281:20 *531:59 8.87001e-05
58 *293:10 *531:95 1.83564e-05
59 *294:10 *4116:A1 7.90939e-05
60 *294:10 *531:95 4.21594e-06
61 *307:12 *531:59 0.000141869
62 *309:10 *531:59 0.000195931
63 *310:10 *531:46 6.07611e-06
64 *310:10 *531:59 0.000101564
65 *451:8 *531:32 0
66 *451:8 *531:42 0.000349386
*RES
1 *4658:X *531:6 27.4329 
2 *531:6 *4728:A 23 
3 *4658:X *531:20 40.0507 
4 *531:20 *531:22 10.8854 
5 *531:22 *531:32 30.4839 
6 *531:32 *531:42 43.1121 
7 *531:42 *531:46 18.6664 
8 *531:46 *4141:A1 38 
9 *531:46 *531:59 32.6693 
10 *531:59 *4139:A1 23 
11 *531:32 *4734:A 23 
12 *531:22 *4114:A1 44.4939 
13 *4114:A1 *531:95 40.9621 
14 *531:95 *4119:A1 38 
15 *531:95 *4116:A1 40.9621 
*END

*D_NET *532 0.00162464
*CONN
*I *4054:B1 I *D sky130_fd_sc_hd__o21a_2
*I *4735:X O *D sky130_fd_sc_hd__dlygate4sd3_1
*CAP
1 *4054:B1 0
2 *4735:X 0.000352105
3 *532:10 0.000352105
4 *532:10 *642:26 0
5 *532:10 *714:61 1.41077e-05
6 *4049:B *532:10 0.000358425
7 *4054:A1 *532:10 1.13812e-05
8 *39:8 *532:10 0.000350371
9 *40:10 *532:10 0.000186141
*RES
1 *4735:X *532:10 47.5079 
2 *532:10 *4054:B1 38 
*END

*D_NET *533 0.000435463
*CONN
*I *4349:B1 I *D sky130_fd_sc_hd__o32a_2
*I *4736:X O *D sky130_fd_sc_hd__dlygate4sd3_1
*CAP
1 *4349:B1 0.000102731
2 *4736:X 0.000102731
3 *4349:B1 *4736:A 0.000115
4 *4068:C *4349:B1 0.000115
*RES
1 *4736:X *4349:B1 48.5271 
*END

*D_NET *534 0.000394061
*CONN
*I *4416:D I *D sky130_fd_sc_hd__dfrtp_2
*I *4737:X O *D sky130_fd_sc_hd__dlygate4sd3_1
*CAP
1 *4416:D 3.14153e-05
2 *4737:X 5.62079e-05
3 *534:8 8.76233e-05
4 *534:8 *671:16 0.000110922
5 *3895:D *4416:D 5.3304e-05
6 *469:10 *534:8 5.45887e-05
*RES
1 *4737:X *534:8 39.5536 
2 *534:8 *4416:D 38.6214 
*END

*D_NET *535 0.00094592
*CONN
*I *4063:B1 I *D sky130_fd_sc_hd__o31a_2
*I *4738:X O *D sky130_fd_sc_hd__dlygate4sd3_1
*CAP
1 *4063:B1 0
2 *4738:X 0.000227695
3 *535:10 0.000227695
4 *535:10 *668:52 5.88855e-05
5 *535:10 *686:10 0.000246679
6 *259:44 *535:10 6.48142e-05
7 *449:57 *535:10 2.50118e-05
8 *449:67 *535:10 9.51389e-05
*RES
1 *4738:X *535:10 43.8414 
2 *535:10 *4063:B1 38 
*END

*D_NET *536 0.00150021
*CONN
*I *4352:B1 I *D sky130_fd_sc_hd__o21a_2
*I *4739:X O *D sky130_fd_sc_hd__dlygate4sd3_1
*CAP
1 *4352:B1 0.000294211
2 *4739:X 0.000127277
3 *536:8 0.000421488
4 *4352:B1 *726:10 4.93341e-05
5 *4352:A2 *4352:B1 0.0002246
6 *111:26 *4352:B1 0.000164354
7 *138:25 *536:8 0
8 *146:10 *536:8 0.000218943
*RES
1 *4739:X *536:8 40.9621 
2 *536:8 *4352:B1 44.815 
*END

*D_NET *537 0.000194382
*CONN
*I *4353:B1 I *D sky130_fd_sc_hd__o32a_2
*I *4740:X O *D sky130_fd_sc_hd__dlygate4sd3_1
*CAP
1 *4353:B1 8.39184e-05
2 *4740:X 8.39184e-05
3 *4353:B1 *4740:A 1.41077e-05
4 *4475:CLK *4353:B1 1.24376e-05
*RES
1 *4740:X *4353:B1 47.6157 
*END

*D_NET *538 0.000257118
*CONN
*I *4420:D I *D sky130_fd_sc_hd__dfrtp_2
*I *4741:X O *D sky130_fd_sc_hd__dlygate4sd3_1
*CAP
1 *4420:D 0
2 *4741:X 7.19824e-05
3 *538:8 7.19824e-05
4 *538:8 *671:16 0.000113153
5 *538:8 *673:23 0
*RES
1 *4741:X *538:8 39.5536 
2 *538:8 *4420:D 38 
*END

*D_NET *539 0.000827029
*CONN
*I *4204:B1 I *D sky130_fd_sc_hd__o21ai_2
*I *4742:X O *D sky130_fd_sc_hd__dlygate4sd3_1
*CAP
1 *4204:B1 3.28483e-05
2 *4742:X 0.000109181
3 *539:8 0.00014203
4 *539:8 *695:26 0.000243587
5 *241:57 *4204:B1 9.58714e-05
6 *241:57 *539:8 0.000107641
7 *465:25 *4204:B1 9.58714e-05
*RES
1 *4742:X *539:8 41.3143 
2 *539:8 *4204:B1 39.0979 
*END

*D_NET *540 0.00237355
*CONN
*I *4205:C1 I *D sky130_fd_sc_hd__o211ai_2
*I *4743:X O *D sky130_fd_sc_hd__dlygate4sd3_1
*CAP
1 *4205:C1 0.000501212
2 *4743:X 0.000478821
3 *540:14 0.000980033
4 *4205:C1 *4205:B1 1.11037e-05
5 *540:14 *4550:RESET_B 7.76183e-05
6 *540:14 *695:26 3.85256e-05
7 *242:12 *4205:C1 0.000134009
8 *349:10 *540:14 4.2812e-06
9 *449:335 *540:14 0.00011378
10 *449:340 *540:14 3.41643e-05
*RES
1 *4743:X *540:14 48.2329 
2 *540:14 *4205:C1 45.1879 
*END

*D_NET *541 0.0088942
*CONN
*I *3952:B1 I *D sky130_fd_sc_hd__a21o_2
*I *4058:B1 I *D sky130_fd_sc_hd__a31o_2
*I *4059:C1 I *D sky130_fd_sc_hd__a211oi_2
*I *4744:X O *D sky130_fd_sc_hd__dlygate4sd3_1
*CAP
1 *3952:B1 0.00014012
2 *4058:B1 0
3 *4059:C1 0
4 *4744:X 0
5 *541:42 0.00126597
6 *541:23 0.000404583
7 *541:10 0.00185906
8 *541:4 0.00258033
9 *3952:B1 *3868:B1 0.000241815
10 *541:10 *4411:RESET_B 8.98585e-05
11 *541:10 *668:23 1.358e-05
12 *541:23 *687:8 8.72006e-05
13 *541:23 *714:63 5.50106e-05
14 *541:42 *3868:B1 8.96016e-05
15 *541:42 *4361:S 8.95945e-05
16 *3897:A1 *541:10 0.000323335
17 *3897:A2 *541:10 0.000168524
18 *3897:A2 *541:23 3.90213e-05
19 *4361:A0 *541:42 0.000149877
20 *4411:CLK *541:10 0.000103521
21 *4411:D *541:10 3.60434e-06
22 *4635:A *541:42 0.000137525
23 *22:10 *3952:B1 0.000102389
24 *165:6 *541:10 2.71358e-05
25 *165:8 *541:10 1.26547e-05
26 *165:33 *541:10 1.48077e-05
27 *262:12 *541:23 0.000411767
28 *470:64 *541:23 0
29 *498:14 *541:42 6.62982e-06
30 *509:10 *541:23 0.000393065
31 *526:14 *541:42 8.36198e-05
*RES
1 *4744:X *541:4 23 
2 *541:4 *541:10 36.4393 
3 *541:10 *4059:C1 38 
4 *541:10 *541:23 27.3871 
5 *541:23 *4058:B1 23 
6 *541:4 *541:42 46.2089 
7 *541:42 *3952:B1 27.0496 
*END

*D_NET *542 0.0102349
*CONN
*I *4179:A1 I *D sky130_fd_sc_hd__o21ai_2
*I *4184:A1 I *D sky130_fd_sc_hd__o21ai_2
*I *4168:A1 I *D sky130_fd_sc_hd__o21ai_2
*I *4171:A1 I *D sky130_fd_sc_hd__o21ai_2
*I *4176:A1 I *D sky130_fd_sc_hd__o21ai_2
*I *4173:A1 I *D sky130_fd_sc_hd__o21ai_2
*I *4029:A I *D sky130_fd_sc_hd__inv_2
*I *4181:A1 I *D sky130_fd_sc_hd__o21ai_2
*I *4659:X O *D sky130_fd_sc_hd__clkdlybuf4s25_1
*CAP
1 *4179:A1 0
2 *4184:A1 0
3 *4168:A1 0.000174447
4 *4171:A1 0
5 *4176:A1 0.000219948
6 *4173:A1 0.000182276
7 *4029:A 0
8 *4181:A1 0.000260518
9 *4659:X 8.19565e-05
10 *542:62 0.000678496
11 *542:45 0.00102378
12 *542:43 0.00201077
13 *542:35 0.00219083
14 *542:29 0.000771379
15 *542:10 0.000226609
16 *542:8 8.19565e-05
17 *4168:A1 *823:8 0
18 *4173:A1 *825:8 0
19 *4173:A1 *883:34 0
20 *4176:A1 *4176:B1 0.000115015
21 *4176:A1 *652:10 1.39826e-05
22 *4176:A1 *824:8 0.000140036
23 *4181:A1 *652:79 0.000214712
24 *542:8 *656:8 1.50409e-05
25 *542:8 *804:8 8.78864e-05
26 *542:29 *4181:B1 0.000102971
27 *542:29 *652:67 0.000192342
28 *542:35 *4182:A2 0
29 *542:35 *652:56 0.000626825
30 *542:35 *693:16 0
31 *542:35 *807:8 0.000101032
32 *542:43 *4537:D 0.000120393
33 *542:43 *808:10 4.96717e-05
34 *542:45 *825:8 0
35 *542:62 *652:10 3.34833e-05
36 *4018:B *542:62 0.000226902
37 *4179:A2 *4181:A1 5.76359e-05
38 *4179:A2 *542:29 2.97185e-05
39 *4537:CLK *542:43 0.000139357
40 *326:20 *4168:A1 3.92407e-05
41 *328:10 *4176:A1 3.50862e-06
42 *328:10 *542:62 2.2165e-05
43 *351:8 *4173:A1 0
44 *351:8 *542:45 0
45 *458:18 *4168:A1 0
46 *493:12 *4168:A1 0
47 *493:14 *4168:A1 0
48 *493:14 *542:45 0
*RES
1 *4659:X *542:8 39.9057 
2 *542:8 *542:10 15 
3 *542:10 *4181:A1 29.3386 
4 *542:10 *4029:A 23 
5 *4181:A1 *542:29 25.0507 
6 *542:29 *542:35 47.0479 
7 *542:35 *542:43 41.5143 
8 *542:43 *542:45 7.18786 
9 *542:45 *4173:A1 41.6664 
10 *542:45 *542:62 36.5871 
11 *542:62 *4176:A1 43.4271 
12 *542:62 *4171:A1 38 
13 *542:43 *4168:A1 41.6664 
14 *542:35 *4184:A1 23 
15 *542:29 *4179:A1 23 
*END

*D_NET *543 0.000792325
*CONN
*I *4462:D I *D sky130_fd_sc_hd__dfrtp_2
*I *4745:X O *D sky130_fd_sc_hd__dlygate4sd3_1
*CAP
1 *4462:D 5.267e-05
2 *4745:X 0.000174071
3 *543:10 0.000226741
4 *4462:D *687:24 0.000141355
5 *543:10 *687:8 8.36198e-05
6 *4462:CLK *4462:D 1.24362e-05
7 *4623:A *543:10 3.06803e-05
8 *470:12 *543:10 4.73379e-05
9 *470:18 *4462:D 2.34132e-05
*RES
1 *4745:X *543:10 40.6514 
2 *543:10 *4462:D 39.5743 
*END

*D_NET *544 0.00176062
*CONN
*I *4067:A I *D sky130_fd_sc_hd__and2_2
*I *4746:X O *D sky130_fd_sc_hd__dlygate4sd3_1
*CAP
1 *4067:A 0.00010502
2 *4746:X 0.000530606
3 *544:10 0.000635626
4 *544:10 *642:28 0
5 *544:10 *714:16 0.000123988
6 *4067:B *4067:A 0.000181919
7 *4649:A *544:10 0.000110397
8 *51:10 *4067:A 5.12254e-05
9 *266:10 *4067:A 2.18409e-05
*RES
1 *4746:X *544:10 47.5079 
2 *544:10 *4067:A 40.5271 
*END

*D_NET *545 0.000877716
*CONN
*I *4066:A I *D sky130_fd_sc_hd__and2_2
*I *4747:X O *D sky130_fd_sc_hd__dlygate4sd3_1
*CAP
1 *4066:A 0
2 *4747:X 0.000190161
3 *545:8 0.000190161
4 *545:8 *3898:A 0.000226295
5 *3898:B *545:8 0.00018282
6 *266:10 *545:8 8.82787e-05
*RES
1 *4747:X *545:8 28.4064 
2 *545:8 *4066:A 23 
*END

*D_NET *546 0.00172451
*CONN
*I *4049:A I *D sky130_fd_sc_hd__and2_2
*I *4748:X O *D sky130_fd_sc_hd__dlygate4sd3_1
*CAP
1 *4049:A 0.000142008
2 *4748:X 7.59252e-05
3 *546:8 0.000217933
4 *4049:A *714:61 0.000566283
5 *546:8 *684:8 0.000135557
6 *4049:B *4049:A 0.000356724
7 *260:14 *4049:A 0.000140259
8 *461:20 *546:8 6.33614e-05
9 *511:25 *4049:A 2.64616e-05
*RES
1 *4748:X *546:8 39.9057 
2 *546:8 *4049:A 44.3386 
*END

*D_NET *547 0.000992898
*CONN
*I *4399:A1 I *D sky130_fd_sc_hd__a21o_2
*I *4749:X O *D sky130_fd_sc_hd__dlygate4sd3_1
*CAP
1 *4399:A1 0.000135164
2 *4749:X 0.00017288
3 *547:8 0.000308044
4 *4399:A1 *709:6 5.50049e-05
5 *4399:A1 *709:21 5.50106e-05
6 *547:8 *4443:RESET_B 0.000114083
7 *547:8 *712:8 0
8 *4399:A2 *4399:A1 5.67058e-05
9 *4399:B1 *547:8 0
10 *447:8 *547:8 4.08641e-05
11 *449:175 *4399:A1 9.24795e-06
12 *449:175 *547:8 4.58924e-05
*RES
1 *4749:X *547:8 42.0186 
2 *547:8 *4399:A1 40.0507 
*END

*D_NET *548 0.00120515
*CONN
*I *4083:A I *D sky130_fd_sc_hd__nand2_2
*I *4750:X O *D sky130_fd_sc_hd__dlygate4sd3_1
*CAP
1 *4083:A 0
2 *4750:X 0.000424727
3 *548:10 0.000424727
4 *548:10 *3879:A 0
5 *548:10 *3880:C 0.00021382
6 *548:10 *4483:RESET_B 0
7 *548:10 *614:8 0
8 *548:10 *1004:10 0.000141879
*RES
1 *4750:X *548:10 46.1614 
2 *548:10 *4083:A 38 
*END

*D_NET *549 0.00124294
*CONN
*I *3839:A I *D sky130_fd_sc_hd__inv_2
*I *4071:B1 I *D sky130_fd_sc_hd__a31o_2
*I *4751:X O *D sky130_fd_sc_hd__dlygate4sd3_1
*CAP
1 *3839:A 2.34823e-05
2 *4071:B1 0.00025786
3 *4751:X 2.23743e-05
4 *549:6 0.000303717
5 *4071:B1 *4072:A1 7.75654e-05
6 *549:6 *4072:A1 2.30292e-05
7 *4071:A2 *4071:B1 0.000267167
8 *4072:C1 *4071:B1 0.000230604
9 *54:10 *4071:B1 3.71369e-05
*RES
1 *4751:X *549:6 23.6214 
2 *549:6 *4071:B1 29.815 
3 *549:6 *3839:A 23.4971 
*END

*D_NET *550 0.00102243
*CONN
*I *4400:D I *D sky130_fd_sc_hd__dfrtp_2
*I *4752:X O *D sky130_fd_sc_hd__dlygate4sd3_1
*CAP
1 *4400:D 0.000238307
2 *4752:X 0.000150977
3 *550:8 0.000389284
4 *90:10 *4400:D 0.000139717
5 *102:34 *550:8 0
6 *166:10 *550:8 0.000104143
*RES
1 *4752:X *550:8 40.9621 
2 *550:8 *4400:D 41.0709 
*END

*D_NET *551 0.000315768
*CONN
*I *4062:A I *D sky130_fd_sc_hd__and2_2
*I *4753:X O *D sky130_fd_sc_hd__dlygate4sd3_1
*CAP
1 *4062:A 9.22321e-05
2 *4753:X 9.22321e-05
3 *4062:A *714:63 0.000131304
*RES
1 *4753:X *4062:A 48.5271 
*END

*D_NET *552 0.00229872
*CONN
*I *4048:A I *D sky130_fd_sc_hd__and2_2
*I *4754:X O *D sky130_fd_sc_hd__dlygate4sd3_1
*CAP
1 *4048:A 0.000217269
2 *4754:X 0.000498727
3 *552:8 0.000715996
4 *4048:A *642:26 0.00017092
5 *4048:A *714:10 0
6 *552:8 *714:61 0.000695805
7 *39:8 *4048:A 0
*RES
1 *4754:X *552:8 45.7679 
2 *552:8 *4048:A 42.7229 
*END

*D_NET *553 0.0149423
*CONN
*I *4152:A2 I *D sky130_fd_sc_hd__o21ai_2
*I *4196:A1 I *D sky130_fd_sc_hd__o21ai_2
*I *4199:A1 I *D sky130_fd_sc_hd__o21ai_2
*I *4163:A1 I *D sky130_fd_sc_hd__o21ai_2
*I *4165:A1 I *D sky130_fd_sc_hd__o21ai_2
*I *4160:A1 I *D sky130_fd_sc_hd__o21ai_2
*I *4157:A1 I *D sky130_fd_sc_hd__o21ai_2
*I *4155:A1 I *D sky130_fd_sc_hd__o21ai_2
*I *4660:X O *D sky130_fd_sc_hd__clkdlybuf4s25_1
*CAP
1 *4152:A2 0
2 *4196:A1 0.000900619
3 *4199:A1 0.000597663
4 *4163:A1 4.01155e-05
5 *4165:A1 0
6 *4160:A1 0.000152895
7 *4157:A1 0.000228726
8 *4155:A1 0
9 *4660:X 0.000484628
10 *553:81 0.00280115
11 *553:67 0.000460994
12 *553:59 0.00150627
13 *553:42 0.0015898
14 *553:38 0.00173462
15 *553:27 0.000490377
16 *553:16 0.000468
17 *553:10 0.000690977
18 *4160:A1 *4157:B1 1.58805e-05
19 *4160:A1 *4160:B1 5.50049e-05
20 *4160:A1 *653:36 5.79413e-06
21 *4160:A1 *653:38 7.82751e-05
22 *4160:A1 *843:29 0
23 *4196:A1 *812:8 2.33476e-05
24 *553:10 *4531:RESET_B 9.98788e-05
25 *553:10 *4660:A 0
26 *553:10 *805:10 0
27 *553:10 *816:10 0
28 *553:10 *827:10 0
29 *553:16 *4152:B1 0
30 *553:16 *816:10 0
31 *553:27 *4155:B1 5.50049e-05
32 *553:27 *653:70 0.000430295
33 *553:59 *653:36 8.86898e-05
34 *553:59 *843:14 0.000392386
35 *553:59 *843:29 4.17736e-05
36 *553:67 *4163:B1 2.18506e-05
37 *553:67 *821:10 9.58714e-05
38 *553:67 *843:52 4.2361e-05
39 *3:14 *553:67 0
40 *229:6 *553:27 1.56762e-05
41 *229:16 *553:16 2.93845e-05
42 *229:16 *553:27 2.93747e-05
43 *229:27 *553:16 3.0647e-05
44 *229:27 *553:27 0.000203919
45 *230:27 *553:59 0.000114431
46 *319:10 *4157:A1 0.000605255
47 *319:10 *553:27 1.12695e-05
48 *320:8 *4157:A1 0.000153824
49 *320:8 *553:27 2.8314e-06
50 *342:22 *4199:A1 0
51 *346:14 *4199:A1 0
52 *473:16 *4157:A1 0.000141888
53 *474:82 *4196:A1 1.05658e-05
*RES
1 *4660:X *553:10 46.99 
2 *553:10 *553:16 18.5836 
3 *553:16 *4155:A1 23 
4 *553:16 *553:27 22.5296 
5 *553:27 *4157:A1 46.0682 
6 *553:27 *553:38 8 
7 *553:38 *553:42 9.25813 
8 *553:42 *4160:A1 41.4075 
9 *553:42 *553:59 30.4425 
10 *553:59 *553:67 36.3386 
11 *553:67 *4165:A1 23 
12 *553:59 *4163:A1 23.8493 
13 *553:38 *553:81 2.67493 
14 *553:81 *4199:A1 47.5524 
15 *553:81 *4196:A1 48.0515 
16 *553:10 *4152:A2 38 
*END

*D_NET *554 0.000652447
*CONN
*I *4380:A2 I *D sky130_fd_sc_hd__a31o_2
*I *4755:X O *D sky130_fd_sc_hd__dlygate4sd3_1
*CAP
1 *4380:A2 0
2 *4755:X 0.00018362
3 *554:10 0.00018362
4 *554:10 *939:50 3.71369e-05
5 *554:10 *1023:29 1.14452e-05
6 *4380:A3 *554:10 1.22803e-05
7 *72:10 *554:10 0
8 *433:42 *554:10 0.000224345
*RES
1 *4755:X *554:10 42.06 
2 *554:10 *4380:A2 38 
*END

*D_NET *555 0.000925424
*CONN
*I *4434:D I *D sky130_fd_sc_hd__dfrtp_2
*I *4756:X O *D sky130_fd_sc_hd__dlygate4sd3_1
*CAP
1 *4434:D 0
2 *4756:X 0.000441532
3 *555:10 0.000441532
4 *555:10 *689:12 4.2361e-05
*RES
1 *4756:X *555:10 44.3386 
2 *555:10 *4434:D 38 
*END

*D_NET *556 0.00158437
*CONN
*I *3949:A1 I *D sky130_fd_sc_hd__a21o_2
*I *4757:X O *D sky130_fd_sc_hd__dlygate4sd3_1
*CAP
1 *3949:A1 0.000304615
2 *4757:X 0.00023077
3 *556:8 0.000535384
4 *556:8 *742:84 7.91323e-05
5 *3949:B1 *3949:A1 2.50118e-05
6 *110:6 *3949:A1 0.000409459
*RES
1 *4757:X *556:8 42.7229 
2 *556:8 *3949:A1 42.9093 
*END

*D_NET *557 0.00054997
*CONN
*I *4382:A2 I *D sky130_fd_sc_hd__a31o_2
*I *4758:X O *D sky130_fd_sc_hd__dlygate4sd3_1
*CAP
1 *4382:A2 0
2 *4758:X 0.000261035
3 *557:10 0.000261035
4 *557:10 *650:85 2.79004e-05
5 *73:10 *557:10 0
*RES
1 *4758:X *557:10 41.7286 
2 *557:10 *4382:A2 38 
*END

*D_NET *558 0.00094409
*CONN
*I *4061:A I *D sky130_fd_sc_hd__and2_2
*I *4759:X O *D sky130_fd_sc_hd__dlygate4sd3_1
*CAP
1 *4061:A 7.98764e-05
2 *4759:X 0.000217401
3 *558:10 0.000297277
4 *4061:A *714:63 2.18409e-05
5 *4055:B *558:10 0
6 *4062:B *4061:A 0.000187129
7 *4623:A *558:10 5.70419e-05
8 *48:10 *4061:A 5.41385e-05
9 *48:10 *558:10 0
10 *462:12 *558:10 2.93845e-05
11 *469:60 *558:10 0
*RES
1 *4759:X *558:10 41.48 
2 *558:10 *4061:A 40.5271 
*END

*D_NET *559 0.00172096
*CONN
*I *3926:B2 I *D sky130_fd_sc_hd__a22o_2
*I *4760:X O *D sky130_fd_sc_hd__dlygate4sd3_1
*CAP
1 *3926:B2 9.01891e-05
2 *4760:X 0.000415138
3 *559:10 0.000505327
4 *3926:B2 *713:31 3.20742e-05
5 *3926:B2 *745:50 0.000135014
6 *559:10 *592:10 0.000296017
7 *559:10 *745:50 3.43144e-05
8 *4453:D *559:10 0.000116321
9 *33:10 *559:10 2.98648e-05
10 *154:31 *559:10 6.17437e-06
11 *476:68 *559:10 3.11916e-05
12 *476:80 *3926:B2 2.93335e-05
*RES
1 *4760:X *559:10 46.2857 
2 *559:10 *3926:B2 40.0714 
*END

*D_NET *560 0.0015486
*CONN
*I *4071:A1 I *D sky130_fd_sc_hd__a31o_2
*I *4761:X O *D sky130_fd_sc_hd__dlygate4sd3_1
*CAP
1 *4071:A1 0
2 *4761:X 0.000485026
3 *560:10 0.000485026
4 *560:10 *669:82 0.000140944
5 *560:10 *757:12 0
6 *53:10 *560:10 0.000103521
7 *269:10 *560:10 2.08324e-05
8 *499:14 *560:10 0.000313255
*RES
1 *4761:X *560:10 47.2593 
2 *560:10 *4071:A1 38 
*END

*D_NET *561 0.000428485
*CONN
*I *4384:A2 I *D sky130_fd_sc_hd__a31o_2
*I *4762:X O *D sky130_fd_sc_hd__dlygate4sd3_1
*CAP
1 *4384:A2 0.000132939
2 *4762:X 0.000132939
3 *4384:B1 *4384:A2 5.50106e-05
4 *4435:CLK *4384:A2 5.50106e-05
5 *75:10 *4384:A2 5.25848e-05
*RES
1 *4762:X *4384:A2 48.9 
*END

*D_NET *562 0.000446618
*CONN
*I *3938:A1 I *D sky130_fd_sc_hd__a22o_2
*I *4763:X O *D sky130_fd_sc_hd__dlygate4sd3_1
*CAP
1 *3938:A1 0.000171028
2 *4763:X 0.000171028
3 *3938:A1 *3867:C 4.75206e-05
4 *3938:B2 *3938:A1 5.70419e-05
*RES
1 *4763:X *3938:A1 49.3764 
*END

*D_NET *563 0.00128173
*CONN
*I *4374:A2 I *D sky130_fd_sc_hd__a31o_2
*I *4764:X O *D sky130_fd_sc_hd__dlygate4sd3_1
*CAP
1 *4374:A2 0.000413496
2 *4764:X 0.000141624
3 *563:8 0.000555121
4 *4374:A2 *716:69 7.30054e-05
5 *563:8 *4432:RESET_B 0
6 *563:8 *1014:12 0
7 *4374:B1 *4374:A2 9.84794e-05
*RES
1 *4764:X *563:8 40.61 
2 *563:8 *4374:A2 44.8357 
*END

*D_NET *564 0.0139088
*CONN
*I *4660:A I *D sky130_fd_sc_hd__clkdlybuf4s25_1
*I *4203:A1 I *D sky130_fd_sc_hd__o21ai_2
*I *4201:A1 I *D sky130_fd_sc_hd__o21ai_2
*I *4192:A1 I *D sky130_fd_sc_hd__o21ai_2
*I *4189:A1 I *D sky130_fd_sc_hd__o21ai_2
*I *4187:A1 I *D sky130_fd_sc_hd__o21ai_2
*I *4659:A I *D sky130_fd_sc_hd__clkdlybuf4s25_1
*I *4661:X O *D sky130_fd_sc_hd__clkdlybuf4s25_1
*CAP
1 *4660:A 0.000363435
2 *4203:A1 0
3 *4201:A1 0.000163336
4 *4192:A1 0.000194481
5 *4189:A1 5.24593e-05
6 *4187:A1 0
7 *4659:A 0
8 *4661:X 0.000418675
9 *564:110 0.00131159
10 *564:95 0.00107329
11 *564:61 0.00060889
12 *564:38 0.000810373
13 *564:30 0.000477187
14 *564:26 0.000945374
15 *564:20 0.00155894
16 *564:14 0.00126075
17 *564:10 0.000686336
18 *4189:A1 *655:54 5.40337e-05
19 *4192:A1 *4192:B1 0.000128106
20 *4201:A1 *654:16 0.000273281
21 *4660:A *4531:RESET_B 9.95713e-05
22 *4660:A *4552:RESET_B 0
23 *4660:A *805:10 0
24 *564:10 *815:12 6.17437e-06
25 *564:20 *654:16 0.000194657
26 *564:20 *655:40 0.000159188
27 *564:20 *655:76 0.000114645
28 *564:26 *4192:B1 2.02872e-05
29 *564:26 *654:16 1.19796e-05
30 *564:26 *655:46 2.64616e-05
31 *564:26 *655:54 6.25829e-05
32 *564:30 *655:54 0.000381988
33 *564:30 *804:8 1.39826e-05
34 *564:38 *4544:RESET_B 0.000232289
35 *564:38 *656:8 0.000168524
36 *564:38 *804:8 0.000222802
37 *564:61 *4544:RESET_B 0.000130971
38 *564:61 *652:79 0.000144766
39 *564:61 *810:10 3.52031e-05
40 *564:95 *655:76 0
41 *564:95 *840:33 7.28927e-05
42 *564:110 *4153:B 4.6595e-05
43 *564:110 *4203:B1 2.60332e-05
44 *564:110 *805:10 0.000228903
45 *564:110 *827:55 1.14876e-05
46 *564:110 *840:33 0.000182019
47 *4545:CLK *564:61 0.0001366
48 *4626:A *564:20 0
49 *93:10 *564:95 0
50 *236:10 *4189:A1 0.000191255
51 *236:80 *564:26 0
52 *243:12 *564:10 5.40337e-05
53 *342:22 *564:20 0.000241465
54 *347:10 *564:26 0
55 *348:22 *564:110 9.90608e-06
56 *464:10 *564:10 7.461e-05
57 *464:10 *564:20 0
58 *464:10 *564:110 0
59 *474:16 *4201:A1 3.18142e-05
60 *474:16 *564:20 9.98995e-05
61 *474:16 *564:26 4.43614e-05
62 *475:58 *4660:A 5.03449e-05
63 *553:10 *4660:A 0
*RES
1 *4661:X *564:10 44.6907 
2 *564:10 *564:14 18.0036 
3 *564:14 *564:20 32.9386 
4 *564:20 *564:26 25.0464 
5 *564:26 *564:30 20.7793 
6 *564:30 *564:38 21.1107 
7 *564:38 *4659:A 23 
8 *564:38 *564:61 40.585 
9 *564:61 *4187:A1 23 
10 *564:30 *4189:A1 40.0507 
11 *564:26 *4192:A1 26.48 
12 *564:20 *4201:A1 41.9564 
13 *564:14 *564:95 16.9057 
14 *564:95 *4203:A1 38 
15 *564:95 *564:110 43.2571 
16 *564:110 *4660:A 45.8921 
*END

*D_NET *565 0.000815159
*CONN
*I *4372:A2 I *D sky130_fd_sc_hd__a31o_2
*I *4765:X O *D sky130_fd_sc_hd__dlygate4sd3_1
*CAP
1 *4372:A2 0
2 *4765:X 0.000379059
3 *565:12 0.000379059
4 *565:12 *4373:A 5.70419e-05
*RES
1 *4765:X *565:12 29.8771 
2 *565:12 *4372:A2 23 
*END

*D_NET *566 0.000540192
*CONN
*I *4378:A2 I *D sky130_fd_sc_hd__a31o_2
*I *4766:X O *D sky130_fd_sc_hd__dlygate4sd3_1
*CAP
1 *4378:A2 0
2 *4766:X 0.000219983
3 *566:10 0.000219983
4 *566:10 *4378:A1 1.14452e-05
5 *566:10 *4434:RESET_B 2.79004e-05
6 *566:10 *4766:A 1.32289e-05
7 *566:10 *689:12 2.11887e-05
8 *4434:CLK *566:10 2.64616e-05
*RES
1 *4766:X *566:10 41.2521 
2 *566:10 *4378:A2 38 
*END

*D_NET *567 0.000844704
*CONN
*I *4386:A2 I *D sky130_fd_sc_hd__a31o_2
*I *4767:X O *D sky130_fd_sc_hd__dlygate4sd3_1
*CAP
1 *4386:A2 1.19863e-05
2 *4767:X 0.000229482
3 *567:10 0.000241468
4 *567:10 *4384:A3 9.168e-05
5 *567:10 *4386:A1 6.64442e-05
6 *567:10 *651:16 3.92407e-05
7 *4386:B1 *567:10 1.14876e-05
8 *4596:CLK *4386:A2 7.50016e-06
9 *4596:CLK *567:10 0.000137651
10 *489:27 *567:10 7.76364e-06
*RES
1 *4767:X *567:10 41.6043 
2 *567:10 *4386:A2 38.1968 
*END

*D_NET *568 0.00183199
*CONN
*I *4388:A2 I *D sky130_fd_sc_hd__a31o_2
*I *4389:B2 I *D sky130_fd_sc_hd__a2bb2o_2
*I *4768:X O *D sky130_fd_sc_hd__dlygate4sd3_1
*CAP
1 *4388:A2 0.000119702
2 *4389:B2 0
3 *4768:X 0.000443981
4 *568:10 0.000324279
5 *4388:A2 *4388:A1 0.000141954
6 *4388:A2 *716:65 8.43466e-05
7 *568:10 *716:65 2.13054e-05
8 *568:10 *1021:10 8.4047e-05
9 *568:10 *1023:29 0.000146608
10 *4388:B1 *4388:A2 0.00014196
11 *4438:CLK *4388:A2 0
12 *433:14 *568:10 0.000323803
*RES
1 *4768:X *568:10 44.8979 
2 *568:10 *4389:B2 38 
3 *4768:X *4388:A2 49.5007 
*END

*D_NET *569 0.00149146
*CONN
*I *4376:A2 I *D sky130_fd_sc_hd__a31o_2
*I *4769:X O *D sky130_fd_sc_hd__dlygate4sd3_1
*CAP
1 *4376:A2 0
2 *4769:X 0.000417055
3 *569:10 0.000417055
4 *569:10 *4378:A3 0.000296026
5 *569:10 *4434:RESET_B 0.000194327
6 *569:10 *689:12 0.000119477
7 *433:42 *569:10 4.75206e-05
8 *438:10 *569:10 0
*RES
1 *4769:X *569:10 45.975 
2 *569:10 *4376:A2 38 
*END

*D_NET *570 0.00115634
*CONN
*I *4076:A I *D sky130_fd_sc_hd__nor2_2
*I *4770:X O *D sky130_fd_sc_hd__dlygate4sd3_1
*CAP
1 *4076:A 0
2 *4770:X 0.000366838
3 *570:10 0.000366838
4 *570:10 *4479:RESET_B 0
5 *570:10 *701:37 0.000252131
6 *4479:CLK *570:10 5.50049e-05
7 *272:28 *570:10 0.000115529
*RES
1 *4770:X *570:10 46.5136 
2 *570:10 *4076:A 38 
*END

*D_NET *571 0.00263907
*CONN
*I *4360:B2 I *D sky130_fd_sc_hd__a22o_2
*I *4771:X O *D sky130_fd_sc_hd__dlygate4sd3_1
*CAP
1 *4360:B2 0.000314837
2 *4771:X 0.000243837
3 *571:8 0.000558673
4 *4360:B2 *4360:A1 9.67842e-05
5 *4360:B2 *669:16 0.00044107
6 *4360:B2 *669:27 0.000119313
7 *571:8 *4409:RESET_B 1.22906e-05
8 *571:8 *669:27 0.000328236
9 *571:8 *669:46 1.38978e-05
10 *3915:A1 *571:8 1.01436e-05
11 *4151:A *4360:B2 9.84794e-05
12 *4151:A *571:8 0
13 *4360:A2 *4360:B2 0.000245202
14 *4360:B1 *4360:B2 1.98161e-05
15 *107:92 *571:8 0
16 *500:10 *571:8 0.000136486
*RES
1 *4771:X *571:8 43.4271 
2 *571:8 *4360:B2 47.6943 
*END

*D_NET *572 0.000535619
*CONN
*I *3863:A2 I *D sky130_fd_sc_hd__o21ba_2
*I *4772:X O *D sky130_fd_sc_hd__dlygate4sd3_1
*CAP
1 *3863:A2 0
2 *4772:X 0.000247224
3 *572:10 0.000247224
4 *572:10 *4531:RESET_B 0
5 *107:111 *572:10 0
6 *107:128 *572:10 4.117e-05
*RES
1 *4772:X *572:10 41.8321 
2 *572:10 *3863:A2 38 
*END

*D_NET *573 0.00196096
*CONN
*I *4058:A1 I *D sky130_fd_sc_hd__a31o_2
*I *4773:X O *D sky130_fd_sc_hd__dlygate4sd3_1
*CAP
1 *4058:A1 0.000349849
2 *4773:X 0.000319034
3 *573:8 0.000668883
4 *4058:A1 *714:63 0.000530622
5 *573:8 *4706:A 5.94125e-05
6 *573:8 *687:24 1.0092e-05
7 *449:27 *573:8 2.30661e-05
8 *470:64 *573:8 0
*RES
1 *4773:X *573:8 43.7793 
2 *573:8 *4058:A1 43.8621 
*END

*D_NET *574 0.00259583
*CONN
*I *3868:B1 I *D sky130_fd_sc_hd__o21a_2
*I *4774:X O *D sky130_fd_sc_hd__dlygate4sd3_1
*CAP
1 *3868:B1 0.000384221
2 *4774:X 0.000177463
3 *574:8 0.000561685
4 *3865:A *574:8 6.32694e-05
5 *3868:A2 *3868:B1 9.67842e-05
6 *3952:B1 *3868:B1 0.000241815
7 *22:10 *3868:B1 0.000271408
8 *22:10 *574:8 0.00036048
9 *100:14 *574:8 6.7177e-06
10 *101:8 *574:8 0.00032829
11 *172:14 *3868:B1 1.40958e-05
12 *541:42 *3868:B1 8.96016e-05
*RES
1 *4774:X *574:8 43.4271 
2 *574:8 *3868:B1 46.8864 
*END

*D_NET *575 0.0108266
*CONN
*I *4227:A1 I *D sky130_fd_sc_hd__o21ai_2
*I *4232:A1 I *D sky130_fd_sc_hd__o21ai_2
*I *4235:A1 I *D sky130_fd_sc_hd__o21ai_2
*I *4237:A1 I *D sky130_fd_sc_hd__o21ai_2
*I *4229:A1 I *D sky130_fd_sc_hd__o21ai_2
*I *4224:A1 I *D sky130_fd_sc_hd__o21ai_2
*I *4219:A1 I *D sky130_fd_sc_hd__o21ai_2
*I *4221:A1 I *D sky130_fd_sc_hd__o21ai_2
*I *4662:X O *D sky130_fd_sc_hd__clkdlybuf4s25_1
*CAP
1 *4227:A1 0
2 *4232:A1 0
3 *4235:A1 7.38376e-05
4 *4237:A1 0.000209189
5 *4229:A1 0
6 *4224:A1 0
7 *4219:A1 0.000543741
8 *4221:A1 0.000188455
9 *4662:X 0.00074075
10 *575:97 0.000321561
11 *575:85 0.000568072
12 *575:53 0.000624403
13 *575:24 0.000718752
14 *575:18 0.000438798
15 *575:16 0.00089502
16 *575:14 0.000713812
17 *575:8 0.000611202
18 *4219:A1 *866:18 8.48502e-06
19 *4221:A1 *4221:B1 5.35934e-05
20 *4221:A1 *661:22 6.45006e-05
21 *4221:A1 *867:8 0.000137744
22 *4235:A1 *586:43 0.00026757
23 *4235:A1 *851:8 0.000249918
24 *4237:A1 *852:10 2.93747e-05
25 *575:14 *586:43 0.000141869
26 *575:14 *661:12 0
27 *575:14 *661:18 0
28 *575:14 *851:8 0.000296017
29 *575:16 *661:18 0
30 *575:18 *4002:C 0
31 *575:18 *661:18 0
32 *575:18 *661:22 1.7992e-05
33 *575:18 *661:59 4.34173e-05
34 *575:24 *4002:C 0
35 *575:24 *661:22 0.000104952
36 *575:24 *866:18 0.000110267
37 *575:53 *4003:A 2.94787e-05
38 *575:53 *4229:B1 5.40241e-05
39 *575:53 *661:59 0.00057349
40 *575:97 *4227:B1 0.000587532
41 *575:97 *866:18 5.82853e-05
42 *575:97 *869:10 2.46906e-05
43 *4219:A2 *4219:A1 0.000230718
44 *4232:A2 *575:85 0.000218442
45 *4234:A *575:14 6.61054e-05
46 *4515:CLK *4219:A1 7.17698e-05
47 *4651:A *575:8 5.79715e-05
48 *4651:A *575:85 9.84794e-05
49 *217:10 *575:24 5.72633e-05
50 *217:18 *4221:A1 0.000112322
51 *217:18 *575:24 1.00286e-05
52 *218:56 *575:53 0.000168744
53 *220:38 *4235:A1 1.02387e-05
54 *357:16 *4221:A1 8.52094e-06
55 *359:12 *575:18 0
56 *360:10 *575:18 0.000140958
57 *477:20 *575:14 0
58 *477:24 *575:14 7.42471e-05
59 *477:24 *575:16 0
60 *477:24 *575:18 0
*RES
1 *4662:X *575:8 40.0507 
2 *575:8 *575:14 9.135 
3 *575:14 *575:16 2.61 
4 *575:16 *575:18 3.31429 
5 *575:18 *575:24 6.54571 
6 *575:24 *4221:A1 43.4271 
7 *575:24 *4219:A1 42.4329 
8 *575:18 *4224:A1 38 
9 *575:16 *575:53 29.9143 
10 *575:53 *4229:A1 23 
11 *575:14 *4237:A1 41.48 
12 *575:8 *4235:A1 41.6664 
13 *4662:X *575:85 33.6471 
14 *575:85 *4232:A1 23 
15 *4219:A1 *575:97 31.2443 
16 *575:97 *4227:A1 23 
*END

*D_NET *576 0.00123303
*CONN
*I *4413:D I *D sky130_fd_sc_hd__dfrtp_2
*I *4775:X O *D sky130_fd_sc_hd__dlygate4sd3_1
*CAP
1 *4413:D 8.22264e-05
2 *4775:X 0.000386017
3 *576:18 0.000468243
4 *4413:D *4408:RESET_B 0.000106277
5 *576:18 *4413:RESET_B 5.80772e-05
6 *576:18 *984:42 7.42327e-05
7 *528:57 *576:18 5.79559e-05
*RES
1 *4775:X *576:18 45.2293 
2 *576:18 *4413:D 40.0507 
*END

*D_NET *577 0.000791384
*CONN
*I *4208:A1 I *D sky130_fd_sc_hd__o21ai_2
*I *4776:X O *D sky130_fd_sc_hd__dlygate4sd3_1
*CAP
1 *4208:A1 0
2 *4776:X 0.000298076
3 *577:6 0.000298076
4 *577:6 *4214:B1 2.95423e-05
5 *577:6 *872:14 8.46544e-05
6 *577:6 *872:24 2.95526e-05
7 *354:8 *577:6 5.14826e-05
*RES
1 *4776:X *577:6 28.3857 
2 *577:6 *4208:A1 23 
*END

*D_NET *578 0.000523468
*CONN
*I *4152:A1 I *D sky130_fd_sc_hd__o21ai_2
*I *4777:X O *D sky130_fd_sc_hd__dlygate4sd3_1
*CAP
1 *4152:A1 4.795e-05
2 *4777:X 4.795e-05
3 *4152:A1 *4152:B1 0.000141954
4 *4152:A1 *4153:B 0.000230604
5 *4152:A1 *827:55 5.50106e-05
*RES
1 *4777:X *4152:A1 48.5271 
*END

*D_NET *579 0.000641903
*CONN
*I *4306:A I *D sky130_fd_sc_hd__and2_2
*I *4305:A0 I *D sky130_fd_sc_hd__mux2_1
*I *4778:X O *D sky130_fd_sc_hd__dlygate4sd3_1
*CAP
1 *4306:A 0
2 *4305:A0 0
3 *4778:X 0.00013313
4 *579:12 9.81299e-05
5 *579:6 0.00023126
6 *579:12 *4508:RESET_B 6.11286e-05
7 *213:12 *579:12 1.83564e-05
8 *213:20 *579:12 9.98995e-05
*RES
1 *4778:X *579:6 25.0507 
2 *579:6 *579:12 32.9621 
3 *579:12 *4305:A0 23 
4 *579:6 *4306:A 23 
*END

*D_NET *580 0.00411668
*CONN
*I *3891:A1 I *D sky130_fd_sc_hd__a21o_2
*I *3887:A1 I *D sky130_fd_sc_hd__a22o_2
*I *4779:X O *D sky130_fd_sc_hd__dlygate4sd3_1
*CAP
1 *3891:A1 0.000471799
2 *3887:A1 0
3 *4779:X 6.27375e-05
4 *580:16 0.000976996
5 *580:8 0.00151153
6 *3891:A1 *4733:A 1.41077e-05
7 *3891:A1 *710:10 5.09885e-05
8 *3891:A1 *1022:59 0
9 *3891:A1 *1024:29 6.84465e-05
10 *3891:A1 *1024:44 4.16442e-05
11 *580:16 *715:16 2.95423e-05
12 *580:16 *1024:29 2.14486e-05
13 *3890:B *580:16 4.98398e-05
14 *114:61 *580:16 7.17698e-05
15 *122:8 *3891:A1 5.3304e-05
16 *122:16 *3891:A1 6.16439e-05
17 *123:55 *580:16 1.39988e-05
18 *270:12 *3891:A1 0.000176092
19 *270:23 *3891:A1 0.00035717
20 *270:23 *580:16 8.36198e-05
21 *486:8 *3891:A1 0
22 *486:10 *3891:A1 0
*RES
1 *4779:X *580:8 38.6214 
2 *580:8 *580:16 27.8014 
3 *580:16 *3887:A1 23 
4 *580:8 *3891:A1 49.455 
*END

*D_NET *581 0.00111013
*CONN
*I *4095:A1 I *D sky130_fd_sc_hd__o21ai_2
*I *4780:X O *D sky130_fd_sc_hd__dlygate4sd3_1
*CAP
1 *4095:A1 0
2 *4780:X 0.000487316
3 *581:10 0.000487316
4 *581:10 *711:12 8.98616e-05
5 *581:10 *711:23 1.33487e-05
6 *478:12 *581:10 0
7 *531:6 *581:10 3.22879e-05
*RES
1 *4780:X *581:10 45.2914 
2 *581:10 *4095:A1 38 
*END

*D_NET *582 0.0038676
*CONN
*I *4347:A0 I *D sky130_fd_sc_hd__mux2_1
*I *4348:A I *D sky130_fd_sc_hd__and2_2
*I *4781:X O *D sky130_fd_sc_hd__dlygate4sd3_1
*CAP
1 *4347:A0 0.000361265
2 *4348:A 0.000214371
3 *4781:X 0.000452175
4 *582:8 0.00102781
5 *4348:A *4595:RESET_B 0.000135557
6 *4348:A *4781:A 0
7 *4348:A *939:40 0.000397596
8 *582:8 *4595:RESET_B 9.29579e-06
9 *582:8 *974:8 9.97387e-06
10 *4347:S *4347:A0 0.000348004
11 *4348:B *4348:A 0.000355822
12 *4437:CLK *4348:A 0
13 *191:10 *4347:A0 7.48331e-05
14 *191:10 *4348:A 0.00024897
15 *425:14 *4347:A0 0.000231932
*RES
1 *4781:X *582:8 43.8621 
2 *582:8 *4348:A 46.2443 
3 *582:8 *4347:A0 46.3271 
*END

*D_NET *583 0.0035696
*CONN
*I *3950:B2 I *D sky130_fd_sc_hd__a32o_2
*I *3945:A2 I *D sky130_fd_sc_hd__a32o_2
*I *4782:X O *D sky130_fd_sc_hd__dlygate4sd3_1
*CAP
1 *3950:B2 0
2 *3945:A2 0
3 *4782:X 0.000125043
4 *583:16 0.000632093
5 *583:10 0.000757136
6 *583:10 *742:41 0.000114092
7 *583:16 *3945:A1 7.55668e-05
8 *583:16 *3945:A3 0.000326319
9 *583:16 *4410:RESET_B 0
10 *583:16 *4714:A 5.50106e-05
11 *583:16 *664:43 0.000151927
12 *583:16 *664:45 6.03737e-05
13 *3921:A2 *583:16 0
14 *3925:A2 *583:16 0.00078054
15 *4782:A *583:10 0
16 *4782:A *583:16 0
17 *21:10 *583:16 0.000429772
18 *104:16 *583:10 5.50106e-05
19 *104:24 *583:10 3.95159e-06
20 *104:24 *583:16 2.76611e-06
21 *153:8 *583:16 0
22 *528:57 *583:10 0
*RES
1 *4782:X *583:10 40.5271 
2 *583:10 *583:16 34.14 
3 *583:16 *3945:A2 23 
4 *583:10 *3950:B2 38 
*END

*D_NET *584 0.00555857
*CONN
*I *3939:B2 I *D sky130_fd_sc_hd__a32o_2
*I *3934:A2 I *D sky130_fd_sc_hd__a32o_2
*I *4783:X O *D sky130_fd_sc_hd__dlygate4sd3_1
*CAP
1 *3939:B2 0.000182865
2 *3934:A2 0
3 *4783:X 0.000560627
4 *584:16 0.0010588
5 *584:10 0.00180229
6 *584:10 *713:12 0.000196832
7 *584:16 *3934:A1 0.000348905
8 *584:16 *713:12 0.000189081
9 *584:16 *743:23 0.000167443
10 *3925:A3 *584:16 0.000432345
11 *88:24 *3939:B2 0.000115331
12 *104:6 *584:10 0.000265362
13 *104:16 *584:10 0.000183733
14 *104:38 *584:10 0
15 *104:38 *584:16 0
16 *104:40 *584:16 0
17 *104:78 *584:16 4.75206e-05
18 *157:10 *584:16 7.44161e-06
*RES
1 *4783:X *584:10 48.3364 
2 *584:10 *584:16 32.8143 
3 *584:16 *3934:A2 23 
4 *584:10 *3939:B2 41.48 
*END

*D_NET *585 0.00262406
*CONN
*I *3952:A1 I *D sky130_fd_sc_hd__a21o_2
*I *4784:X O *D sky130_fd_sc_hd__dlygate4sd3_1
*CAP
1 *3952:A1 0.000325063
2 *4784:X 0.00029614
3 *585:8 0.000621203
4 *22:10 *3952:A1 1.41077e-05
5 *89:23 *585:8 4.41821e-06
6 *89:36 *585:8 0.000330569
7 *108:10 *3952:A1 1.32939e-05
8 *172:14 *3952:A1 0.000308635
9 *172:14 *585:8 0.000710629
*RES
1 *4784:X *585:8 47.6529 
2 *585:8 *3952:A1 42.4329 
*END

*D_NET *586 0.00681156
*CONN
*I *4248:A1 I *D sky130_fd_sc_hd__o21ai_2
*I *4240:A1 I *D sky130_fd_sc_hd__o21ai_2
*I *4243:A1 I *D sky130_fd_sc_hd__o21ai_2
*I *4245:A1 I *D sky130_fd_sc_hd__o21ai_2
*I *4663:X O *D sky130_fd_sc_hd__clkdlybuf4s25_1
*CAP
1 *4248:A1 0.000250659
2 *4240:A1 0
3 *4243:A1 3.3043e-05
4 *4245:A1 6.88628e-05
5 *4663:X 0.000448783
6 *586:43 0.00054868
7 *586:39 0.000868202
8 *586:18 0.000490971
9 *586:6 0.000972796
10 *4243:A1 *4243:B1 2.02517e-05
11 *4248:A1 *663:16 5.70419e-05
12 *4248:A1 *663:20 2.93845e-05
13 *4248:A1 *677:33 7.01014e-05
14 *586:6 *4243:B1 0.000574102
15 *586:18 *854:8 7.03663e-05
16 *586:18 *855:10 0.000141888
17 *586:18 *877:14 0.000169674
18 *586:39 *677:14 9.27917e-05
19 *586:43 *677:14 4.78793e-05
20 *586:43 *876:37 0
21 *4234:A *586:43 0.000273353
22 *4235:A1 *586:43 0.00026757
23 *4523:CLK *586:18 0.000130212
24 *4619:A *4248:A1 9.58714e-05
25 *4630:A *586:43 0
26 *220:38 *586:43 0
27 *223:10 *586:39 0.000194327
28 *223:10 *586:43 0.000194309
29 *223:26 *586:18 8.02832e-05
30 *373:12 *586:18 6.77053e-05
31 *450:10 *586:18 0.000215086
32 *457:10 *586:6 1.95443e-05
33 *457:10 *586:18 4.04598e-06
34 *488:67 *586:18 0.000171906
35 *575:14 *586:43 0.000141869
*RES
1 *4663:X *586:6 30.2914 
2 *586:6 *586:18 43.6507 
3 *586:18 *4245:A1 23 
4 *586:6 *4243:A1 23.8493 
5 *4245:A1 *586:39 40.61 
6 *586:39 *586:43 29.2307 
7 *586:43 *4240:A1 23 
8 *586:39 *4248:A1 42.9093 
*END

*D_NET *587 0.000301285
*CONN
*I *4394:A1 I *D sky130_fd_sc_hd__a21o_2
*I *4785:X O *D sky130_fd_sc_hd__dlygate4sd3_1
*CAP
1 *4394:A1 0.00012314
2 *4785:X 0.00012314
3 *4394:A2 *4394:A1 5.50049e-05
*RES
1 *4785:X *4394:A1 48.0507 
*END

*D_NET *588 0.00110221
*CONN
*I *4367:A1 I *D sky130_fd_sc_hd__o21a_2
*I *4786:X O *D sky130_fd_sc_hd__dlygate4sd3_1
*CAP
1 *4367:A1 0
2 *4786:X 0.000287725
3 *588:10 0.000287725
4 *588:10 *598:10 0.000526765
5 *4367:A2 *588:10 0
*RES
1 *4786:X *588:10 44.6493 
2 *588:10 *4367:A1 38 
*END

*D_NET *589 7.22295e-05
*CONN
*I *4093:A I *D sky130_fd_sc_hd__and3_2
*I *4787:X O *D sky130_fd_sc_hd__dlygate4sd3_1
*CAP
1 *4093:A 3.61148e-05
2 *4787:X 3.61148e-05
*RES
1 *4787:X *4093:A 46.6214 
*END

*D_NET *590 0.000221058
*CONN
*I *4263:A1 I *D sky130_fd_sc_hd__a21bo_2
*I *4788:X O *D sky130_fd_sc_hd__dlygate4sd3_1
*CAP
1 *4263:A1 2.14044e-05
2 *4788:X 2.14044e-05
3 *4263:A1 *608:57 9.84851e-05
4 *4263:A2 *4263:A1 5.50106e-05
5 *350:12 *4263:A1 2.4754e-05
*RES
1 *4788:X *4263:A1 47.0979 
*END

*D_NET *591 0.00121432
*CONN
*I *4200:A1 I *D sky130_fd_sc_hd__a21boi_2
*I *4789:X O *D sky130_fd_sc_hd__dlygate4sd3_1
*CAP
1 *4200:A1 3.88642e-05
2 *4789:X 0.000270335
3 *591:10 0.000309199
4 *4200:A1 *4024:A 1.46205e-05
5 *591:10 *836:6 5.12254e-05
6 *591:10 *836:12 0.000171931
7 *4200:A2 *4200:A1 8.16913e-05
8 *4202:B *591:10 8.84898e-05
9 *239:14 *4200:A1 0.000187968
*RES
1 *4789:X *591:10 43.8207 
2 *591:10 *4200:A1 40.0507 
*END

*D_NET *592 0.00237387
*CONN
*I *3923:B2 I *D sky130_fd_sc_hd__a22o_2
*I *4790:X O *D sky130_fd_sc_hd__dlygate4sd3_1
*CAP
1 *3923:B2 0
2 *4790:X 0.000644496
3 *592:10 0.000644496
4 *592:10 *745:14 0
5 *4453:D *592:10 0.000344711
6 *154:31 *592:10 9.28078e-06
7 *159:12 *592:10 0.000434872
8 *559:10 *592:10 0.000296017
*RES
1 *4790:X *592:10 49.5379 
2 *592:10 *3923:B2 38 
*END

*D_NET *593 0.00148992
*CONN
*I *4206:A1 I *D sky130_fd_sc_hd__a21bo_2
*I *4791:X O *D sky130_fd_sc_hd__dlygate4sd3_1
*CAP
1 *4206:A1 3.79513e-05
2 *4791:X 0.000380784
3 *593:14 0.000418735
4 *4206:A1 *4206:B1_N 9.84851e-05
5 *593:14 *4791:A 5.12254e-05
6 *593:14 *654:8 0
7 *593:14 *654:10 6.12496e-06
8 *593:14 *696:16 0.000289187
9 *449:300 *593:14 0.000207427
*RES
1 *4791:X *593:14 47.4043 
2 *593:14 *4206:A1 39.0979 
*END

*D_NET *594 0.00217634
*CONN
*I *4150:A1 I *D sky130_fd_sc_hd__a21bo_2
*I *4792:X O *D sky130_fd_sc_hd__dlygate4sd3_1
*CAP
1 *4150:A1 0
2 *4792:X 9.45862e-05
3 *594:12 0.000659071
4 *594:8 0.000753658
5 *594:8 *4114:B1 0
6 *594:8 *660:28 0.000169683
7 *594:12 *658:20 1.37039e-05
8 *4043:B *594:8 0
9 *4631:A *594:12 0.000402806
10 *478:8 *594:12 8.2832e-05
*RES
1 *4792:X *594:8 40.2579 
2 *594:8 *594:12 28.485 
3 *594:12 *4150:A1 23 
*END

*D_NET *595 0.000400411
*CONN
*I *4358:B2 I *D sky130_fd_sc_hd__a22o_2
*I *4793:X O *D sky130_fd_sc_hd__dlygate4sd3_1
*CAP
1 *4358:B2 0
2 *4793:X 0.000125039
3 *595:10 0.000125039
4 *595:10 *695:26 7.96355e-05
5 *595:10 *743:40 9.28078e-06
6 *4358:A2 *595:10 1.05441e-05
7 *465:25 *595:10 5.08733e-05
*RES
1 *4793:X *595:10 40.8793 
2 *595:10 *4358:B2 38 
*END

*D_NET *596 0.000918286
*CONN
*I *4092:A1 I *D sky130_fd_sc_hd__a21o_2
*I *4794:X O *D sky130_fd_sc_hd__dlygate4sd3_1
*CAP
1 *4092:A1 0
2 *4794:X 0.000363721
3 *596:8 0.000363721
4 *596:8 *708:10 3.34247e-05
5 *596:8 *710:26 1.76557e-05
6 *4092:A2 *596:8 0.000139764
*RES
1 *4794:X *596:8 30.3121 
2 *596:8 *4092:A1 23 
*END

*D_NET *597 0.00976891
*CONN
*I *4257:A1 I *D sky130_fd_sc_hd__o21ai_2
*I *4254:A1 I *D sky130_fd_sc_hd__o21ai_2
*I *4208:A2 I *D sky130_fd_sc_hd__o21ai_2
*I *4213:A1 I *D sky130_fd_sc_hd__o21ai_2
*I *4216:A1 I *D sky130_fd_sc_hd__o21ai_2
*I *4211:A1 I *D sky130_fd_sc_hd__o21ai_2
*I *4013:A I *D sky130_fd_sc_hd__inv_2
*I *4252:A1 I *D sky130_fd_sc_hd__o21ai_2
*I *4664:X O *D sky130_fd_sc_hd__clkdlybuf4s25_1
*CAP
1 *4257:A1 0
2 *4254:A1 0
3 *4208:A2 4.80102e-05
4 *4213:A1 0.000225066
5 *4216:A1 0.000322594
6 *4211:A1 0.000234985
7 *4013:A 0
8 *4252:A1 0
9 *4664:X 0.000226442
10 *597:75 0.000735474
11 *597:73 0.000368043
12 *597:52 0.000523125
13 *597:43 0.000533353
14 *597:33 0.000928049
15 *597:31 0.000413889
16 *597:20 0.000579214
17 *597:10 0.000630541
18 *4208:A2 *662:40 1.24376e-05
19 *4211:A1 *4510:D 8.7817e-05
20 *4213:A1 *4511:D 5.58003e-05
21 *4216:A1 *4216:B1 0.000128746
22 *4216:A1 *662:16 4.91715e-05
23 *4216:A1 *865:8 0.000141201
24 *597:10 *608:28 3.29717e-05
25 *597:10 *859:8 0.000134009
26 *597:20 *608:28 0.000147132
27 *597:20 *858:10 0
28 *597:31 *4252:B1 0
29 *597:31 *662:14 0
30 *597:31 *858:10 0.000164282
31 *597:33 *679:23 0
32 *597:33 *679:25 0
33 *597:33 *679:34 0
34 *597:43 *4000:B 0.00024105
35 *597:43 *4000:D 5.32148e-05
36 *597:43 *679:34 0
37 *597:43 *883:10 0.00016596
38 *597:43 *886:14 6.72382e-05
39 *597:43 *886:31 0.000189903
40 *597:52 *4510:D 6.17437e-06
41 *597:52 *883:10 2.64616e-05
42 *597:73 *662:14 0.000122782
43 *597:75 *662:14 6.12392e-05
44 *597:75 *662:16 0.000311289
45 *597:75 *872:24 0.000168524
46 *4211:A2 *4211:A1 1.49641e-05
47 *4215:B *4216:A1 0
48 *4215:B *597:43 2.14599e-05
49 *4251:A_N *597:20 0
50 *4254:A2 *597:31 1.37246e-05
51 *4254:A2 *597:33 6.07611e-06
52 *4511:CLK *4213:A1 2.02872e-05
53 *4526:CLK *597:20 0
54 *215:10 *597:43 2.33782e-05
55 *215:26 *597:43 0.000141355
56 *215:32 *597:33 0.000232328
57 *215:32 *597:43 2.70366e-05
58 *215:32 *597:73 5.85885e-05
59 *216:25 *4213:A1 5.07601e-05
60 *377:10 *597:10 2.33661e-05
61 *377:10 *597:20 0.000195004
62 *378:10 *597:20 0.000382564
63 *380:14 *597:10 2.64616e-05
64 *381:10 *597:10 0.000147167
65 *492:8 *597:20 5.50106e-05
66 *492:8 *597:31 5.67058e-05
67 *492:10 *597:31 0
68 *494:66 *597:10 0.000136486
*RES
1 *4664:X *597:10 43.3443 
2 *597:10 *597:20 25.3364 
3 *597:20 *4252:A1 23 
4 *597:20 *597:31 18.7079 
5 *597:31 *597:33 6.13143 
6 *597:33 *597:43 27.035 
7 *597:43 *4013:A 23 
8 *597:33 *597:52 17.5271 
9 *597:52 *4211:A1 27.1429 
10 *597:52 *597:73 18.7286 
11 *597:73 *597:75 5.075 
12 *597:75 *4216:A1 45.25 
13 *597:75 *4213:A1 41.8529 
14 *597:73 *4208:A2 38.6214 
15 *597:31 *4254:A1 38 
16 *597:10 *4257:A1 38 
*END

*D_NET *598 0.00146956
*CONN
*I *4366:A1 I *D sky130_fd_sc_hd__o21a_2
*I *4795:X O *D sky130_fd_sc_hd__dlygate4sd3_1
*CAP
1 *4366:A1 0
2 *4795:X 0.000259462
3 *598:10 0.000259462
4 *598:10 *4476:RESET_B 0
5 *4367:A2 *598:10 0
6 *112:12 *598:10 0.000360161
7 *113:8 *598:10 6.37106e-05
8 *115:10 *598:10 0
9 *588:10 *598:10 0.000526765
*RES
1 *4795:X *598:10 46.4307 
2 *598:10 *4366:A1 38 
*END

*D_NET *599 0.00114964
*CONN
*I *3919:B2 I *D sky130_fd_sc_hd__a221o_2
*I *4796:X O *D sky130_fd_sc_hd__dlygate4sd3_1
*CAP
1 *3919:B2 4.40681e-05
2 *4796:X 0.000339758
3 *599:10 0.000383827
4 *599:10 *748:23 0
5 *3918:A *3919:B2 4.19048e-06
6 *3:14 *599:10 0.00013959
7 *107:73 *599:10 0.000153038
8 *111:99 *599:10 0
9 *150:51 *3919:B2 1.77524e-05
10 *150:51 *599:10 7.57281e-06
11 *152:24 *3919:B2 5.98466e-05
*RES
1 *4796:X *599:10 45.4571 
2 *599:10 *3919:B2 38.9995 
*END

*D_NET *600 0.000220081
*CONN
*I *4086:A1 I *D sky130_fd_sc_hd__o21ai_2
*I *4797:X O *D sky130_fd_sc_hd__dlygate4sd3_1
*CAP
1 *4086:A1 9.68095e-05
2 *4797:X 9.68095e-05
3 *4086:B1 *4086:A1 2.64616e-05
*RES
1 *4797:X *4086:A1 47.5743 
*END

*D_NET *601 0.000824305
*CONN
*I *4090:A1 I *D sky130_fd_sc_hd__a21o_2
*I *4798:X O *D sky130_fd_sc_hd__dlygate4sd3_1
*CAP
1 *4090:A1 0
2 *4798:X 0.000281368
3 *601:10 0.000281368
4 *601:10 *4481:SET_B 8.57485e-05
5 *601:10 *4484:SET_B 5.3304e-05
6 *601:10 *1005:17 3.46302e-05
7 *123:10 *601:10 8.78864e-05
*RES
1 *4798:X *601:10 42.205 
2 *601:10 *4090:A1 38 
*END

*D_NET *602 0.000898235
*CONN
*I *3870:A2 I *D sky130_fd_sc_hd__o211a_2
*I *4799:X O *D sky130_fd_sc_hd__dlygate4sd3_1
*CAP
1 *3870:A2 0.000230599
2 *4799:X 6.47839e-05
3 *602:8 0.000295383
4 *3870:B1 *3870:A2 3.91386e-05
5 *4409:CLK *3870:A2 2.18813e-05
6 *4409:D *3870:A2 5.50106e-05
7 *107:92 *602:8 3.21327e-05
8 *162:16 *602:8 0.000110922
9 *518:60 *3870:A2 4.83835e-05
*RES
1 *4799:X *602:8 39.5536 
2 *602:8 *3870:A2 41.6664 
*END

*D_NET *603 0.00172162
*CONN
*I *4072:A1 I *D sky130_fd_sc_hd__o211a_2
*I *4800:X O *D sky130_fd_sc_hd__dlygate4sd3_1
*CAP
1 *4072:A1 0.000353557
2 *4800:X 0.000140301
3 *603:10 0.000493858
4 *4071:B1 *4072:A1 7.75654e-05
5 *4072:C1 *4072:A1 0.000131304
6 *4410:CLK *603:10 0.000108681
7 *88:24 *4072:A1 0.000359326
8 *499:29 *4072:A1 7.53384e-06
9 *517:6 *603:10 2.64616e-05
10 *549:6 *4072:A1 2.30292e-05
*RES
1 *4800:X *603:10 40.175 
2 *603:10 *4072:A1 47.0988 
*END

*D_NET *604 0.00103118
*CONN
*I *4291:A I *D sky130_fd_sc_hd__nand2_2
*I *4801:X O *D sky130_fd_sc_hd__dlygate4sd3_1
*CAP
1 *4291:A 0
2 *4801:X 0.000311826
3 *604:10 0.000311826
4 *604:10 *628:6 5.79559e-05
5 *4289:A2 *604:10 6.50258e-05
6 *4500:CLK *604:10 0.000113389
7 *397:10 *604:10 5.56356e-05
8 *398:8 *604:10 0.000115526
*RES
1 *4801:X *604:10 43.3857 
2 *604:10 *4291:A 38 
*END

*D_NET *605 0.000974933
*CONN
*I *4081:A I *D sky130_fd_sc_hd__nand2_2
*I *4802:X O *D sky130_fd_sc_hd__dlygate4sd3_1
*CAP
1 *4081:A 0
2 *4802:X 0.000370677
3 *605:8 0.000370677
4 *605:8 *991:10 5.50106e-05
5 *605:8 *1001:18 3.22879e-05
6 *4082:A1 *605:8 5.50106e-05
7 *4082:A2 *605:8 9.12696e-05
*RES
1 *4802:X *605:8 29.8357 
2 *605:8 *4081:A 23 
*END

*D_NET *606 0.000820726
*CONN
*I *4328:A I *D sky130_fd_sc_hd__xnor2_2
*I *4803:X O *D sky130_fd_sc_hd__dlygate4sd3_1
*CAP
1 *4328:A 3.09722e-05
2 *4803:X 0.000270857
3 *606:10 0.000301829
4 *4328:A *939:27 2.93747e-05
5 *606:10 *939:27 0.000187694
6 *606:10 *948:10 0
7 *4328:B *606:10 0
8 *484:12 *606:10 0
*RES
1 *4803:X *606:10 42.4329 
2 *606:10 *4328:A 38.6214 
*END

*D_NET *607 0.000509441
*CONN
*I *4312:A I *D sky130_fd_sc_hd__nand2_2
*I *4804:X O *D sky130_fd_sc_hd__dlygate4sd3_1
*CAP
1 *4312:A 0
2 *4804:X 0.000249511
3 *607:10 0.000249511
4 *607:10 *647:10 1.04196e-05
5 *607:10 *976:23 0
6 *411:10 *607:10 0
*RES
1 *4804:X *607:10 41.48 
2 *607:10 *4312:A 38 
*END

*D_NET *608 0.0125215
*CONN
*I *4663:A I *D sky130_fd_sc_hd__clkdlybuf4s25_1
*I *4259:A1 I *D sky130_fd_sc_hd__o21ai_2
*I *4664:A I *D sky130_fd_sc_hd__clkdlybuf4s25_1
*I *4662:A I *D sky130_fd_sc_hd__clkdlybuf4s25_1
*I *4665:X O *D sky130_fd_sc_hd__clkdlybuf4s25_1
*CAP
1 *4663:A 0
2 *4259:A1 0
3 *4664:A 0.000131641
4 *4662:A 0
5 *4665:X 0.000716953
6 *608:57 0.000685036
7 *608:28 0.00206529
8 *608:16 0.00244127
9 *608:14 0.000512525
10 *608:8 0.00167017
11 *608:8 *4530:RESET_B 0.000348804
12 *608:8 *681:63 0.000298209
13 *608:14 *860:10 0.000176715
14 *608:16 *860:10 1.83667e-05
15 *608:28 *661:8 0.000280163
16 *608:28 *679:10 0
17 *608:28 *679:12 0
18 *608:28 *858:10 2.76611e-06
19 *608:28 *859:8 0.000134009
20 *608:57 *4243:B1 7.59964e-05
21 *608:57 *663:6 1.55097e-05
22 *4254:A2 *608:28 0
23 *4260:A2 *608:16 0
24 *4262:B *608:14 8.4047e-05
25 *4262:B *608:57 0.000327903
26 *4263:A1 *608:57 9.84851e-05
27 *4263:A2 *608:57 0.000182723
28 *4263:B1_N *608:57 1.28818e-05
29 *4526:CLK *608:28 0.000235459
30 *4651:A *608:28 1.59094e-05
31 *224:43 *608:16 0
32 *224:43 *608:28 0
33 *225:20 *608:16 0
34 *226:26 *608:16 0
35 *227:29 *608:57 0.000125488
36 *350:12 *608:57 2.62931e-05
37 *378:10 *608:28 5.3304e-05
38 *380:14 *4664:A 0.00026808
39 *383:12 *608:14 0.000107071
40 *383:12 *608:16 0
41 *449:226 *608:8 5.31757e-05
42 *494:60 *608:14 0.000191649
43 *494:60 *608:57 0.000256935
44 *494:66 *608:14 0.000127452
45 *494:66 *608:16 0.00038535
46 *494:66 *608:28 0.000215801
47 *597:10 *608:28 3.29717e-05
48 *597:20 *608:28 0.000147132
*RES
1 *4665:X *608:8 48.6264 
2 *608:8 *608:14 8.65857 
3 *608:14 *608:16 5.42714 
4 *608:16 *608:28 46.9 
5 *608:28 *4662:A 23 
6 *608:16 *4664:A 41.0036 
7 *608:14 *4259:A1 38 
8 *608:8 *608:57 30.9707 
9 *608:57 *4663:A 23 
*END

*D_NET *609 0.00126959
*CONN
*I *4338:A I *D sky130_fd_sc_hd__nand2_2
*I *4805:X O *D sky130_fd_sc_hd__dlygate4sd3_1
*CAP
1 *4338:A 0
2 *4805:X 0.000410168
3 *609:10 0.000410168
4 *609:10 *3971:A 5.61414e-05
5 *609:10 *4339:B1 0.000296526
6 *609:10 *4805:A 4.09548e-05
7 *609:10 *705:52 5.56306e-05
*RES
1 *4805:X *609:10 46.0786 
2 *609:10 *4338:A 38 
*END

*D_NET *610 0.000819586
*CONN
*I *4277:A I *D sky130_fd_sc_hd__nand2_2
*I *4806:X O *D sky130_fd_sc_hd__dlygate4sd3_1
*CAP
1 *4277:A 0
2 *4806:X 0.000255676
3 *610:10 0.000255676
4 *610:10 *642:45 3.46673e-05
5 *610:10 *642:57 0
6 *610:10 *714:20 2.02872e-05
7 *610:10 *714:37 5.3304e-05
8 *4277:B *610:10 0.000141879
9 *391:8 *610:10 5.80963e-05
*RES
1 *4806:X *610:10 42.4329 
2 *610:10 *4277:A 38 
*END

*D_NET *611 0.00133644
*CONN
*I *4281:A I *D sky130_fd_sc_hd__nand2_2
*I *4807:X O *D sky130_fd_sc_hd__dlygate4sd3_1
*CAP
1 *4281:A 8.80735e-05
2 *4807:X 0.000372591
3 *611:10 0.000460665
4 *4281:B *4281:A 4.344e-05
5 *4282:A1 *611:10 2.81066e-05
6 *4495:CLK *611:10 0.000189157
7 *203:10 *611:10 2.68258e-05
8 *496:24 *611:10 0.000127585
*RES
1 *4807:X *611:10 44.4214 
2 *611:10 *4281:A 39.595 
*END

*D_NET *612 0.00122066
*CONN
*I *4324:A I *D sky130_fd_sc_hd__nand2_2
*I *4808:X O *D sky130_fd_sc_hd__dlygate4sd3_1
*CAP
1 *4324:A 0
2 *4808:X 0.000285171
3 *612:8 0.000285171
4 *612:8 *3962:A 0
5 *612:8 *649:24 0.000597695
6 *612:8 *982:25 0
7 *413:8 *612:8 5.26204e-05
*RES
1 *4808:X *612:8 45.8921 
2 *612:8 *4324:A 38 
*END

*D_NET *613 0.00106168
*CONN
*I *4269:A I *D sky130_fd_sc_hd__nand2_2
*I *4809:X O *D sky130_fd_sc_hd__dlygate4sd3_1
*CAP
1 *4269:A 0
2 *4809:X 0.000313717
3 *613:10 0.000313717
4 *613:10 *4488:RESET_B 4.96264e-05
5 *613:10 *4489:RESET_B 9.67842e-05
6 *613:10 *917:42 0.000215791
7 *194:10 *613:10 7.20415e-05
*RES
1 *4809:X *613:10 44.1729 
2 *613:10 *4269:A 38 
*END

*D_NET *614 0.00139505
*CONN
*I *4087:B1 I *D sky130_fd_sc_hd__o21ai_2
*I *4810:X O *D sky130_fd_sc_hd__dlygate4sd3_1
*CAP
1 *4087:B1 0.000332227
2 *4810:X 0.000199855
3 *614:8 0.000532081
4 *614:8 *3879:A 8.85189e-05
5 *614:8 *4750:A 0.000242371
6 *548:10 *614:8 0
*RES
1 *4810:X *614:8 42.3707 
2 *614:8 *4087:B1 42.9093 
*END

*D_NET *615 0.000785597
*CONN
*I *4285:A I *D sky130_fd_sc_hd__nand2_2
*I *4811:X O *D sky130_fd_sc_hd__dlygate4sd3_1
*CAP
1 *4285:A 0
2 *4811:X 0.000270298
3 *615:10 0.000270298
4 *615:10 *4811:A 3.7122e-06
5 *615:10 *897:14 1.63467e-05
6 *204:16 *615:10 0.000136486
7 *205:10 *615:10 1.31888e-05
8 *395:8 *615:10 1.37246e-05
9 *496:72 *615:10 6.15434e-05
*RES
1 *4811:X *615:10 42.3086 
2 *615:10 *4285:A 38 
*END

*D_NET *616 0.0014274
*CONN
*I *4336:B1 I *D sky130_fd_sc_hd__o21ai_2
*I *4812:X O *D sky130_fd_sc_hd__dlygate4sd3_1
*CAP
1 *4336:B1 0.000305837
2 *4812:X 0.000168724
3 *616:8 0.000474561
4 *4336:B1 *4336:A1 7.53384e-06
5 *616:8 *705:10 0
6 *616:8 *713:12 0.000167443
7 *616:8 *713:46 0.000225275
8 *616:8 *714:69 7.80251e-05
*RES
1 *4812:X *616:8 43.075 
2 *616:8 *4336:B1 43.3857 
*END

*D_NET *617 0.00134303
*CONN
*I *3947:B2 I *D sky130_fd_sc_hd__a32o_2
*I *4813:X O *D sky130_fd_sc_hd__dlygate4sd3_1
*CAP
1 *3947:B2 3.6397e-05
2 *4813:X 0.000329509
3 *617:8 0.000365905
4 *3947:B2 *665:16 5.50106e-05
5 *3947:B2 *665:22 9.84794e-05
6 *3872:A0 *617:8 3.67392e-05
7 *3872:A1 *3947:B2 7.9566e-05
8 *4813:A *617:8 6.16603e-05
9 *25:8 *617:8 0.000165384
10 *108:10 *617:8 7.17279e-05
11 *528:16 *617:8 4.2651e-05
*RES
1 *4813:X *617:8 45.54 
2 *617:8 *3947:B2 39.5743 
*END

*D_NET *618 0.000491148
*CONN
*I *4412:D I *D sky130_fd_sc_hd__dfrtp_2
*I *4814:X O *D sky130_fd_sc_hd__dlygate4sd3_1
*CAP
1 *4412:D 0
2 *4814:X 0.000156461
3 *618:10 0.000156461
4 *618:10 *707:37 0.000141038
5 *4686:A *618:10 3.71887e-05
*RES
1 *4814:X *618:10 41.0036 
2 *618:10 *4412:D 38 
*END

*D_NET *619 0.0122947
*CONN
*I *4274:B1 I *D sky130_fd_sc_hd__a21oi_2
*I *4270:B1 I *D sky130_fd_sc_hd__a21oi_2
*I *4266:B1 I *D sky130_fd_sc_hd__a21oi_2
*I *4268:B1 I *D sky130_fd_sc_hd__a21oi_2
*I *3998:A I *D sky130_fd_sc_hd__inv_2
*I *4264:B I *D sky130_fd_sc_hd__nor2_2
*I *4272:B1 I *D sky130_fd_sc_hd__a21oi_2
*I *4276:B1 I *D sky130_fd_sc_hd__a21oi_2
*I *4666:X O *D sky130_fd_sc_hd__clkdlybuf4s25_1
*CAP
1 *4274:B1 0
2 *4270:B1 0.00017046
3 *4266:B1 0
4 *4268:B1 0
5 *3998:A 0
6 *4264:B 8.6547e-05
7 *4272:B1 9.71634e-05
8 *4276:B1 0.000119395
9 *4666:X 0.000498735
10 *619:95 0.00041849
11 *619:75 0.000768485
12 *619:58 0.00101986
13 *619:56 0.000585058
14 *619:46 0.00112958
15 *619:44 0.00116461
16 *619:29 0.000877653
17 *619:25 0.000910041
18 *619:10 0.00145097
19 *4272:B1 *911:10 0.000100061
20 *4276:B1 *675:36 0.00012838
21 *4276:B1 *913:10 0.000169683
22 *619:10 *677:53 0.000148698
23 *619:10 *914:10 0
24 *619:25 *3983:A 7.71797e-06
25 *619:25 *3983:B 2.03764e-06
26 *619:25 *912:10 1.08287e-05
27 *619:29 *912:10 0.000100069
28 *619:44 *634:8 4.41324e-05
29 *619:44 *912:10 0.000375564
30 *619:56 *909:8 3.5259e-05
31 *619:56 *928:10 2.39018e-05
32 *619:58 *928:10 1.6891e-05
33 *619:75 *894:8 9.91798e-05
34 *619:75 *895:8 0.000167123
35 *619:95 *4489:D 6.36464e-05
36 *3983:D *619:25 9.5877e-05
37 *4270:A1 *4270:B1 1.24376e-05
38 *4274:A2 *619:25 4.27272e-05
39 *4277:B *4276:B1 0
40 *4277:B *619:10 0
41 *4493:CLK *619:25 5.47927e-05
42 *4494:CLK *4276:B1 0
43 *4494:CLK *619:10 0
44 *3:8 *619:75 0.000100139
45 *196:22 *619:44 8.63961e-05
46 *386:16 *619:44 0.000154843
47 *386:16 *619:46 0.000532218
48 *386:16 *619:56 0.000289637
49 *466:6 *619:56 9.17365e-05
50 *466:12 *619:75 0
51 *466:58 *619:95 9.5876e-06
52 *466:69 *619:95 3.40698e-05
53 *488:10 *4276:B1 0
*RES
1 *4666:X *619:10 47.0729 
2 *619:10 *4276:B1 41.6664 
3 *619:10 *619:25 25.9993 
4 *619:25 *619:29 2.07143 
5 *619:29 *4272:B1 25.0507 
6 *619:29 *619:44 29.7693 
7 *619:44 *619:46 7.18786 
8 *619:46 *619:56 37.2707 
9 *619:56 *619:58 2.61 
10 *619:58 *4264:B 39.0979 
11 *619:58 *619:75 29.645 
12 *619:75 *3998:A 23 
13 *619:56 *4268:B1 38 
14 *619:46 *619:95 35.7379 
15 *619:95 *4266:B1 38 
16 *619:44 *4270:B1 40.5479 
17 *619:25 *4274:B1 23 
*END

*D_NET *620 0.000401906
*CONN
*I *4297:B1 I *D sky130_fd_sc_hd__o21ai_2
*I *4815:X O *D sky130_fd_sc_hd__dlygate4sd3_1
*CAP
1 *4297:B1 0
2 *4815:X 0.000118078
3 *620:10 0.000118078
4 *620:10 *4297:A1 0.000112446
5 *620:10 *901:10 5.3304e-05
*RES
1 *4815:X *620:10 40.175 
2 *620:10 *4297:B1 38 
*END

*D_NET *621 0.000857278
*CONN
*I *4318:B1 I *D sky130_fd_sc_hd__o31ai_2
*I *4816:X O *D sky130_fd_sc_hd__dlygate4sd3_1
*CAP
1 *4318:B1 0
2 *4816:X 0.000428639
3 *621:10 0.000428639
4 *411:10 *621:10 0
*RES
1 *4816:X *621:10 44.09 
2 *621:10 *4318:B1 38 
*END

*D_NET *622 0.00521429
*CONN
*I *3860:A1 I *D sky130_fd_sc_hd__o21a_2
*I *4365:B2 I *D sky130_fd_sc_hd__a221o_2
*I *4817:X O *D sky130_fd_sc_hd__dlygate4sd3_1
*CAP
1 *3860:A1 0
2 *4365:B2 9.18627e-06
3 *4817:X 0.000204028
4 *622:33 0.000106979
5 *622:16 0.000877891
6 *622:6 0.00117971
7 *622:6 *984:36 0.000267356
8 *622:16 *664:6 0.000145163
9 *622:16 *664:23 9.79925e-05
10 *622:16 *742:68 1.19384e-07
11 *622:33 *3937:A 0.000193545
12 *622:33 *713:12 0.00018974
13 *4363:B1 *622:16 0.00011157
14 *4427:CLK *4365:B2 1.28818e-05
15 *24:10 *622:16 0.000502483
16 *165:33 *622:16 3.53698e-05
17 *171:10 *622:6 2.02872e-05
18 *171:10 *622:16 0.000760853
19 *171:20 *622:16 4.74053e-05
20 *430:10 *622:16 0.000423695
21 *521:18 *622:33 2.2385e-05
22 *521:66 *622:16 5.64625e-06
*RES
1 *4817:X *622:6 26.48 
2 *622:6 *622:16 35.01 
3 *622:16 *4365:B2 38.1502 
4 *622:6 *622:33 33.2314 
5 *622:33 *3860:A1 23 
*END

*D_NET *623 0.00106323
*CONN
*I *4405:D I *D sky130_fd_sc_hd__dfrtp_2
*I *4818:X O *D sky130_fd_sc_hd__dlygate4sd3_1
*CAP
1 *4405:D 9.95037e-05
2 *4818:X 0.000230111
3 *623:8 0.000329614
4 *4405:CLK *4405:D 6.17437e-06
5 *4656:A *623:8 5.15635e-05
6 *483:21 *623:8 0.0001366
7 *483:57 *623:8 0.000209662
*RES
1 *4818:X *623:8 43.4271 
2 *623:8 *4405:D 39.5743 
*END

*D_NET *624 0.000139982
*CONN
*I *4330:B1 I *D sky130_fd_sc_hd__o21ai_2
*I *4819:X O *D sky130_fd_sc_hd__dlygate4sd3_1
*CAP
1 *4330:B1 1.49804e-05
2 *4819:X 1.49804e-05
3 *4330:A2 *4330:B1 5.50106e-05
4 *184:14 *4330:B1 5.50106e-05
*RES
1 *4819:X *4330:B1 46.6214 
*END

*D_NET *625 0.000877117
*CONN
*I *4279:A I *D sky130_fd_sc_hd__nand2_2
*I *4820:X O *D sky130_fd_sc_hd__dlygate4sd3_1
*CAP
1 *4279:A 0.000151296
2 *4820:X 0.000108349
3 *625:8 0.000259646
4 *200:17 *4279:A 0.000183733
5 *200:21 *625:8 0.000141888
6 *392:10 *4279:A 3.22051e-05
*RES
1 *4820:X *625:8 40.2579 
2 *625:8 *4279:A 41.5007 
*END

*D_NET *626 0.0013074
*CONN
*I *4147:B1 I *D sky130_fd_sc_hd__o31a_2
*I *4821:X O *D sky130_fd_sc_hd__dlygate4sd3_1
*CAP
1 *4147:B1 0
2 *4821:X 0.000478291
3 *626:10 0.000478291
4 *626:10 *697:10 8.62876e-05
5 *626:10 *794:6 5.70419e-05
6 *94:10 *626:10 4.19001e-05
7 *451:8 *626:10 0.000165593
8 *531:32 *626:10 0
*RES
1 *4821:X *626:10 45.6436 
2 *626:10 *4147:B1 38 
*END

*D_NET *627 0.00211276
*CONN
*I *4275:A I *D sky130_fd_sc_hd__nand2_2
*I *4822:X O *D sky130_fd_sc_hd__dlygate4sd3_1
*CAP
1 *4275:A 0.000162892
2 *4822:X 0.000184084
3 *627:8 0.000346976
4 *627:8 *677:14 0.000564526
5 *390:10 *4275:A 0.000317553
6 *390:10 *627:8 0.000536731
*RES
1 *4822:X *627:8 45.54 
2 *627:8 *4275:A 42.4329 
*END

*D_NET *628 0.000874338
*CONN
*I *4289:B1 I *D sky130_fd_sc_hd__o21ai_2
*I *4823:X O *D sky130_fd_sc_hd__dlygate4sd3_1
*CAP
1 *4289:B1 0
2 *4823:X 0.000205046
3 *628:6 0.000205046
4 *4289:A2 *628:6 0.000228558
5 *205:49 *628:6 0.000177731
6 *604:10 *628:6 5.79559e-05
*RES
1 *4823:X *628:6 27.4329 
2 *628:6 *4289:B1 23 
*END

*D_NET *629 0.00113823
*CONN
*I *4342:B1 I *D sky130_fd_sc_hd__o21a_2
*I *4824:X O *D sky130_fd_sc_hd__dlygate4sd3_1
*CAP
1 *4342:B1 0
2 *4824:X 0.000408147
3 *629:10 0.000408147
4 *629:10 *3955:A 4.59027e-05
5 *629:10 *4342:A1 6.356e-05
6 *4344:B *629:10 1.21972e-05
7 *189:38 *629:10 0.000170889
8 *424:10 *629:10 2.93845e-05
*RES
1 *4824:X *629:10 45.25 
2 *629:10 *4342:B1 38 
*END

*D_NET *630 0.0094155
*CONN
*I *4298:B1 I *D sky130_fd_sc_hd__a21oi_2
*I *4292:B1 I *D sky130_fd_sc_hd__a21oi_2
*I *4290:B1 I *D sky130_fd_sc_hd__a21oi_2
*I *4288:B1 I *D sky130_fd_sc_hd__a21oi_2
*I *4286:B1 I *D sky130_fd_sc_hd__a21oi_2
*I *4284:B1 I *D sky130_fd_sc_hd__a21oi_2
*I *4296:B1 I *D sky130_fd_sc_hd__a21oi_2
*I *4294:B1 I *D sky130_fd_sc_hd__a21oi_2
*I *4667:X O *D sky130_fd_sc_hd__clkdlybuf4s25_1
*CAP
1 *4298:B1 0.000205731
2 *4292:B1 0
3 *4290:B1 0
4 *4288:B1 4.23312e-05
5 *4286:B1 0
6 *4284:B1 0
7 *4296:B1 0
8 *4294:B1 3.49332e-05
9 *4667:X 0.000290035
10 *630:64 0.000176894
11 *630:58 0.000411794
12 *630:52 0.000539406
13 *630:50 0.000949972
14 *630:44 0.00113883
15 *630:34 0.00102793
16 *630:25 0.000220548
17 *630:8 0.00031925
18 *630:6 0.000724967
19 *4294:B1 *901:10 9.64943e-05
20 *630:6 *4815:A 0.000188927
21 *630:25 *4297:A1 0.000191267
22 *630:25 *4503:D 6.67968e-05
23 *630:44 *718:10 1.59094e-05
24 *630:50 *3991:B 0.000137594
25 *630:50 *920:10 0.000198232
26 *630:52 *920:10 0.000301067
27 *630:64 *918:35 5.58975e-06
28 *3992:B *4298:B1 0.00016167
29 *4294:A2 *4294:B1 5.25022e-05
30 *4294:A2 *630:6 0.000177049
31 *4294:A2 *630:8 4.96207e-05
32 *4298:A1 *4298:B1 6.1353e-05
33 *4298:A2 *4298:B1 0.000188934
34 *4454:RESET_B *630:50 5.31557e-05
35 *4456:CLK *630:44 5.51181e-06
36 *4503:CLK *630:25 5.79559e-05
37 *205:64 *630:50 0.000237921
38 *208:30 *4298:B1 8.59439e-05
39 *209:8 *630:34 0.000404337
40 *209:32 *630:25 0.000191267
41 *209:32 *630:34 0.000192261
42 *394:10 *630:64 6.22448e-06
43 *401:10 *630:34 1.44001e-05
44 *530:18 *4298:B1 5.3304e-05
45 *530:18 *630:44 0.000137594
*RES
1 *4667:X *630:6 28.8621 
2 *630:6 *630:8 1.09786 
3 *630:8 *4294:B1 24.0979 
4 *630:8 *630:25 35.1579 
5 *630:25 *4296:B1 23 
6 *630:6 *630:34 23.9486 
7 *630:34 *630:44 38.0993 
8 *630:44 *630:50 12.7807 
9 *630:50 *630:52 5.77929 
10 *630:52 *630:58 19.06 
11 *630:58 *630:64 33.3143 
12 *630:64 *4284:B1 23 
13 *630:58 *4286:B1 23 
14 *630:52 *4288:B1 38.6214 
15 *630:50 *4290:B1 38 
16 *630:44 *4292:B1 38 
17 *630:34 *4298:B1 43.4427 
*END

*D_NET *631 0.000837499
*CONN
*I *4273:B1 I *D sky130_fd_sc_hd__o21ai_2
*I *4825:X O *D sky130_fd_sc_hd__dlygate4sd3_1
*CAP
1 *4273:B1 7.04542e-05
2 *4825:X 0.000222268
3 *631:8 0.000292722
4 *631:8 *675:36 4.59027e-05
5 *197:12 *4273:B1 6.17437e-06
6 *197:25 *631:8 0.000123998
7 *199:8 *4273:B1 7.59794e-05
8 *390:10 *631:8 0
*RES
1 *4825:X *631:8 43.075 
2 *631:8 *4273:B1 39.5743 
*END

*D_NET *632 0.00118105
*CONN
*I *4344:A I *D sky130_fd_sc_hd__xnor2_2
*I *4826:X O *D sky130_fd_sc_hd__dlygate4sd3_1
*CAP
1 *4344:A 0
2 *4826:X 0.000388062
3 *632:8 0.000388062
4 *632:8 *4826:A 0.000117809
5 *632:8 *972:27 2.69729e-05
6 *3973:C *632:8 7.12098e-05
7 *189:77 *632:8 0.000188934
*RES
1 *4826:X *632:8 30.3121 
2 *632:8 *4344:A 23 
*END

*D_NET *633 0.00117977
*CONN
*I *4283:A I *D sky130_fd_sc_hd__nand2_2
*I *4827:X O *D sky130_fd_sc_hd__dlygate4sd3_1
*CAP
1 *4283:A 8.36736e-05
2 *4827:X 0.000370324
3 *633:10 0.000453997
4 *496:54 *4283:A 0.000102389
5 *496:54 *633:10 0.000169385
*RES
1 *4827:X *633:10 44.2971 
2 *633:10 *4283:A 39.5743 
*END

*D_NET *634 0.00026314
*CONN
*I *4267:A I *D sky130_fd_sc_hd__nand2_2
*I *4828:X O *D sky130_fd_sc_hd__dlygate4sd3_1
*CAP
1 *4267:A 0
2 *4828:X 0.000109504
3 *634:8 0.000109504
4 *619:44 *634:8 4.41324e-05
*RES
1 *4828:X *634:8 40.2579 
2 *634:8 *4267:A 38 
*END

*D_NET *635 0.000454039
*CONN
*I *4293:A I *D sky130_fd_sc_hd__nand2_2
*I *4829:X O *D sky130_fd_sc_hd__dlygate4sd3_1
*CAP
1 *4293:A 0.000114744
2 *4829:X 0.000112276
3 *635:8 0.00022702
4 *635:8 *903:10 0
5 *399:8 *635:8 0
*RES
1 *4829:X *635:8 39.9057 
2 *635:8 *4293:A 40.0507 
*END

*D_NET *636 0.00124844
*CONN
*I *4079:B1 I *D sky130_fd_sc_hd__o21ai_2
*I *4830:X O *D sky130_fd_sc_hd__dlygate4sd3_1
*CAP
1 *4079:B1 0
2 *4830:X 0.000456487
3 *636:6 0.000456487
4 *636:6 *4079:A1 1.76557e-05
5 *636:6 *4837:A 5.50049e-05
6 *636:6 *998:65 0.00015163
7 *4080:A2 *636:6 3.22879e-05
8 *272:28 *636:6 7.88926e-05
*RES
1 *4830:X *636:6 32.1971 
2 *636:6 *4079:B1 23 
*END

*D_NET *637 0.000732249
*CONN
*I *4340:A I *D sky130_fd_sc_hd__xor2_2
*I *4831:X O *D sky130_fd_sc_hd__dlygate4sd3_1
*CAP
1 *4340:A 0
2 *4831:X 0.000323929
3 *637:10 0.000323929
4 *637:10 *3955:A 0
5 *637:10 *4593:RESET_B 0
6 *637:10 *970:6 3.22879e-05
7 *637:10 *971:22 5.21024e-05
*RES
1 *4831:X *637:10 43.3443 
2 *637:10 *4340:A 38 
*END

*D_NET *638 0.00174476
*CONN
*I *4392:A1 I *D sky130_fd_sc_hd__o21a_2
*I *4832:X O *D sky130_fd_sc_hd__dlygate4sd3_1
*CAP
1 *4392:A1 0.000113298
2 *4832:X 0.000459875
3 *638:10 0.000573172
4 *4392:A1 *3885:B 2.93747e-05
5 *638:10 *4441:RESET_B 0
6 *638:10 *715:54 8.93663e-05
7 *638:10 *1008:12 0
8 *638:10 *1009:8 1.39317e-05
9 *638:10 *1009:12 0
10 *638:10 *1010:12 1.62615e-05
11 *4392:A2 *4392:A1 0.000317553
12 *4392:B1 *4392:A1 3.55265e-05
13 *446:8 *638:10 9.64022e-05
*RES
1 *4832:X *638:10 46.8657 
2 *638:10 *4392:A1 41.9771 
*END

*D_NET *639 0.000319536
*CONN
*I *4332:A I *D sky130_fd_sc_hd__nand2_2
*I *4833:X O *D sky130_fd_sc_hd__dlygate4sd3_1
*CAP
1 *4332:A 8.34738e-05
2 *4833:X 8.34738e-05
3 *4332:B *4332:A 5.50106e-05
4 *418:8 *4332:A 9.75779e-05
*RES
1 *4833:X *4332:A 48.0714 
*END

*D_NET *640 0.00113399
*CONN
*I *4302:A I *D sky130_fd_sc_hd__nand2_2
*I *4834:X O *D sky130_fd_sc_hd__dlygate4sd3_1
*CAP
1 *4302:A 0.000306596
2 *4834:X 6.71978e-05
3 *640:8 0.000373793
4 *640:8 *692:18 0.000194318
5 *213:12 *640:8 0.000192087
*RES
1 *4834:X *640:8 40.61 
2 *640:8 *4302:A 41.9564 
*END

*D_NET *641 0.000448544
*CONN
*I *4852:A I *D sky130_fd_sc_hd__clkdlybuf4s25_1
*I *4597:X O *D sky130_fd_sc_hd__buf_2
*CAP
1 *4852:A 8.45525e-05
2 *4597:X 0.000125027
3 *641:8 0.00020958
4 *4:8 *4852:A 2.93845e-05
*RES
1 *4597:X *641:8 40.2579 
2 *641:8 *4852:A 39.5743 
*END

*D_NET *642 0.0182946
*CONN
*I *4301:B1 I *D sky130_fd_sc_hd__a21oi_2
*I *4667:A I *D sky130_fd_sc_hd__clkdlybuf4s25_1
*I *4303:B1 I *D sky130_fd_sc_hd__a21oi_2
*I *4278:B1 I *D sky130_fd_sc_hd__a21oi_2
*I *4280:B1 I *D sky130_fd_sc_hd__a21oi_2
*I *4282:B1 I *D sky130_fd_sc_hd__a21oi_2
*I *4666:A I *D sky130_fd_sc_hd__clkdlybuf4s25_1
*I *4668:X O *D sky130_fd_sc_hd__clkdlybuf4s25_1
*CAP
1 *4301:B1 0
2 *4667:A 0.000592883
3 *4303:B1 2.10508e-05
4 *4278:B1 0
5 *4280:B1 0
6 *4282:B1 0
7 *4666:A 0.000208573
8 *4668:X 0.00076153
9 *642:90 0.000934331
10 *642:84 0.000384936
11 *642:65 0.000423592
12 *642:57 0.00114543
13 *642:45 0.00113348
14 *642:28 0.00203551
15 *642:26 0.00243907
16 *642:18 0.00116763
17 *642:14 0.000840839
18 *4303:B1 *4300:A 3.04516e-05
19 *4303:B1 *905:6 5.50049e-05
20 *4666:A *4806:A 0
21 *4666:A *677:53 3.71369e-05
22 *642:14 *4300:A 5.3304e-05
23 *642:14 *692:54 0.00021693
24 *642:18 *926:17 0.000164282
25 *642:18 *926:34 2.46345e-05
26 *642:26 *3996:B 0.000430932
27 *642:26 *4463:RESET_B 7.30188e-05
28 *642:26 *684:8 0
29 *642:26 *926:17 5.33597e-05
30 *642:28 *4472:RESET_B 0.000424572
31 *642:28 *683:84 0
32 *642:28 *684:46 0.000416581
33 *642:28 *684:48 0.000396747
34 *642:45 *4806:A 9.84851e-05
35 *642:45 *677:8 0.000354116
36 *642:45 *714:20 2.93747e-05
37 *642:45 *714:37 0.00015838
38 *642:57 *4820:A 0.000185434
39 *642:57 *714:16 0
40 *642:57 *915:10 5.79559e-05
41 *642:65 *915:10 0.000224237
42 *642:65 *916:8 0.000246248
43 *642:84 *904:8 3.16665e-05
44 *642:90 *904:8 1.5769e-05
45 *4048:A *642:26 0.00017092
46 *4277:B *642:57 0
47 *4278:A2 *642:45 5.70419e-05
48 *4280:A1 *642:57 0.000199203
49 *4301:A1 *642:90 0.000139352
50 *4421:CLK *642:28 0.000144168
51 *4495:CLK *642:65 6.05451e-05
52 *4506:CLK *642:14 6.17437e-06
53 *39:8 *642:26 0
54 *40:10 *642:26 0
55 *58:10 *4666:A 0
56 *58:10 *642:28 0
57 *60:10 *642:28 3.28876e-05
58 *62:10 *4666:A 0
59 *200:21 *642:57 0
60 *211:42 *4667:A 0
61 *211:54 *642:18 0.000166568
62 *211:54 *642:26 0.000408138
63 *212:8 *4667:A 3.96156e-05
64 *260:10 *642:26 0
65 *260:41 *642:26 9.48381e-06
66 *391:8 *642:57 8.51432e-05
67 *403:10 *4303:B1 9.84794e-05
68 *403:10 *4667:A 3.47781e-05
69 *403:10 *642:90 0.000191138
70 *404:10 *642:90 0
71 *461:33 *642:26 7.55595e-05
72 *468:37 *642:14 0.00024254
73 *468:69 *4667:A 0.000126936
74 *496:24 *642:65 1.35751e-05
75 *497:77 *642:28 9.02129e-05
76 *532:10 *642:26 0
77 *544:10 *642:28 0
78 *610:10 *642:45 3.46673e-05
79 *610:10 *642:57 0
*RES
1 *4668:X *642:14 35.8636 
2 *642:14 *642:18 17.61 
3 *642:18 *642:26 22.2575 
4 *642:26 *642:28 31.9104 
5 *642:28 *4666:A 41.7079 
6 *642:28 *642:45 25.1707 
7 *642:45 *642:57 43.5057 
8 *642:57 *642:65 39.3421 
9 *642:65 *4282:B1 23 
10 *642:57 *4280:B1 23 
11 *642:45 *4278:B1 23 
12 *642:18 *642:84 16.0979 
13 *642:84 *642:90 21.4421 
14 *642:90 *4303:B1 39.0979 
15 *642:90 *4667:A 49.6414 
16 *642:84 *4301:B1 23 
*END

*D_NET *643 0.000700723
*CONN
*I *4310:A I *D sky130_fd_sc_hd__nand2_2
*I *4835:X O *D sky130_fd_sc_hd__dlygate4sd3_1
*CAP
1 *4310:A 0
2 *4835:X 0.000250752
3 *643:10 0.000250752
4 *643:10 *3957:A 9.40782e-05
5 *174:37 *643:10 0
6 *407:12 *643:10 7.28526e-05
7 *408:8 *643:10 3.22879e-05
*RES
1 *4835:X *643:10 42.785 
2 *643:10 *4310:A 38 
*END

*D_NET *644 0.00311818
*CONN
*I *3851:A1 I *D sky130_fd_sc_hd__a31oi_2
*I *4836:X O *D sky130_fd_sc_hd__dlygate4sd3_1
*CAP
1 *3851:A1 0.000775288
2 *4836:X 0.000459081
3 *644:8 0.00123437
4 *3851:A1 *4771:A 7.88828e-05
5 *644:8 *4771:A 4.48383e-05
6 *644:8 *669:27 0
7 *644:8 *669:39 2.11066e-05
8 *644:8 *747:78 0
9 *644:8 *752:19 0.000160386
10 *3851:B1 *3851:A1 7.8215e-05
11 *4799:A *3851:A1 2.02648e-05
12 *97:12 *644:8 8.78765e-06
13 *167:18 *3851:A1 5.3304e-05
14 *449:226 *3851:A1 0.000183658
15 *495:84 *644:8 0
16 *519:26 *644:8 0
17 *519:38 *644:8 0
*RES
1 *4836:X *644:8 47.3007 
2 *644:8 *3851:A1 49.4343 
*END

*D_NET *645 0.00151717
*CONN
*I *4078:A1 I *D sky130_fd_sc_hd__a21o_2
*I *4837:X O *D sky130_fd_sc_hd__dlygate4sd3_1
*CAP
1 *4078:A1 0
2 *4837:X 0.000427404
3 *645:10 0.000427404
4 *645:10 *4079:A1 9.84794e-05
5 *645:10 *998:65 0.000267173
6 *645:10 *998:80 3.3746e-05
7 *645:10 *999:16 0.000222113
8 *645:10 *999:26 4.08537e-05
*RES
1 *4837:X *645:10 45.975 
2 *645:10 *4078:A1 38 
*END

*D_NET *646 0.000228908
*CONN
*I *3917:A1 I *D sky130_fd_sc_hd__a21o_2
*I *4838:X O *D sky130_fd_sc_hd__dlygate4sd3_1
*CAP
1 *3917:A1 7.53467e-05
2 *4838:X 7.53467e-05
3 *3917:B1 *3917:A1 2.32101e-05
4 *151:6 *3917:A1 5.50049e-05
*RES
1 *4838:X *3917:A1 47.0979 
*END

*D_NET *647 0.00878136
*CONN
*I *4319:B1 I *D sky130_fd_sc_hd__a21oi_2
*I *4317:A I *D sky130_fd_sc_hd__nor2_2
*I *4321:B1 I *D sky130_fd_sc_hd__a21oi_2
*I *4323:B1 I *D sky130_fd_sc_hd__a21oi_2
*I *4311:B1 I *D sky130_fd_sc_hd__a21oi_2
*I *4313:B1 I *D sky130_fd_sc_hd__a21oi_2
*I *4309:B1 I *D sky130_fd_sc_hd__a21oi_2
*I *4307:B I *D sky130_fd_sc_hd__nor2_2
*I *4669:X O *D sky130_fd_sc_hd__clkdlybuf4s25_1
*CAP
1 *4319:B1 0
2 *4317:A 0.000138853
3 *4321:B1 6.7348e-05
4 *4323:B1 0.000361773
5 *4311:B1 0
6 *4313:B1 0.000473865
7 *4309:B1 3.38059e-06
8 *4307:B 0
9 *4669:X 0.000462458
10 *647:84 0.00073477
11 *647:80 0.000641341
12 *647:43 0.00085819
13 *647:37 0.000521966
14 *647:26 0.0001434
15 *647:18 0.000897902
16 *647:14 0.00112197
17 *647:10 0.000774107
18 *4313:B1 *3957:A 0.000134649
19 *4313:B1 *951:10 0.000169683
20 *4313:B1 *955:10 2.81138e-05
21 *4321:B1 *690:49 7.88828e-05
22 *647:10 *4804:A 0
23 *647:14 *3956:A 0
24 *647:14 *3958:D 0
25 *647:14 *4804:A 0
26 *647:18 *3958:A 0.000314157
27 *647:26 *4308:A 5.67058e-05
28 *647:26 *4308:B 5.50106e-05
29 *647:26 *690:73 0
30 *647:37 *3958:A 0
31 *647:43 *954:8 0
32 *4322:A2 *647:84 0
33 *4576:CLK *4313:B1 0
34 *4579:CLK *647:10 5.41385e-05
35 *4624:A *4323:B1 0
36 *174:27 *4313:B1 5.50106e-05
37 *175:6 *4313:B1 5.50049e-05
38 *175:12 *647:43 0
39 *176:10 *647:18 8.84817e-06
40 *178:25 *647:84 0
41 *179:8 *4323:B1 7.75329e-06
42 *179:8 *647:84 7.76364e-06
43 *179:12 *4323:B1 0.000204851
44 *407:12 *4313:B1 0
45 *407:12 *647:18 3.34247e-05
46 *407:12 *647:37 5.70419e-05
47 *407:12 *647:43 0
48 *411:10 *647:10 0
49 *412:8 *647:84 9.88678e-05
50 *463:8 *4323:B1 0
51 *471:12 *647:43 8.68472e-05
52 *471:23 *4309:B1 5.11935e-06
53 *471:23 *4313:B1 0
54 *471:23 *647:43 5.77398e-05
55 *472:56 *647:10 0
56 *472:56 *647:14 0
57 *607:10 *647:10 1.04196e-05
*RES
1 *4669:X *647:10 44.6907 
2 *647:10 *647:14 20.7793 
3 *647:14 *647:18 9.09357 
4 *647:18 *647:26 32.5271 
5 *647:26 *4307:B 23 
6 *647:18 *647:37 3.045 
7 *647:37 *647:43 23.1304 
8 *647:43 *4309:B1 38.3211 
9 *647:43 *4313:B1 48.1604 
10 *647:37 *4311:B1 23 
11 *647:14 *647:80 3.48 
12 *647:80 *647:84 20.7793 
13 *647:84 *4323:B1 46.2443 
14 *647:84 *4321:B1 39.5743 
15 *647:80 *4317:A 25.5271 
16 *647:10 *4319:B1 38 
*END

*D_NET *648 0.012526
*CONN
*I *4339:B1 I *D sky130_fd_sc_hd__a21oi_2
*I *4337:B1 I *D sky130_fd_sc_hd__a21oi_2
*I *4335:A I *D sky130_fd_sc_hd__nor2_2
*I *4333:B1 I *D sky130_fd_sc_hd__a21oi_2
*I *4341:A I *D sky130_fd_sc_hd__nor2_2
*I *4329:A I *D sky130_fd_sc_hd__nor2_2
*I *3975:A I *D sky130_fd_sc_hd__inv_2
*I *4331:B1 I *D sky130_fd_sc_hd__a21oi_2
*I *4670:X O *D sky130_fd_sc_hd__clkdlybuf4s25_1
*CAP
1 *4339:B1 0.000426848
2 *4337:B1 0
3 *4335:A 2.0995e-05
4 *4333:B1 0
5 *4341:A 0
6 *4329:A 2.34823e-05
7 *3975:A 4.11597e-05
8 *4331:B1 7.47704e-05
9 *4670:X 4.72659e-05
10 *648:71 0.000590111
11 *648:56 0.000855828
12 *648:41 0.00112641
13 *648:30 0.00134114
14 *648:24 0.000624598
15 *648:18 0.00092544
16 *648:10 0.000953922
17 *648:8 0.00072484
18 *3975:A *939:6 2.64616e-05
19 *4339:B1 *3971:A 0
20 *4339:B1 *4591:RESET_B 0
21 *4339:B1 *705:52 0
22 *4339:B1 *947:10 0.000406031
23 *648:10 *3969:A 0.000139377
24 *648:10 *3971:A 0
25 *648:10 *4591:RESET_B 0
26 *648:18 *3969:A 0.000410379
27 *648:18 *4591:RESET_B 0
28 *648:18 *705:10 0
29 *648:18 *705:20 0
30 *648:18 *967:10 0.000169674
31 *648:24 *4833:A 9.84794e-05
32 *648:24 *944:10 0.00010018
33 *648:30 *4586:RESET_B 0
34 *648:30 *4588:RESET_B 0.000277705
35 *648:30 *4833:A 5.67058e-05
36 *648:30 *943:8 0.000110922
37 *648:41 *4586:RESET_B 0
38 *648:41 *939:12 0.000178001
39 *648:41 *941:10 0.000110922
40 *648:41 *942:10 0.000164291
41 *648:41 *978:10 0
42 *648:56 *939:64 2.95125e-05
43 *648:56 *942:10 0.000233187
44 *648:71 *4593:D 7.53384e-06
45 *648:71 *948:10 0
46 *3968:B *648:30 1.58805e-05
47 *4328:B *648:41 0
48 *4329:B *648:56 0.00014196
49 *4332:B *648:30 9.67842e-05
50 *4333:A1 *4335:A 1.14154e-05
51 *4333:A1 *648:18 0.000165744
52 *4333:A1 *648:24 0.000298832
53 *4335:B *648:18 0.00010018
54 *4593:CLK *648:71 5.41385e-05
55 *184:18 *648:30 0.000136672
56 *416:8 *648:56 0.000224345
57 *418:8 *648:24 0.000144106
58 *418:8 *648:30 0.000312348
59 *421:10 *4339:B1 0
60 *421:10 *648:8 1.94812e-05
61 *423:8 *4339:B1 2.4754e-05
62 *470:64 *648:30 0.000186697
63 *472:28 *648:41 0
64 *472:41 *648:41 0
65 *609:10 *4339:B1 0.000296526
*RES
1 *4670:X *648:8 38.6214 
2 *648:8 *648:10 5.075 
3 *648:10 *648:18 30.3286 
4 *648:18 *648:24 6.38 
5 *648:24 *648:30 27.0764 
6 *648:30 *4331:B1 39.0979 
7 *648:30 *648:41 17.0479 
8 *648:41 *3975:A 38.6214 
9 *648:41 *648:56 21.67 
10 *648:56 *4329:A 23.4971 
11 *648:56 *648:71 40.0257 
12 *648:71 *4341:A 23 
13 *648:24 *4333:B1 23 
14 *648:18 *4335:A 23.4971 
15 *648:10 *4337:B1 38 
16 *648:8 *4339:B1 49.165 
*END

*D_NET *649 0.011682
*CONN
*I *4345:A I *D sky130_fd_sc_hd__nor2_2
*I *4670:A I *D sky130_fd_sc_hd__clkdlybuf4s25_1
*I *4669:A I *D sky130_fd_sc_hd__clkdlybuf4s25_1
*I *4325:B1 I *D sky130_fd_sc_hd__a21oi_2
*I *4671:X O *D sky130_fd_sc_hd__clkdlybuf4s25_1
*CAP
1 *4345:A 0
2 *4670:A 0
3 *4669:A 0.000397077
4 *4325:B1 0
5 *4671:X 0.000211142
6 *649:70 0.000371106
7 *649:58 0.000632274
8 *649:24 0.000875657
9 *649:18 0.00354993
10 *649:14 0.0027495
11 *4669:A *4579:RESET_B 0.000144699
12 *4669:A *688:79 6.93449e-05
13 *4669:A *956:10 1.01436e-05
14 *649:24 *3963:C 0.000305391
15 *649:24 *4580:RESET_B 0
16 *649:24 *4583:RESET_B 0.000307731
17 *649:24 *688:36 0
18 *649:24 *957:8 0
19 *649:24 *961:8 0
20 *649:24 *981:10 0.000102083
21 *649:24 *981:21 6.28488e-05
22 *649:24 *983:10 8.51329e-05
23 *649:70 *706:59 6.48142e-05
24 *4322:A2 *649:24 0
25 *4346:A3 *649:58 1.32314e-05
26 *4346:A3 *649:70 6.17437e-06
27 *4579:CLK *4669:A 3.22879e-05
28 *4595:CLK *649:14 0.000154421
29 *178:25 *4669:A 0
30 *178:25 *649:24 0
31 *180:14 *649:24 0
32 *181:16 *649:24 0
33 *189:10 *649:70 0.000408138
34 *189:12 *649:58 7.46212e-05
35 *413:8 *649:24 0
36 *424:10 *649:14 0.000177769
37 *424:10 *649:58 7.20089e-05
38 *472:10 *649:24 7.03663e-05
39 *485:42 *649:70 5.44006e-05
40 *485:51 *649:14 2.33476e-05
41 *485:51 *649:70 5.86328e-05
42 *612:8 *649:24 0.000597695
*RES
1 *4671:X *649:14 49.326 
2 *649:14 *649:18 14.1096 
3 *649:18 *649:24 38.1275 
4 *649:24 *4325:B1 23 
5 *649:18 *4669:A 46.7311 
6 *649:14 *649:58 26.2751 
7 *649:58 *649:70 38.5964 
8 *649:70 *4670:A 23 
9 *649:58 *4345:A 23 
*END

*D_NET *650 0.0100631
*CONN
*I *4381:B I *D sky130_fd_sc_hd__and2_2
*I *4385:B I *D sky130_fd_sc_hd__and2_2
*I *4383:B I *D sky130_fd_sc_hd__and2_2
*I *4375:B I *D sky130_fd_sc_hd__and2_2
*I *4373:B I *D sky130_fd_sc_hd__and2_2
*I *4371:B I *D sky130_fd_sc_hd__and2_2
*I *4389:B1 I *D sky130_fd_sc_hd__a2bb2o_2
*I *4387:B I *D sky130_fd_sc_hd__and2_2
*I *4672:X O *D sky130_fd_sc_hd__clkdlybuf4s25_1
*CAP
1 *4381:B 0
2 *4385:B 0
3 *4383:B 0
4 *4375:B 0.000142306
5 *4373:B 0
6 *4371:B 0
7 *4389:B1 1.23927e-05
8 *4387:B 0.000512375
9 *4672:X 0
10 *650:85 0.000451609
11 *650:75 0.000754896
12 *650:73 0.000462615
13 *650:51 0.000313601
14 *650:40 0.000149293
15 *650:34 0.00128429
16 *650:25 0.00120029
17 *650:10 0.00116809
18 *650:6 0.000590853
19 *4375:B *4432:RESET_B 0.000157309
20 *4375:B *710:62 0.000283088
21 *4375:B *716:82 0
22 *650:10 *4382:A3 0
23 *650:10 *4388:A3 0
24 *650:10 *716:52 0.000219707
25 *650:40 *4430:RESET_B 0
26 *650:40 *710:62 9.20311e-06
27 *650:40 *1012:20 2.08324e-05
28 *650:51 *710:62 0.000138727
29 *650:51 *716:82 0
30 *650:73 *4381:A 1.01436e-05
31 *650:73 *4382:A3 0
32 *650:85 *4758:A 9.67842e-05
33 *650:85 *709:69 0
34 *650:85 *709:76 0
35 *650:85 *715:75 0.000457425
36 *650:85 *1018:8 5.56203e-05
37 *4369:B *650:25 3.70553e-06
38 *4369:B *650:34 2.80512e-05
39 *74:10 *650:85 0
40 *78:10 *4387:B 0.000183027
41 *126:44 *4387:B 6.17437e-06
42 *126:44 *650:25 6.94112e-06
43 *270:12 *650:25 9.91798e-05
44 *270:12 *650:34 2.02872e-05
45 *432:10 *650:34 9.84851e-05
46 *433:14 *650:10 0
47 *433:25 *650:10 0
48 *433:25 *650:73 0
49 *434:8 *650:40 0.000114645
50 *434:8 *650:51 0
51 *435:8 *4375:B 0.000192671
52 *440:8 *650:85 0
53 *442:8 *4387:B 0.000790562
54 *557:10 *650:85 2.79004e-05
*RES
1 *4672:X *650:6 38 
2 *650:6 *650:10 23.5964 
3 *650:10 *4387:B 36.6714 
4 *650:10 *650:25 3.00357 
5 *650:25 *4389:B1 23.4971 
6 *650:25 *650:34 12.5321 
7 *650:34 *650:40 34.0186 
8 *650:40 *4371:B 23 
9 *650:34 *650:51 18.0036 
10 *650:51 *4373:B 38 
11 *650:51 *4375:B 43.7793 
12 *650:6 *650:73 17.8793 
13 *650:73 *650:75 4.90929 
14 *650:75 *650:85 39.9636 
15 *650:85 *4383:B 23 
16 *650:75 *4385:B 23 
17 *650:73 *4381:B 23 
*END

*D_NET *651 0.0098905
*CONN
*I *4374:A3 I *D sky130_fd_sc_hd__a31o_2
*I *4372:A3 I *D sky130_fd_sc_hd__a31o_2
*I *4378:A3 I *D sky130_fd_sc_hd__a31o_2
*I *4376:A3 I *D sky130_fd_sc_hd__a31o_2
*I *4382:A3 I *D sky130_fd_sc_hd__a31o_2
*I *4388:A3 I *D sky130_fd_sc_hd__a31o_2
*I *4384:A3 I *D sky130_fd_sc_hd__a31o_2
*I *4386:A3 I *D sky130_fd_sc_hd__a31o_2
*I *4673:X O *D sky130_fd_sc_hd__clkdlybuf4s25_1
*CAP
1 *4374:A3 0
2 *4372:A3 0
3 *4378:A3 0.000189742
4 *4376:A3 4.20186e-05
5 *4382:A3 0.000434939
6 *4388:A3 0.000139205
7 *4384:A3 0.000221103
8 *4386:A3 0
9 *4673:X 0
10 *651:92 0.000199894
11 *651:86 0.000405828
12 *651:66 0.000419777
13 *651:60 0.00101182
14 *651:38 0.000574144
15 *651:36 0.000884032
16 *651:16 0.00079616
17 *651:4 0.000841224
18 *4376:A3 *4376:A1 6.17437e-06
19 *4378:A3 *4376:A1 2.24608e-05
20 *4378:A3 *4378:A1 0.000171922
21 *4378:A3 *4434:RESET_B 3.72639e-05
22 *4378:A3 *716:89 2.13834e-05
23 *4382:A3 *4381:A 0
24 *4382:A3 *4382:A1 9.84794e-05
25 *4382:A3 *715:75 0.00016994
26 *4382:A3 *939:50 9.84794e-05
27 *4384:A3 *3974:A 0
28 *4384:A3 *4386:A1 0.000137786
29 *4384:A3 *4781:A 0
30 *4384:A3 *715:89 1.47563e-05
31 *4384:A3 *953:8 0
32 *4388:A3 *715:75 3.60739e-05
33 *4388:A3 *716:52 0
34 *651:16 *3974:A 0
35 *651:16 *4386:A1 3.15179e-05
36 *651:66 *4376:A1 6.48224e-06
37 *651:66 *716:65 3.70187e-05
38 *651:66 *716:89 0.000240686
39 *651:86 *716:69 0.000355029
40 *651:92 *716:82 0.000210934
41 *4380:A3 *4378:A3 0
42 *4380:A3 *651:66 0
43 *4386:B1 *651:16 0.0005715
44 *4386:B1 *651:36 0.000271476
45 *4596:CLK *651:16 7.43025e-06
46 *4672:A *651:60 9.67842e-05
47 *4673:A *651:36 1.57571e-05
48 *4673:A *651:60 0.000308422
49 *70:10 *651:86 5.50106e-05
50 *70:10 *651:92 5.561e-05
51 *71:14 *4376:A3 5.70419e-05
52 *76:8 *4384:A3 5.561e-05
53 *432:10 *651:66 0
54 *439:8 *4382:A3 0
55 *441:8 *4382:A3 9.52677e-05
56 *441:8 *4388:A3 4.6318e-06
57 *489:27 *651:16 1.27424e-05
58 *490:30 *651:92 0
59 *490:39 *651:92 0
60 *567:10 *4384:A3 9.168e-05
61 *567:10 *651:16 3.92407e-05
62 *569:10 *4378:A3 0.000296026
63 *650:10 *4382:A3 0
64 *650:10 *4388:A3 0
65 *650:73 *4382:A3 0
*RES
1 *4673:X *651:4 23 
2 *651:4 *651:16 24.8807 
3 *651:16 *4386:A3 38 
4 *651:16 *4384:A3 43.4271 
5 *651:4 *651:36 4.45357 
6 *651:36 *651:38 15 
7 *651:38 *4388:A3 39.9057 
8 *651:38 *4382:A3 48.3986 
9 *651:36 *651:60 11.5793 
10 *651:60 *651:66 19.2879 
11 *651:66 *4376:A3 39.0979 
12 *651:66 *4378:A3 43.7793 
13 *651:60 *651:86 4.43286 
14 *651:86 *651:92 35.4271 
15 *651:92 *4372:A3 23 
16 *651:86 *4374:A3 23 
*END

*D_NET *652 0.0133672
*CONN
*I *4184:B1 I *D sky130_fd_sc_hd__o21ai_2
*I *4181:B1 I *D sky130_fd_sc_hd__o21ai_2
*I *4187:B1 I *D sky130_fd_sc_hd__o21ai_2
*I *4179:B1 I *D sky130_fd_sc_hd__o21ai_2
*I *4168:B1 I *D sky130_fd_sc_hd__o21ai_2
*I *4171:B1 I *D sky130_fd_sc_hd__o21ai_2
*I *4173:B1 I *D sky130_fd_sc_hd__o21ai_2
*I *4176:B1 I *D sky130_fd_sc_hd__o21ai_2
*I *4674:X O *D sky130_fd_sc_hd__clkdlybuf4s25_1
*CAP
1 *4184:B1 0
2 *4181:B1 5.90603e-05
3 *4187:B1 0
4 *4179:B1 0.000131602
5 *4168:B1 0.000140798
6 *4171:B1 0
7 *4173:B1 9.88198e-05
8 *4176:B1 0.000111752
9 *4674:X 0
10 *652:79 0.00124406
11 *652:67 0.00144771
12 *652:56 0.000985558
13 *652:52 0.00184232
14 *652:12 0.000273811
15 *652:10 0.000562098
16 *652:6 0.000984084
17 *652:4 0.00147737
18 *4168:B1 *843:52 5.67058e-05
19 *4168:B1 *844:18 1.14154e-05
20 *4176:B1 *824:8 1.0092e-05
21 *652:6 *4166:B1 0.000274078
22 *652:6 *844:18 0.000187129
23 *652:10 *824:8 1.13812e-05
24 *652:12 *824:8 0.000137754
25 *652:52 *4157:B1 0.000176355
26 *652:52 *4166:B1 0.000356724
27 *652:52 *693:16 0
28 *652:56 *693:16 0
29 *652:56 *806:8 6.67555e-05
30 *652:56 *808:10 0.000323812
31 *652:79 *4545:D 0.000123129
32 *4173:A2 *4173:B1 3.57672e-05
33 *4176:A1 *4176:B1 0.000115015
34 *4176:A1 *652:10 1.39826e-05
35 *4179:A2 *4181:B1 8.26478e-05
36 *4179:A2 *652:67 1.09834e-05
37 *4179:A2 *652:79 1.06669e-05
38 *4181:A1 *652:79 0.000214712
39 *4540:CLK *4176:B1 0.000107788
40 *4545:CLK *652:79 2.94211e-05
41 *230:47 *652:6 1.72202e-05
42 *230:47 *652:52 1.14876e-05
43 *234:62 *652:56 0
44 *325:10 *652:52 1.54424e-05
45 *327:10 *652:10 0
46 *328:10 *652:10 0
47 *473:24 *652:52 0
48 *473:24 *652:56 0
49 *493:12 *652:10 8.16459e-05
50 *493:14 *652:10 0.000218686
51 *493:16 *4176:B1 3.13857e-05
52 *493:16 *652:10 0.000116463
53 *493:16 *652:12 5.90941e-05
54 *542:29 *4181:B1 0.000102971
55 *542:29 *652:67 0.000192342
56 *542:35 *652:56 0.000626825
57 *542:62 *652:10 3.34833e-05
58 *564:61 *652:79 0.000144766
*RES
1 *4674:X *652:4 23 
2 *652:4 *652:6 5.86214 
3 *652:6 *652:10 26.0614 
4 *652:10 *652:12 1.90571 
5 *652:12 *4176:B1 41.6664 
6 *652:12 *4173:B1 39.5743 
7 *652:10 *4171:B1 38 
8 *652:6 *4168:B1 25.5479 
9 *652:4 *652:52 31.82 
10 *652:52 *652:56 32.7521 
11 *652:56 *4179:B1 25.4236 
12 *652:56 *652:67 3.48 
13 *652:67 *652:79 48.6429 
14 *652:79 *4187:B1 23 
15 *652:67 *4181:B1 25.4236 
16 *652:52 *4184:B1 38 
*END

*D_NET *653 0.0156391
*CONN
*I *4196:B1 I *D sky130_fd_sc_hd__o21ai_2
*I *4199:B1 I *D sky130_fd_sc_hd__o21ai_2
*I *4152:B1 I *D sky130_fd_sc_hd__o21ai_2
*I *4155:B1 I *D sky130_fd_sc_hd__o21ai_2
*I *4160:B1 I *D sky130_fd_sc_hd__o21ai_2
*I *4157:B1 I *D sky130_fd_sc_hd__o21ai_2
*I *4163:B1 I *D sky130_fd_sc_hd__o21ai_2
*I *4165:B1 I *D sky130_fd_sc_hd__o21ai_2
*I *4675:X O *D sky130_fd_sc_hd__clkdlybuf4s25_1
*CAP
1 *4196:B1 0.000311558
2 *4199:B1 0
3 *4152:B1 0.00034459
4 *4155:B1 3.94778e-05
5 *4160:B1 0.000165879
6 *4157:B1 0.000396101
7 *4163:B1 5.40181e-05
8 *4165:B1 0.000138485
9 *4675:X 0
10 *653:106 0.000203483
11 *653:96 0.00121513
12 *653:70 0.000600332
13 *653:66 0.00132224
14 *653:38 0.000625139
15 *653:36 0.00151514
16 *653:10 0.000536821
17 *653:4 0.00139041
18 *4152:B1 *4153:B 0.000141164
19 *4152:B1 *827:55 0.000111852
20 *4152:B1 *838:12 0
21 *4155:B1 *827:27 2.18409e-05
22 *4157:B1 *820:8 0
23 *4163:B1 *821:10 5.50049e-05
24 *4165:B1 *4535:RESET_B 3.22879e-05
25 *4165:B1 *679:83 1.03955e-05
26 *4165:B1 *821:10 0.000133316
27 *4165:B1 *843:52 7.56417e-05
28 *4196:B1 *4198:A 0.000215605
29 *653:10 *843:42 0.000274078
30 *653:10 *843:52 0.000147413
31 *653:36 *843:42 0.000139352
32 *653:70 *4015:C 1.02387e-05
33 *653:70 *838:12 0
34 *653:70 *838:31 7.81176e-05
35 *653:70 *841:21 1.17049e-05
36 *653:96 *4156:A 5.3304e-05
37 *653:96 *655:40 9.41704e-05
38 *4152:A1 *4152:B1 0.000141954
39 *4160:A1 *4157:B1 1.58805e-05
40 *4160:A1 *4160:B1 5.50049e-05
41 *4160:A1 *653:36 5.79413e-06
42 *4160:A1 *653:38 7.82751e-05
43 *4160:A2 *4160:B1 1.94693e-05
44 *4161:B *653:36 0.000249136
45 *4165:A2 *4165:B1 0.000139352
46 *4198:B *4196:B1 2.46906e-05
47 *4199:A2 *653:106 0.000101762
48 *4535:CLK *4165:B1 2.93747e-05
49 *229:6 *4155:B1 5.67058e-05
50 *229:16 *653:36 2.45549e-06
51 *229:27 *4152:B1 7.75329e-06
52 *229:27 *653:70 9.21347e-06
53 *232:8 *4157:B1 0
54 *232:16 *4157:B1 0
55 *319:10 *653:66 0.000185428
56 *320:8 *653:70 9.78307e-05
57 *323:10 *4165:B1 4.6318e-06
58 *323:10 *653:10 8.26569e-05
59 *342:12 *4196:B1 0.000424677
60 *342:22 *4196:B1 6.96531e-05
61 *342:22 *653:96 0.000193131
62 *344:6 *653:106 0.000322968
63 *346:14 *4196:B1 1.33694e-05
64 *346:14 *653:96 9.9057e-05
65 *346:14 *653:106 0.000156025
66 *464:31 *653:106 0.00018382
67 *473:16 *653:96 0.000282277
68 *473:22 *4157:B1 0.000207507
69 *473:22 *653:38 1.01436e-05
70 *473:24 *4157:B1 0.00025307
71 *473:68 *653:36 0.000401231
72 *473:68 *653:38 0.000155829
73 *473:88 *653:96 0.000201912
74 *473:88 *653:106 0.000120603
75 *553:16 *4152:B1 0
76 *553:27 *4155:B1 5.50049e-05
77 *553:27 *653:70 0.000430295
78 *553:59 *653:36 8.86898e-05
79 *553:67 *4163:B1 2.18506e-05
80 *652:52 *4157:B1 0.000176355
*RES
1 *4675:X *653:4 23 
2 *653:4 *653:10 21.6907 
3 *653:10 *4165:B1 41.8321 
4 *653:10 *4163:B1 39.0979 
5 *653:4 *653:36 32.0064 
6 *653:36 *653:38 2.25786 
7 *653:38 *4157:B1 47.6114 
8 *653:38 *4160:B1 41.0243 
9 *653:36 *653:66 21.8357 
10 *653:66 *653:70 21.1314 
11 *653:70 *4155:B1 39.0979 
12 *653:70 *4152:B1 44.6907 
13 *653:66 *653:96 15.08 
14 *653:96 *653:106 36.5871 
15 *653:106 *4199:B1 23 
16 *653:96 *4196:B1 31.8036 
*END

*D_NET *654 0.00674532
*CONN
*I *4205:B1 I *D sky130_fd_sc_hd__o211ai_2
*I *4206:B1_N I *D sky130_fd_sc_hd__a21bo_2
*I *4203:B1 I *D sky130_fd_sc_hd__o21ai_2
*I *4201:B1 I *D sky130_fd_sc_hd__o21ai_2
*I *4676:X O *D sky130_fd_sc_hd__clkdlybuf4s25_1
*CAP
1 *4205:B1 0.000230381
2 *4206:B1_N 0.000156828
3 *4203:B1 0.000120373
4 *4201:B1 0
5 *4676:X 0.000207866
6 *654:32 0.000387209
7 *654:16 0.000731499
8 *654:10 0.001004
9 *654:8 0.00035999
10 *4203:B1 *840:33 7.41766e-05
11 *654:8 *655:76 0.000539892
12 *654:10 *655:76 0.000300117
13 *654:10 *696:16 0
14 *654:16 *4015:D 0
15 *654:16 *655:40 0.000324344
16 *654:16 *655:46 0.000624932
17 *654:16 *655:76 0.00031776
18 *654:16 *696:16 0
19 *654:16 *842:8 0
20 *4201:A1 *654:16 0.000273281
21 *4205:A2 *4205:B1 5.47983e-06
22 *4205:C1 *4205:B1 1.11037e-05
23 *4206:A1 *4206:B1_N 9.84851e-05
24 *4206:A2 *4205:B1 0.000104318
25 *4206:A2 *4206:B1_N 6.17437e-06
26 *93:10 *4203:B1 0.00023145
27 *242:12 *4205:B1 3.05357e-05
28 *243:12 *4203:B1 5.79559e-05
29 *449:300 *654:8 0.000204961
30 *474:16 *654:16 0.000103415
31 *564:20 *654:16 0.000194657
32 *564:26 *654:16 1.19796e-05
33 *564:110 *4203:B1 2.60332e-05
34 *593:14 *654:8 0
35 *593:14 *654:10 6.12496e-06
*RES
1 *4676:X *654:8 45.1879 
2 *654:8 *654:10 4.01857 
3 *654:10 *654:16 36.1286 
4 *654:16 *4201:B1 23 
5 *654:10 *4203:B1 41.48 
6 *654:8 *654:32 15 
7 *654:32 *4206:B1_N 25.8689 
8 *654:32 *4205:B1 26.9771 
*END

*D_NET *655 0.0156225
*CONN
*I *4676:A I *D sky130_fd_sc_hd__clkdlybuf4s25_1
*I *4192:B1 I *D sky130_fd_sc_hd__o21ai_2
*I *4189:B1 I *D sky130_fd_sc_hd__o21ai_2
*I *4675:A I *D sky130_fd_sc_hd__clkdlybuf4s25_1
*I *4674:A I *D sky130_fd_sc_hd__clkdlybuf4s25_1
*I *4677:X O *D sky130_fd_sc_hd__clkdlybuf4s25_1
*CAP
1 *4676:A 0
2 *4192:B1 0.000151377
3 *4189:B1 0
4 *4675:A 6.54503e-05
5 *4674:A 0
6 *4677:X 0
7 *655:76 0.000566897
8 *655:54 0.000307999
9 *655:46 0.00136534
10 *655:40 0.00106901
11 *655:32 0.00219634
12 *655:14 0.000384864
13 *655:8 0.000507544
14 *655:4 0.00152363
15 *4675:A *4699:A 0.000154138
16 *655:8 *843:14 8.06804e-06
17 *655:14 *4017:C 0.000205594
18 *655:14 *4166:B1 5.67058e-05
19 *655:14 *4699:A 0.000271382
20 *655:14 *680:10 0.000352547
21 *655:14 *680:25 1.007e-05
22 *655:14 *844:27 3.71611e-05
23 *655:32 *4158:B1 3.46673e-05
24 *655:32 *4547:RESET_B 6.6978e-05
25 *655:32 *696:16 5.47927e-05
26 *655:32 *843:14 7.43025e-06
27 *655:46 *693:10 0
28 *655:46 *693:16 0
29 *655:46 *693:18 0
30 *655:46 *842:8 0
31 *655:54 *830:10 0
32 *655:76 *4791:A 0.000190597
33 *655:76 *840:12 0.00020034
34 *4162:A *4675:A 0.000163352
35 *4162:A *655:14 5.33597e-05
36 *4164:B *655:14 0.000452396
37 *4189:A1 *655:54 5.40337e-05
38 *4192:A1 *4192:B1 0.000128106
39 *93:10 *655:76 0.000301419
40 *230:27 *655:32 0.00130096
41 *230:31 *655:32 1.41077e-05
42 *230:47 *655:14 2.93845e-05
43 *231:8 *655:8 6.17437e-06
44 *231:8 *655:32 2.32101e-05
45 *236:10 *655:54 1.34995e-05
46 *326:10 *655:14 0.000143678
47 *336:8 *655:46 0
48 *449:300 *655:76 9.21347e-06
49 *449:322 *655:76 7.84525e-05
50 *473:88 *655:40 9.5877e-05
51 *474:25 *655:54 0
52 *564:20 *655:40 0.000159188
53 *564:20 *655:76 0.000114645
54 *564:26 *4192:B1 2.02872e-05
55 *564:26 *655:46 2.64616e-05
56 *564:26 *655:54 6.25829e-05
57 *564:30 *655:54 0.000381988
58 *564:95 *655:76 0
59 *653:96 *655:40 9.41704e-05
60 *654:8 *655:76 0.000539892
61 *654:10 *655:76 0.000300117
62 *654:16 *655:40 0.000324344
63 *654:16 *655:46 0.000624932
64 *654:16 *655:76 0.00031776
*RES
1 *4677:X *655:4 23 
2 *655:4 *655:8 15.6214 
3 *655:8 *655:14 28.0914 
4 *655:14 *4674:A 23 
5 *655:8 *4675:A 40.2579 
6 *655:4 *655:32 37.0607 
7 *655:32 *655:40 35.4686 
8 *655:40 *655:46 33.5186 
9 *655:46 *655:54 37.3536 
10 *655:54 *4189:B1 23 
11 *655:46 *4192:B1 26.0036 
12 *655:32 *655:76 34.1089 
13 *655:76 *4676:A 23 
*END

*D_NET *656 0.00124723
*CONN
*I *4853:A I *D sky130_fd_sc_hd__clkdlybuf4s25_1
*I *4598:X O *D sky130_fd_sc_hd__buf_2
*CAP
1 *4853:A 8.46049e-05
2 *4598:X 0.000402552
3 *656:8 0.000487157
4 *656:8 *804:8 6.00097e-05
5 *5:8 *4853:A 2.93431e-05
6 *542:8 *656:8 1.50409e-05
7 *564:38 *656:8 0.000168524
*RES
1 *4598:X *656:8 45.8921 
2 *656:8 *4853:A 39.5743 
*END

*D_NET *657 0.0122178
*CONN
*I *4114:B1 I *D sky130_fd_sc_hd__o21ai_2
*I *4095:B1 I *D sky130_fd_sc_hd__o21ai_2
*I *4108:B1 I *D sky130_fd_sc_hd__o21ai_2
*I *4111:B1 I *D sky130_fd_sc_hd__o21ai_2
*I *4106:B1 I *D sky130_fd_sc_hd__o21ai_2
*I *4103:B1 I *D sky130_fd_sc_hd__o21ai_2
*I *4100:B1 I *D sky130_fd_sc_hd__o21ai_2
*I *4098:B1 I *D sky130_fd_sc_hd__o21ai_2
*I *4678:X O *D sky130_fd_sc_hd__clkdlybuf4s25_1
*CAP
1 *4114:B1 0.000349166
2 *4095:B1 0
3 *4108:B1 0.00017449
4 *4111:B1 0.000388923
5 *4106:B1 0.000162876
6 *4103:B1 0
7 *4100:B1 4.79212e-05
8 *4098:B1 0.00033131
9 *4678:X 0
10 *657:98 0.000801825
11 *657:92 0.00141764
12 *657:57 0.000551799
13 *657:55 0.000353383
14 *657:46 0.000186554
15 *657:31 0.0010965
16 *657:12 0.00142698
17 *657:10 0.00059492
18 *657:6 0.000449018
19 *4098:B1 *793:12 0.000441978
20 *4098:B1 *793:18 0.000140259
21 *4100:B1 *711:29 2.193e-05
22 *4106:B1 *711:95 0.000407573
23 *4108:B1 *777:10 5.3304e-05
24 *4111:B1 *4111:A1 0.000272383
25 *4111:B1 *711:111 0
26 *4114:B1 *3845:A 0.000233453
27 *4114:B1 *4043:A 0.000195248
28 *4114:B1 *660:28 0
29 *657:10 *660:28 0
30 *657:10 *793:8 0
31 *657:31 *711:29 6.55954e-05
32 *657:31 *711:55 0.000208347
33 *657:31 *782:14 0
34 *657:31 *793:8 3.47781e-05
35 *657:31 *796:16 0.000125707
36 *657:92 *660:28 0
37 *657:98 *4553:D 0.000121735
38 *657:98 *782:10 8.65442e-05
39 *4032:B *657:31 5.58003e-05
40 *4043:B *4114:B1 5.76076e-05
41 *4097:A *4098:B1 3.7122e-06
42 *4100:A2 *4100:B1 5.82853e-05
43 *4102:A *657:31 0.000166233
44 *4557:CLK *4106:B1 0.000102135
45 *4559:CLK *4108:B1 0.000217798
46 *4559:CLK *657:55 9.67842e-05
47 *256:8 *4114:B1 6.7177e-06
48 *257:8 *4114:B1 0
49 *257:8 *657:92 0
50 *282:12 *4098:B1 0.00010018
51 *289:10 *4106:B1 7.75329e-06
52 *289:10 *4111:B1 2.76611e-06
53 *478:16 *657:46 0.000242738
54 *478:28 *657:46 6.58124e-05
55 *479:23 *4114:B1 9.64022e-05
56 *479:33 *4111:B1 7.03869e-05
57 *479:33 *4114:B1 0
58 *479:33 *657:10 0
59 *479:33 *657:92 0
60 *479:35 *4106:B1 0.000113328
61 *479:35 *4111:B1 1.12487e-05
62 *594:8 *4114:B1 0
*RES
1 *4678:X *657:6 38 
2 *657:6 *657:10 18.3143 
3 *657:10 *657:12 3.95643 
4 *657:12 *4098:B1 30.2914 
5 *657:12 *657:31 46.5714 
6 *657:31 *4100:B1 24.0979 
7 *657:31 *657:46 34.2879 
8 *657:46 *4103:B1 23 
9 *657:10 *657:55 3.50071 
10 *657:55 *657:57 15 
11 *657:57 *4106:B1 43.7793 
12 *657:57 *4111:B1 45.6436 
13 *657:55 *4108:B1 27.6193 
14 *657:6 *657:92 5.075 
15 *657:92 *657:98 29.935 
16 *657:98 *4095:B1 23 
17 *657:92 *4114:B1 46.5964 
*END

*D_NET *658 0.00522673
*CONN
*I *4116:B1 I *D sky130_fd_sc_hd__o21ai_2
*I *4119:B1 I *D sky130_fd_sc_hd__o21ai_2
*I *4148:B1 I *D sky130_fd_sc_hd__o21ai_2
*I *4150:B1_N I *D sky130_fd_sc_hd__a21bo_2
*I *4679:X O *D sky130_fd_sc_hd__clkdlybuf4s25_1
*CAP
1 *4116:B1 0.000161901
2 *4119:B1 0
3 *4148:B1 0
4 *4150:B1_N 0
5 *4679:X 0
6 *658:36 0.0012997
7 *658:20 0.00026959
8 *658:8 0.000494559
9 *658:4 0.00136276
10 *4116:B1 *780:8 0.00010404
11 *658:20 *660:14 2.55642e-05
12 *658:20 *660:28 4.99867e-05
13 *658:20 *773:8 0.000116314
14 *658:36 *4562:D 5.50106e-05
15 *658:36 *779:10 0.000311554
16 *658:36 *781:8 0.000114083
17 *4114:A1 *658:36 0.000196032
18 *4115:B *4116:B1 0
19 *4115:B *658:36 0
20 *4562:CLK *658:36 1.55097e-05
21 *4573:CLK *658:20 9.49336e-05
22 *4632:A *658:36 9.84794e-05
23 *94:16 *658:20 1.83564e-05
24 *256:25 *658:8 0.000193729
25 *256:25 *658:36 0.000186431
26 *256:33 *658:20 0
27 *294:10 *4116:B1 1.62479e-05
28 *478:10 *658:20 1.80023e-05
29 *478:54 *658:20 1.02387e-05
30 *594:12 *658:20 1.37039e-05
*RES
1 *4679:X *658:4 23 
2 *658:4 *658:8 4.45357 
3 *658:8 *658:20 37.048 
4 *658:20 *4150:B1_N 23 
5 *658:8 *4148:B1 23 
6 *658:4 *658:36 32.4207 
7 *658:36 *4119:B1 38 
8 *658:36 *4116:B1 41.6664 
*END

*D_NET *659 0.0128311
*CONN
*I *4127:B1 I *D sky130_fd_sc_hd__o21ai_2
*I *4135:B1 I *D sky130_fd_sc_hd__o21ai_2
*I *4130:B1 I *D sky130_fd_sc_hd__o21ai_2
*I *4124:B1 I *D sky130_fd_sc_hd__o21ai_2
*I *4122:B1 I *D sky130_fd_sc_hd__o21ai_2
*I *4146:B1 I *D sky130_fd_sc_hd__o21ai_2
*I *4144:B1 I *D sky130_fd_sc_hd__o21ai_2
*I *4132:B1 I *D sky130_fd_sc_hd__o21ai_2
*I *4680:X O *D sky130_fd_sc_hd__clkdlybuf4s25_1
*CAP
1 *4127:B1 0.000231855
2 *4135:B1 0
3 *4130:B1 0
4 *4124:B1 0
5 *4122:B1 0
6 *4146:B1 0
7 *4144:B1 0
8 *4132:B1 6.74574e-06
9 *4680:X 0
10 *659:98 0.000847612
11 *659:81 0.000643603
12 *659:74 0.000471132
13 *659:57 0.000721541
14 *659:46 0.000476264
15 *659:37 0.00071088
16 *659:27 0.00124499
17 *659:21 0.00101595
18 *659:4 0.000686594
19 *4127:B1 *4127:A1 0.000200203
20 *4132:B1 *4680:A 5.67058e-05
21 *659:21 *4567:RESET_B 0.000397065
22 *659:21 *4680:A 0.000269775
23 *659:21 *660:12 0
24 *659:21 *660:51 0
25 *659:21 *699:16 5.3304e-05
26 *659:21 *699:22 3.47781e-05
27 *659:21 *713:37 0
28 *659:21 *720:69 5.12254e-05
29 *659:27 *699:22 0.000315369
30 *659:27 *702:12 3.70094e-05
31 *659:27 *702:27 0
32 *659:27 *720:43 1.47563e-05
33 *659:27 *720:61 0.000305412
34 *659:27 *720:69 1.22906e-05
35 *659:27 *764:8 4.6318e-06
36 *659:37 *4144:A1 9.75779e-05
37 *659:37 *4145:A 1.01436e-05
38 *659:37 *660:14 0.000379413
39 *659:46 *4122:A1 4.39725e-05
40 *659:57 *4122:A1 0.000500058
41 *659:74 *4122:A1 9.75779e-05
42 *659:74 *761:12 0.000417631
43 *659:74 *762:8 0.000379403
44 *659:81 *720:69 2.32101e-05
45 *659:98 *4130:A1 1.94812e-05
46 *659:98 *720:69 1.40958e-05
47 *659:98 *720:92 6.53382e-05
48 *659:98 *766:10 5.50049e-05
49 *4145:B *659:37 9.58714e-05
50 *4476:CLK *659:21 0.000151899
51 *4566:CLK *659:21 9.74235e-05
52 *251:10 *659:74 0
53 *251:40 *4127:B1 0.000301719
54 *251:40 *659:98 0.000456361
55 *254:8 *659:37 0.000118715
56 *298:8 *659:74 4.07902e-05
57 *299:10 *659:74 0
58 *304:8 *4132:B1 5.67058e-05
59 *304:8 *659:21 0.000256544
60 *313:10 *659:27 6.48142e-05
61 *449:346 *659:37 9.8971e-06
62 *449:353 *659:37 9.71952e-05
63 *449:362 *659:37 4.70356e-05
64 *452:14 *659:74 3.72639e-05
65 *480:8 *659:21 4.08641e-05
66 *480:10 *659:21 4.54033e-05
67 *481:24 *659:74 0
*RES
1 *4680:X *659:4 23 
2 *659:4 *4132:B1 23.6214 
3 *659:4 *659:21 47.0686 
4 *659:21 *659:27 40.005 
5 *659:27 *659:37 42.5114 
6 *659:37 *4144:B1 23 
7 *659:27 *659:46 3.02429 
8 *659:46 *4146:B1 23 
9 *659:46 *659:57 6.50429 
10 *659:57 *4122:B1 23 
11 *659:57 *659:74 41.4136 
12 *659:74 *4124:B1 23 
13 *659:21 *659:81 0.621429 
14 *659:81 *4130:B1 23 
15 *659:81 *659:98 11.455 
16 *659:98 *4135:B1 23 
17 *659:98 *4127:B1 28.8621 
*END

*D_NET *660 0.0112814
*CONN
*I *4680:A I *D sky130_fd_sc_hd__clkdlybuf4s25_1
*I *4139:B1 I *D sky130_fd_sc_hd__o21ai_2
*I *4141:B1 I *D sky130_fd_sc_hd__o21ai_2
*I *4679:A I *D sky130_fd_sc_hd__clkdlybuf4s25_1
*I *4678:A I *D sky130_fd_sc_hd__clkdlybuf4s25_1
*I *4681:X O *D sky130_fd_sc_hd__clkdlybuf4s25_1
*CAP
1 *4680:A 0.000441343
2 *4139:B1 0.000292233
3 *4141:B1 7.9399e-05
4 *4679:A 0
5 *4678:A 0
6 *4681:X 0
7 *660:51 0.000952805
8 *660:28 0.00129369
9 *660:14 0.00202743
10 *660:12 0.00153187
11 *660:6 0.000937953
12 *4139:B1 *713:31 0.000229693
13 *4680:A *713:37 3.0647e-05
14 *4680:A *765:8 0.000208818
15 *660:12 *699:22 0
16 *660:12 *789:10 0
17 *660:14 *4145:A 0.000233983
18 *660:14 *769:8 0
19 *660:14 *792:12 5.80963e-05
20 *660:28 *782:10 0
21 *660:28 *782:12 0
22 *660:51 *713:37 0.000207437
23 *660:51 *765:8 0.000141879
24 *4043:B *660:28 0
25 *4114:B1 *660:28 0
26 *4132:B1 *4680:A 5.67058e-05
27 *4476:CLK *4680:A 0
28 *4573:CLK *660:14 0.000190227
29 *4573:CLK *660:28 4.73716e-05
30 *94:16 *660:14 3.04021e-05
31 *254:8 *660:12 0
32 *254:8 *660:14 0
33 *254:14 *660:14 0
34 *255:8 *660:14 0.000203929
35 *257:8 *660:28 0.000195157
36 *304:8 *4680:A 6.98147e-05
37 *314:10 *660:14 5.61207e-05
38 *315:10 *660:14 0
39 *449:340 *4141:B1 3.72306e-05
40 *449:346 *4141:B1 1.75502e-05
41 *451:8 *660:14 0
42 *531:22 *660:28 0.000760173
43 *531:46 *660:12 0
44 *531:46 *660:14 0
45 *531:59 *4139:B1 5.50049e-05
46 *531:59 *660:12 0
47 *531:59 *660:51 0
48 *594:8 *660:28 0.000169683
49 *657:10 *660:28 0
50 *657:92 *660:28 0
51 *658:20 *660:14 2.55642e-05
52 *658:20 *660:28 4.99867e-05
53 *659:21 *4680:A 0.000269775
54 *659:21 *660:12 0
55 *659:21 *660:51 0
56 *659:37 *660:14 0.000379413
*RES
1 *4681:X *660:6 38 
2 *660:6 *660:12 11.8279 
3 *660:12 *660:14 19.1607 
4 *660:14 *660:28 48.2085 
5 *660:28 *4678:A 23 
6 *660:14 *4679:A 38 
7 *660:12 *4141:B1 39.5743 
8 *660:6 *660:51 6.13143 
9 *660:51 *4139:B1 43.3857 
10 *660:51 *4680:A 47.425 
*END

*D_NET *661 0.01325
*CONN
*I *4235:B1 I *D sky130_fd_sc_hd__o21ai_2
*I *4237:B1 I *D sky130_fd_sc_hd__o21ai_2
*I *4224:B1 I *D sky130_fd_sc_hd__o21ai_2
*I *4232:B1 I *D sky130_fd_sc_hd__o21ai_2
*I *4229:B1 I *D sky130_fd_sc_hd__o21ai_2
*I *4219:B1 I *D sky130_fd_sc_hd__o21ai_2
*I *4227:B1 I *D sky130_fd_sc_hd__o21ai_2
*I *4221:B1 I *D sky130_fd_sc_hd__o21ai_2
*I *4682:X O *D sky130_fd_sc_hd__clkdlybuf4s25_1
*CAP
1 *4235:B1 0.000197235
2 *4237:B1 0
3 *4224:B1 0
4 *4232:B1 0
5 *4229:B1 2.32277e-05
6 *4219:B1 0
7 *4227:B1 0.000210733
8 *4221:B1 7.97523e-05
9 *4682:X 0.000378193
10 *661:78 0.000640112
11 *661:59 0.0012294
12 *661:41 0.000210733
13 *661:39 0.00064983
14 *661:22 0.000973987
15 *661:20 0.000810465
16 *661:18 0.00048887
17 *661:12 0.000889695
18 *661:8 0.000976252
19 *4221:B1 *867:8 0.000140036
20 *4227:B1 *869:10 0.000102389
21 *4229:B1 *4003:A 0.000101795
22 *4235:B1 *663:26 0.000102995
23 *4235:B1 *677:33 0
24 *661:8 *875:10 3.22879e-05
25 *661:12 *4520:RESET_B 0
26 *661:12 *663:26 4.07612e-05
27 *661:12 *677:33 0
28 *661:12 *852:10 0.000136029
29 *661:12 *853:10 0.000135557
30 *661:12 *873:23 0
31 *661:18 *4002:C 6.17437e-06
32 *661:18 *868:10 6.87243e-05
33 *661:22 *866:18 4.96024e-05
34 *661:59 *4003:A 0.000208184
35 *661:78 *4517:RESET_B 7.95614e-05
36 *661:78 *871:12 3.62784e-05
37 *661:78 *894:12 0.000845553
38 *4219:A2 *4221:B1 1.52164e-05
39 *4221:A1 *4221:B1 5.35934e-05
40 *4221:A1 *661:22 6.45006e-05
41 *4232:A2 *661:78 0.000100061
42 *4514:CLK *4221:B1 6.437e-05
43 *4514:CLK *661:22 0.00018065
44 *4630:A *4235:B1 5.25848e-05
45 *218:25 *661:12 0.000111852
46 *218:25 *661:18 0.000129963
47 *357:16 *4221:B1 0.000153856
48 *359:12 *661:18 0.000167452
49 *360:10 *661:18 0
50 *477:10 *4235:B1 7.44257e-05
51 *477:12 *661:12 0
52 *477:20 *661:12 0
53 *477:24 *661:22 0.000255027
54 *477:24 *661:59 0.000130433
55 *477:26 *661:22 0.000190056
56 *575:14 *661:12 0
57 *575:14 *661:18 0
58 *575:16 *661:18 0
59 *575:18 *661:18 0
60 *575:18 *661:22 1.7992e-05
61 *575:18 *661:59 4.34173e-05
62 *575:24 *661:22 0.000104952
63 *575:53 *4229:B1 5.40241e-05
64 *575:53 *661:59 0.00057349
65 *575:97 *4227:B1 0.000587532
66 *608:28 *661:8 0.000280163
*RES
1 *4682:X *661:8 46.2443 
2 *661:8 *661:12 8.86571 
3 *661:12 *661:18 24.7357 
4 *661:18 *661:20 15 
5 *661:20 *661:22 8.24429 
6 *661:22 *4221:B1 41.3143 
7 *661:22 *661:39 38.5964 
8 *661:39 *661:41 15 
9 *661:41 *4227:B1 29.3386 
10 *661:41 *4219:B1 23 
11 *661:20 *661:59 28.485 
12 *661:59 *4229:B1 24.0979 
13 *661:59 *661:78 45.0593 
14 *661:78 *4232:B1 23 
15 *661:18 *4224:B1 23 
16 *661:12 *4237:B1 38 
17 *661:8 *4235:B1 42.5364 
*END

*D_NET *662 0.00622081
*CONN
*I *4254:B1 I *D sky130_fd_sc_hd__o21ai_2
*I *4252:B1 I *D sky130_fd_sc_hd__o21ai_2
*I *4211:B1 I *D sky130_fd_sc_hd__o21ai_2
*I *4208:B1 I *D sky130_fd_sc_hd__o21ai_2
*I *4213:B1 I *D sky130_fd_sc_hd__o21ai_2
*I *4216:B1 I *D sky130_fd_sc_hd__o21ai_2
*I *4683:X O *D sky130_fd_sc_hd__clkdlybuf4s25_1
*CAP
1 *4254:B1 0
2 *4252:B1 0.000120289
3 *4211:B1 0
4 *4208:B1 6.8133e-05
5 *4213:B1 3.30156e-05
6 *4216:B1 0.000154014
7 *4683:X 0.000276344
8 *662:53 9.77444e-05
9 *662:40 0.000266398
10 *662:16 0.000345807
11 *662:14 0.000590894
12 *662:12 0.000594682
13 *662:8 0.000419142
14 *4216:B1 *865:8 0.000141201
15 *662:8 *858:10 9.58714e-05
16 *662:40 *872:14 1.1258e-05
17 *662:53 *850:8 0.000168754
18 *4208:A2 *662:40 1.24376e-05
19 *4210:B *662:8 5.54028e-05
20 *4210:B *662:12 5.47808e-05
21 *4215:A *4216:B1 0.000118466
22 *4216:A1 *4216:B1 0.000128746
23 *4216:A1 *662:16 4.91715e-05
24 *4511:CLK *4213:B1 5.58003e-05
25 *4512:CLK *4216:B1 0.000140884
26 *4512:CLK *662:16 2.53488e-05
27 *215:32 *662:14 0
28 *352:8 *662:14 0.000330135
29 *492:8 *4252:B1 2.93747e-05
30 *492:10 *4252:B1 6.67764e-05
31 *492:10 *662:14 0.000129412
32 *492:16 *662:14 0.000226935
33 *492:16 *662:53 2.77955e-05
34 *492:18 *662:14 0.000264539
35 *492:18 *662:16 0.000376662
36 *492:18 *662:53 0.000249283
37 *597:31 *4252:B1 0
38 *597:31 *662:14 0
39 *597:73 *662:14 0.000122782
40 *597:75 *662:14 6.12392e-05
41 *597:75 *662:16 0.000311289
*RES
1 *4683:X *662:8 26.9771 
2 *662:8 *662:12 17.5271 
3 *662:12 *662:14 10.005 
4 *662:14 *662:16 5.42714 
5 *662:16 *4216:B1 43.4271 
6 *662:16 *4213:B1 38.6214 
7 *662:14 *662:40 16.595 
8 *662:40 *4208:B1 24.0979 
9 *662:40 *662:53 33.6664 
10 *662:53 *4211:B1 23 
11 *662:12 *4252:B1 40.5271 
12 *662:8 *4254:B1 23 
*END

*D_NET *663 0.0166495
*CONN
*I *4243:B1 I *D sky130_fd_sc_hd__o21ai_2
*I *4259:B1 I *D sky130_fd_sc_hd__o21ai_2
*I *4683:A I *D sky130_fd_sc_hd__clkdlybuf4s25_1
*I *4257:B1 I *D sky130_fd_sc_hd__o21ai_2
*I *4682:A I *D sky130_fd_sc_hd__clkdlybuf4s25_1
*I *4248:B1 I *D sky130_fd_sc_hd__o21ai_2
*I *4245:B1 I *D sky130_fd_sc_hd__o21ai_2
*I *4240:B1 I *D sky130_fd_sc_hd__o21ai_2
*I *4684:X O *D sky130_fd_sc_hd__clkdlybuf4s25_1
*CAP
1 *4243:B1 0.000519288
2 *4259:B1 3.65708e-05
3 *4683:A 0
4 *4257:B1 4.10206e-05
5 *4682:A 0
6 *4248:B1 0
7 *4245:B1 0.000203464
8 *4240:B1 0
9 *4684:X 0.00082226
10 *663:87 0.000865479
11 *663:72 0.00112062
12 *663:65 0.000377633
13 *663:57 0.00117599
14 *663:51 0.000928695
15 *663:26 0.000576228
16 *663:20 0.000797711
17 *663:16 0.000724841
18 *663:10 0.00149446
19 *663:6 0.00182129
20 *4245:B1 *856:8 0
21 *4245:B1 *876:20 5.3304e-05
22 *4245:B1 *877:27 2.76611e-06
23 *663:10 *4524:RESET_B 0.000139657
24 *663:10 *676:20 0.000181943
25 *663:10 *876:55 0
26 *663:10 *878:8 4.59027e-05
27 *663:16 *677:33 0.000346095
28 *663:20 *677:33 5.50106e-05
29 *663:26 *677:33 0
30 *663:26 *853:10 0.000190561
31 *663:26 *873:44 0
32 *663:57 *4249:A 2.96154e-05
33 *663:57 *4250:A 6.49713e-05
34 *663:65 *874:8 0
35 *663:87 *4253:A 9.91798e-05
36 *663:87 *679:12 0
37 *663:87 *679:14 0
38 *663:87 *679:23 0
39 *663:87 *879:10 0.000104536
40 *4008:D *663:10 0
41 *4235:B1 *663:26 0.000102995
42 *4243:A1 *4243:B1 2.02517e-05
43 *4248:A1 *663:16 5.70419e-05
44 *4248:A1 *663:20 2.93845e-05
45 *4251:A_N *663:57 0.0001129
46 *4251:A_N *663:65 0
47 *4253:B *4257:B1 0
48 *4253:B *663:72 2.94414e-05
49 *4253:B *663:87 0.000135028
50 *4263:A2 *663:6 8.39276e-05
51 *4520:CLK *663:26 5.67058e-05
52 *4526:CLK *663:65 0
53 *4630:A *4245:B1 2.55642e-05
54 *4630:A *663:26 0.000530399
55 *220:38 *663:26 2.96646e-05
56 *220:55 *663:26 0
57 *222:33 *663:16 0
58 *224:14 *663:10 0.000129504
59 *224:14 *663:16 1.01436e-05
60 *224:29 *663:57 0.000129402
61 *225:14 *663:87 3.58358e-05
62 *226:8 *663:57 0
63 *227:10 *663:10 0
64 *227:21 *663:10 0
65 *227:29 *663:6 0.000128391
66 *350:12 *663:6 0.000605455
67 *375:10 *4245:B1 0
68 *376:8 *663:57 9.94675e-05
69 *377:10 *663:65 3.7122e-06
70 *377:10 *663:72 6.343e-05
71 *379:8 *663:87 9.84794e-05
72 *381:10 *663:57 7.03317e-05
73 *450:10 *4245:B1 0.000241355
74 *457:10 *4243:B1 5.47927e-05
75 *458:8 *663:87 5.3656e-05
76 *458:18 *663:87 0
77 *477:10 *663:26 8.26672e-05
78 *477:12 *663:26 0.000104123
79 *494:66 *663:57 0
80 *586:6 *4243:B1 0.000574102
81 *608:57 *4243:B1 7.59964e-05
82 *608:57 *663:6 1.55097e-05
83 *661:12 *663:26 4.07612e-05
*RES
1 *4684:X *663:6 35.0557 
2 *663:6 *663:10 25.3571 
3 *663:10 *663:16 29.2929 
4 *663:16 *663:20 15.6214 
5 *663:20 *663:26 29.1479 
6 *663:26 *4240:B1 23 
7 *663:20 *4245:B1 42.2879 
8 *663:16 *4248:B1 23 
9 *663:10 *663:51 20.3857 
10 *663:51 *663:57 42.1179 
11 *663:57 *663:65 36.5664 
12 *663:65 *4682:A 23 
13 *663:57 *663:72 3.48 
14 *663:72 *4257:B1 23.8493 
15 *663:72 *663:87 47.5243 
16 *663:87 *4683:A 23 
17 *663:51 *4259:B1 23.6214 
18 *663:6 *4243:B1 35.9257 
*END

*D_NET *664 0.0127891
*CONN
*I *3937:B I *D sky130_fd_sc_hd__nor2_2
*I *3867:C I *D sky130_fd_sc_hd__and3_2
*I *3950:A3 I *D sky130_fd_sc_hd__a32o_2
*I *3920:B I *D sky130_fd_sc_hd__nand2_2
*I *3921:A3 I *D sky130_fd_sc_hd__a31oi_2
*I *3945:A3 I *D sky130_fd_sc_hd__a32o_2
*I *3923:A2 I *D sky130_fd_sc_hd__a22o_2
*I *3866:B I *D sky130_fd_sc_hd__nand2_2
*I *4685:X O *D sky130_fd_sc_hd__clkdlybuf4s25_1
*CAP
1 *3937:B 0
2 *3867:C 0.000281103
3 *3950:A3 0
4 *3920:B 5.10988e-05
5 *3921:A3 0
6 *3945:A3 0.000142629
7 *3923:A2 0
8 *3866:B 0
9 *4685:X 9.57321e-05
10 *664:51 0.000596585
11 *664:45 0.000871002
12 *664:43 0.000459269
13 *664:33 0.000545398
14 *664:27 0.000373867
15 *664:25 0.000695707
16 *664:23 0.000369637
17 *664:12 0.000456646
18 *664:6 0.00071446
19 *3920:B *741:12 1.21972e-05
20 *3945:A3 *3945:A1 0.00026808
21 *3945:A3 *4714:A 0.000183733
22 *3945:A3 *696:10 0.000243521
23 *664:12 *742:84 0.000172121
24 *664:23 *4685:A 7.75581e-05
25 *664:25 *4361:S 2.4812e-05
26 *664:25 *4685:A 8.10563e-05
27 *664:25 *713:12 7.4564e-05
28 *664:27 *713:12 6.7177e-06
29 *664:43 *713:12 0
30 *664:43 *741:12 3.7122e-06
31 *664:45 *713:12 0
32 *664:51 *696:10 0.000426701
33 *664:51 *696:16 0.000138151
34 *664:51 *745:14 0.000210573
35 *3921:A2 *664:33 8.62783e-05
36 *3921:A2 *664:43 0.000215168
37 *3938:A1 *3867:C 4.75206e-05
38 *3938:A2 *3867:C 1.46586e-05
39 *3938:B2 *3867:C 0.000528019
40 *4414:CLK *664:51 0.000412026
41 *4782:A *664:27 0.000210659
42 *4782:A *664:33 0.000268231
43 *17:8 *3867:C 0.000909787
44 *17:10 *664:27 0.000157299
45 *17:16 *664:27 0.000435004
46 *17:16 *664:33 0.000344365
47 *21:10 *664:51 0
48 *29:10 *3867:C 5.12328e-05
49 *33:10 *664:51 7.72746e-05
50 *154:16 *664:51 7.42401e-05
51 *157:10 *664:45 0.000108672
52 *157:10 *664:51 1.12487e-05
53 *449:222 *664:51 0
54 *526:24 *3867:C 2.47702e-05
55 *528:57 *664:23 3.63581e-05
56 *528:57 *664:25 0.000216526
57 *528:57 *664:27 0.00020134
58 *583:16 *3945:A3 0.000326319
59 *583:16 *664:43 0.000151927
60 *583:16 *664:45 6.03737e-05
61 *622:16 *664:6 0.000145163
62 *622:16 *664:23 9.79925e-05
*RES
1 *4685:X *664:6 24.5743 
2 *664:6 *664:12 39.3007 
3 *664:12 *3866:B 23 
4 *664:6 *664:23 18.3557 
5 *664:23 *664:25 6.13143 
6 *664:25 *664:27 8.24429 
7 *664:27 *664:33 20.22 
8 *664:33 *664:43 23.3479 
9 *664:43 *664:45 3.31429 
10 *664:45 *664:51 30.8671 
11 *664:51 *3923:A2 23 
12 *664:45 *3945:A3 44.5043 
13 *664:43 *3921:A3 38 
14 *664:33 *3920:B 24.1186 
15 *664:27 *3950:A3 38 
16 *664:25 *3867:C 49.1029 
17 *664:23 *3937:B 38 
*END

*D_NET *665 0.0101392
*CONN
*I *3872:S I *D sky130_fd_sc_hd__mux2_1
*I *3873:S I *D sky130_fd_sc_hd__mux2_1
*I *3947:A3 I *D sky130_fd_sc_hd__a32o_2
*I *4685:A I *D sky130_fd_sc_hd__clkdlybuf4s25_1
*I *4361:S I *D sky130_fd_sc_hd__mux2_1
*I *4686:X O *D sky130_fd_sc_hd__clkdlybuf4s25_1
*CAP
1 *3872:S 0
2 *3873:S 0
3 *3947:A3 0
4 *4685:A 0.000221891
5 *4361:S 0.000250061
6 *4686:X 0.000188317
7 *665:65 0.000369312
8 *665:32 0.00238601
9 *665:22 0.00202065
10 *665:16 0.000505199
11 *665:14 0.000308236
12 *665:10 0.000467262
13 *4361:S *713:12 4.82774e-05
14 *4685:A *713:12 0.000408647
15 *665:10 *707:37 0
16 *665:65 *3940:A1 5.50106e-05
17 *3872:A0 *665:14 6.99589e-05
18 *3872:A0 *665:16 6.17437e-06
19 *3872:A0 *665:65 0.000163812
20 *3872:A1 *665:16 1.03836e-05
21 *3872:A1 *665:22 8.75739e-05
22 *3947:A2 *665:22 2.95526e-05
23 *3947:B1 *665:22 6.25714e-05
24 *3947:B2 *665:16 5.50106e-05
25 *3947:B2 *665:22 9.84794e-05
26 *4361:A0 *4361:S 0.000481931
27 *89:23 *665:32 1.05658e-05
28 *89:23 *665:65 0
29 *89:51 *665:65 6.4393e-05
30 *108:10 *665:14 4.08664e-05
31 *108:10 *665:16 8.43466e-05
32 *108:10 *665:22 0.000246298
33 *112:8 *665:14 0.000271476
34 *112:25 *665:10 0.00021986
35 *170:8 *665:65 0
36 *498:14 *4361:S 0.000164528
37 *498:20 *4361:S 0.000243237
38 *521:32 *665:32 0
39 *523:47 *665:65 0.000131169
40 *529:76 *665:65 9.51367e-05
41 *541:42 *4361:S 8.95945e-05
42 *664:23 *4685:A 7.75581e-05
43 *664:25 *4361:S 2.4812e-05
44 *664:25 *4685:A 8.10563e-05
*RES
1 *4686:X *665:10 41.3557 
2 *665:10 *665:14 21.3386 
3 *665:14 *665:16 1.09786 
4 *665:16 *665:22 4.59857 
5 *665:22 *665:32 34.8117 
6 *665:32 *4361:S 46.9175 
7 *665:32 *4685:A 43.6032 
8 *665:22 *3947:A3 23 
9 *665:16 *665:65 38.8657 
10 *665:65 *3873:S 23 
11 *665:14 *3872:S 23 
*END

*D_NET *666 0.0110802
*CONN
*I *3901:A I *D sky130_fd_sc_hd__or3_2
*I *3902:C_N I *D sky130_fd_sc_hd__or3b_2
*I *3896:A I *D sky130_fd_sc_hd__nand2_2
*I *3907:A I *D sky130_fd_sc_hd__nand2_2
*I *3895:A I *D sky130_fd_sc_hd__or4_2
*I *3899:C_N I *D sky130_fd_sc_hd__or3b_2
*I *4065:A I *D sky130_fd_sc_hd__or3_2
*I *3898:A I *D sky130_fd_sc_hd__or3_2
*I *4687:X O *D sky130_fd_sc_hd__clkdlybuf4s25_1
*CAP
1 *3901:A 0
2 *3902:C_N 0.000477047
3 *3896:A 0
4 *3907:A 0.000226767
5 *3895:A 2.1727e-05
6 *3899:C_N 0
7 *4065:A 0
8 *3898:A 0.000238075
9 *4687:X 0.000476918
10 *666:81 0.000864045
11 *666:64 0.00100735
12 *666:58 0.00059419
13 *666:42 0.000129004
14 *666:20 0.0002674
15 *666:18 0.00067757
16 *666:14 0.000658011
17 *666:8 0.000794564
18 *3902:C_N *4050:B1 0.000446275
19 *3902:C_N *691:32 5.50106e-05
20 *3907:A *672:89 5.58003e-05
21 *3907:A *672:106 0.000275403
22 *666:8 *4692:A 1.05235e-05
23 *666:14 *3895:C 2.32101e-05
24 *666:18 *3895:C 7.59794e-05
25 *666:18 *672:26 7.45491e-05
26 *666:64 *672:59 7.17698e-05
27 *3895:D *3895:A 4.00259e-06
28 *3898:B *3898:A 0.000131855
29 *3898:C *3898:A 0.000353209
30 *3901:C *666:58 4.41821e-06
31 *4047:B *666:81 0.000122053
32 *4065:C *666:42 0.000166522
33 *42:10 *666:81 0.000136486
34 *49:10 *666:64 5.26713e-05
35 *49:10 *666:81 4.26092e-05
36 *86:103 *3902:C_N 1.43918e-05
37 *86:103 *666:81 2.64616e-05
38 *87:14 *666:14 0.000247687
39 *87:30 *666:14 1.01436e-05
40 *87:30 *666:58 0.000300931
41 *87:34 *666:64 0.000100477
42 *87:62 *666:58 3.46013e-05
43 *87:62 *666:64 5.02776e-05
44 *131:26 *3902:C_N 3.70363e-05
45 *133:10 *666:42 0
46 *134:8 *666:42 3.55887e-05
47 *136:8 *666:64 0.000195162
48 *138:12 *666:64 0.000119361
49 *138:25 *666:14 0.000247687
50 *138:25 *666:58 0.000136486
51 *141:8 *666:58 0
52 *143:8 *666:64 2.02872e-05
53 *259:50 *3902:C_N 0.000142036
54 *259:50 *666:81 1.88972e-05
55 *261:22 *666:8 7.88202e-05
56 *261:41 *666:42 2.77955e-05
57 *266:10 *3898:A 0.000229104
58 *266:10 *666:18 4.00259e-06
59 *449:67 *666:64 0.000141746
60 *449:67 *666:81 9.98565e-05
61 *468:14 *666:81 0
62 *545:8 *3898:A 0.000226295
*RES
1 *4687:X *666:8 43.8621 
2 *666:8 *666:14 18.9357 
3 *666:14 *666:18 9.21786 
4 *666:18 *666:20 0.621429 
5 *666:20 *3898:A 31.41 
6 *666:20 *4065:A 23 
7 *666:18 *666:42 32.61 
8 *666:42 *3899:C_N 23 
9 *666:14 *3895:A 23.4971 
10 *666:8 *666:58 19.7229 
11 *666:58 *666:64 25.875 
12 *666:64 *3907:A 42.4536 
13 *666:64 *666:81 23.5136 
14 *666:81 *3896:A 23 
15 *666:81 *3902:C_N 33.9786 
16 *666:58 *3901:A 23 
*END

*D_NET *667 0.000705662
*CONN
*I *4854:A I *D sky130_fd_sc_hd__clkdlybuf4s25_1
*I *4599:X O *D sky130_fd_sc_hd__buf_2
*CAP
1 *4854:A 0
2 *4599:X 0.000352831
3 *667:10 0.000352831
*RES
1 *4599:X *667:10 44.1729 
2 *667:10 *4854:A 38 
*END

*D_NET *668 0.0104489
*CONN
*I *3897:B1 I *D sky130_fd_sc_hd__o21a_2
*I *3893:A1 I *D sky130_fd_sc_hd__o311a_2
*I *4687:A I *D sky130_fd_sc_hd__clkdlybuf4s25_1
*I *4060:A I *D sky130_fd_sc_hd__or3_2
*I *4063:A1 I *D sky130_fd_sc_hd__o31a_2
*I *4064:A1 I *D sky130_fd_sc_hd__o31a_2
*I *4068:A I *D sky130_fd_sc_hd__or3_2
*I *4688:X O *D sky130_fd_sc_hd__clkdlybuf4s25_1
*CAP
1 *3897:B1 0
2 *3893:A1 0
3 *4687:A 0
4 *4060:A 0.000142657
5 *4063:A1 0
6 *4064:A1 6.31972e-05
7 *4068:A 0
8 *4688:X 0.00057311
9 *668:81 0.000107018
10 *668:70 0.000250974
11 *668:52 0.00054032
12 *668:44 0.000871835
13 *668:31 0.000451235
14 *668:29 0.000646174
15 *668:25 0.000772802
16 *668:23 0.000913445
17 *668:10 0.00101679
18 *4060:A *4459:RESET_B 3.24245e-05
19 *4064:A1 *4064:B1 9.41704e-05
20 *668:10 *687:26 0
21 *668:23 *687:26 0
22 *668:44 *728:8 0.000441943
23 *668:52 *4457:RESET_B 3.52678e-06
24 *668:52 *672:106 5.46117e-05
25 *668:52 *721:14 3.70187e-05
26 *668:70 *670:104 6.12479e-05
27 *668:70 *671:8 2.08324e-05
28 *668:70 *758:27 0.000249821
29 *3897:A1 *668:23 0.000145163
30 *3897:A2 *668:23 5.58003e-05
31 *3901:B *668:31 1.61385e-05
32 *3901:C *668:52 6.68282e-05
33 *4047:B *668:52 0
34 *4060:C *4060:A 0.000186038
35 *4064:A3 *4064:A1 0.000135037
36 *4064:A3 *668:31 9.41704e-05
37 *4848:A *668:52 0.000136678
38 *50:14 *668:31 4.839e-05
39 *53:10 *668:10 0
40 *86:8 *668:44 0.0002603
41 *86:65 *668:44 0.000181643
42 *86:71 *4060:A 0.000309963
43 *132:6 *668:25 0.000501487
44 *132:6 *668:29 0.000295241
45 *132:6 *668:31 4.70479e-05
46 *259:44 *668:52 3.3123e-05
47 *267:8 *668:10 9.67719e-05
48 *462:12 *668:81 0.00010546
49 *469:8 *668:29 0.000137394
50 *469:8 *668:31 6.17437e-06
51 *469:10 *668:70 0
52 *469:36 *668:81 5.91913e-05
53 *499:14 *668:10 0.000113262
54 *535:10 *668:52 5.88855e-05
55 *541:10 *668:23 1.358e-05
*RES
1 *4688:X *668:10 47.5079 
2 *668:10 *4068:A 38 
3 *668:10 *668:23 23.7829 
4 *668:23 *668:25 11.1029 
5 *668:25 *668:29 6.35929 
6 *668:29 *668:31 4.43286 
7 *668:31 *4064:A1 24.5743 
8 *668:31 *668:44 36.1314 
9 *668:44 *668:52 41.6 
10 *668:52 *4063:A1 23 
11 *668:44 *4060:A 26.9564 
12 *668:29 *668:70 35.7793 
13 *668:70 *4687:A 23 
14 *668:25 *668:81 32.9621 
15 *668:81 *3893:A1 23 
16 *668:23 *3897:B1 23 
*END

*D_NET *669 0.0116327
*CONN
*I *3915:S I *D sky130_fd_sc_hd__mux2_1
*I *4688:A I *D sky130_fd_sc_hd__clkdlybuf4s25_1
*I *3869:A I *D sky130_fd_sc_hd__nand2_2
*I *3862:B I *D sky130_fd_sc_hd__or3_2
*I *3849:B1 I *D sky130_fd_sc_hd__a21oi_2
*I *3870:C1 I *D sky130_fd_sc_hd__o211a_2
*I *4689:X O *D sky130_fd_sc_hd__clkdlybuf4s25_1
*CAP
1 *3915:S 6.52909e-05
2 *4688:A 0
3 *3869:A 2.34823e-05
4 *3862:B 0
5 *3849:B1 0
6 *3870:C1 0
7 *4689:X 0
8 *669:82 0.00156083
9 *669:76 0.00169016
10 *669:60 0.000224473
11 *669:50 0.00068254
12 *669:46 0.000674463
13 *669:39 0.000225452
14 *669:27 0.000824654
15 *669:16 0.000373686
16 *669:4 0.000797047
17 *669:16 *753:8 7.76364e-06
18 *669:46 *4771:A 7.57389e-05
19 *669:46 *752:19 5.2949e-05
20 *669:60 *747:40 0.000139647
21 *669:82 *3850:A_N 6.45221e-05
22 *669:82 *4069:B 0
23 *669:82 *4070:B 0
24 *3847:A2 *669:82 0
25 *3870:B1 *669:16 5.3304e-05
26 *3915:A0 *3915:S 2.02872e-05
27 *3915:A1 *3915:S 5.3304e-05
28 *3915:A1 *669:46 0.000404936
29 *3915:A1 *669:76 0.000154138
30 *3915:A1 *669:82 6.52836e-05
31 *3933:A2 *669:46 0.000194309
32 *3933:A2 *669:76 0.000164282
33 *3933:A2 *669:82 0
34 *4360:B2 *669:16 0.00044107
35 *4360:B2 *669:27 0.000119313
36 *4409:CLK *669:16 2.64616e-05
37 *4471:CLK *669:16 0.000138708
38 *4529:CLK *669:16 6.17437e-06
39 *4648:A *669:50 5.79161e-05
40 *4648:A *669:60 4.93341e-05
41 *4652:A *669:50 9.84794e-05
42 *3:14 *669:60 8.86057e-06
43 *53:10 *669:82 0
44 *54:10 *669:82 8.51432e-05
45 *64:16 *669:16 7.81176e-05
46 *97:12 *669:39 0.000310591
47 *107:92 *669:60 5.3304e-05
48 *111:10 *669:50 5.70419e-05
49 *160:27 *669:82 0
50 *161:10 *669:82 0
51 *162:16 *669:82 0
52 *267:8 *669:82 0
53 *268:10 *669:82 0
54 *269:10 *669:82 0
55 *449:226 *669:39 2.93845e-05
56 *495:6 *669:50 0.000648929
57 *495:33 *669:16 6.25829e-05
58 *519:38 *3915:S 8.17328e-05
59 *519:38 *669:82 0.00018282
60 *519:49 *669:82 0
61 *560:10 *669:82 0.000140944
62 *571:8 *669:27 0.000328236
63 *571:8 *669:46 1.38978e-05
64 *644:8 *669:27 0
65 *644:8 *669:39 2.11066e-05
*RES
1 *4689:X *669:4 23 
2 *669:4 *669:16 38.6379 
3 *669:16 *3870:C1 23 
4 *669:4 *669:27 22.5504 
5 *669:27 *669:39 32.5137 
6 *669:39 *3849:B1 23 
7 *669:27 *669:46 6.3075 
8 *669:46 *669:50 25.15 
9 *669:50 *669:60 34.1014 
10 *669:60 *3862:B 23 
11 *669:50 *3869:A 23.4971 
12 *669:46 *669:76 17.2579 
13 *669:76 *669:82 42.9021 
14 *669:82 *4688:A 38 
15 *669:76 *3915:S 24.595 
*END

*D_NET *670 0.00948491
*CONN
*I *3893:C1 I *D sky130_fd_sc_hd__o311a_2
*I *3838:A I *D sky130_fd_sc_hd__inv_2
*I *3895:C I *D sky130_fd_sc_hd__or4_2
*I *4350:A2 I *D sky130_fd_sc_hd__o31a_2
*I *3911:B I *D sky130_fd_sc_hd__or4_2
*I *3892:B I *D sky130_fd_sc_hd__nand2_2
*I *4354:A2 I *D sky130_fd_sc_hd__o31a_2
*I *3903:B I *D sky130_fd_sc_hd__nand2b_2
*I *4690:X O *D sky130_fd_sc_hd__clkdlybuf4s25_1
*CAP
1 *3893:C1 0.00041263
2 *3838:A 0
3 *3895:C 7.01198e-05
4 *4350:A2 0.000407926
5 *3911:B 9.0415e-05
6 *3892:B 0.000109479
7 *4354:A2 0.000523297
8 *3903:B 7.71573e-05
9 *4690:X 0.00106344
10 *670:104 0.00111883
11 *670:31 0.000769682
12 *670:29 0.000343455
13 *670:27 0.000652939
14 *670:25 0.00032649
15 *670:23 0.000221281
16 *670:10 0.000528189
17 *3892:B *737:25 6.17437e-06
18 *3895:C *672:26 7.59794e-05
19 *4350:A2 *4350:B1 9.84851e-05
20 *4354:A2 *4354:B1 9.84851e-05
21 *670:23 *672:37 0
22 *670:25 *672:37 0
23 *670:27 *3892:A 0
24 *670:27 *672:37 0
25 *670:29 *3892:A 0
26 *670:29 *733:20 6.53342e-05
27 *670:29 *737:12 0
28 *670:31 *737:12 0
29 *670:104 *758:27 2.95423e-05
30 *3893:A2 *3893:C1 9.51377e-05
31 *3905:B1 *3893:C1 0.000321419
32 *3906:D_N *670:10 2.89076e-05
33 *86:21 *3911:B 2.31797e-05
34 *86:25 *3911:B 4.04598e-06
35 *87:14 *4354:A2 2.76611e-06
36 *87:14 *670:25 2.47304e-05
37 *87:14 *670:27 6.03737e-05
38 *87:14 *670:29 8.33262e-05
39 *87:14 *670:31 6.95768e-05
40 *111:47 *4350:A2 5.50049e-05
41 *130:8 *670:23 0.00019747
42 *130:8 *670:25 0.000140958
43 *135:10 *3903:B 1.76557e-05
44 *135:10 *670:10 9.16459e-05
45 *137:14 *670:104 3.13952e-05
46 *138:25 *3903:B 5.50049e-05
47 *138:25 *4354:A2 0
48 *138:25 *670:10 0.000219383
49 *145:6 *670:10 0.000223692
50 *145:6 *670:104 0.000111421
51 *146:10 *3911:B 5.3304e-05
52 *146:10 *4354:A2 0.000167452
53 *146:10 *670:31 0.000157299
54 *666:14 *3895:C 2.32101e-05
55 *666:18 *3895:C 7.59794e-05
56 *668:70 *670:104 6.12479e-05
*RES
1 *4690:X *670:10 30.4571 
2 *670:10 *3903:B 24.595 
3 *670:10 *670:23 17.61 
4 *670:23 *670:25 2.96214 
5 *670:25 *670:27 2.61 
6 *670:27 *670:29 3.31429 
7 *670:29 *670:31 2.96214 
8 *670:31 *4354:A2 47.0936 
9 *670:31 *3892:B 39.5743 
10 *670:29 *3911:B 40.0921 
11 *670:27 *4350:A2 45.3121 
12 *670:25 *3895:C 40.0507 
13 *670:23 *3838:A 38 
14 *4690:X *670:104 48.8129 
15 *670:104 *3893:C1 45.7886 
*END

*D_NET *671 0.00578055
*CONN
*I *3910:B I *D sky130_fd_sc_hd__or4_2
*I *4349:A2 I *D sky130_fd_sc_hd__o32a_2
*I *4353:A2 I *D sky130_fd_sc_hd__o32a_2
*I *4052:A I *D sky130_fd_sc_hd__or3_2
*I *4691:X O *D sky130_fd_sc_hd__clkdlybuf4s25_1
*CAP
1 *3910:B 0
2 *4349:A2 0
3 *4353:A2 0.000169161
4 *4052:A 0.000367201
5 *4691:X 9.80427e-05
6 *671:55 0.00011927
7 *671:40 0.00035962
8 *671:16 0.000955696
9 *671:12 0.000884027
10 *671:8 0.000322386
11 *4353:A2 *757:6 0.000569793
12 *671:8 *757:26 0.000135547
13 *671:8 *758:27 4.99753e-06
14 *671:16 *4416:RESET_B 0
15 *671:16 *673:23 0
16 *671:40 *4068:B 2.02872e-05
17 *671:55 *4068:B 9.67842e-05
18 *4046:C *4052:A 2.93747e-05
19 *4068:C *671:40 3.7122e-06
20 *4068:C *671:55 1.89178e-05
21 *4349:B2 *671:55 6.17437e-06
22 *4353:A3 *4353:A2 0.000212503
23 *4420:CLK *671:16 6.63801e-05
24 *4737:A *671:40 0.00010018
25 *4741:A *4353:A2 0.00010018
26 *107:73 *4052:A 7.91493e-05
27 *107:73 *671:16 3.3123e-05
28 *261:8 *4052:A 5.67058e-05
29 *261:12 *4052:A 0
30 *261:12 *671:8 0.000137788
31 *261:12 *671:16 0
32 *261:22 *671:12 1.21972e-05
33 *261:65 *671:12 0.000220047
34 *261:65 *671:40 0.000148167
35 *261:69 *671:55 5.21127e-05
36 *469:10 *671:8 0
37 *469:10 *671:16 4.51974e-05
38 *498:20 *671:55 0.000110922
39 *534:8 *671:16 0.000110922
40 *538:8 *671:16 0.000113153
41 *668:70 *671:8 2.08324e-05
*RES
1 *4691:X *671:8 40.61 
2 *671:8 *671:12 19.9093 
3 *671:12 *671:16 24.3007 
4 *671:16 *4052:A 45.1671 
5 *671:16 *4353:A2 44.8357 
6 *671:12 *671:40 5.38571 
7 *671:40 *4349:A2 23 
8 *671:40 *671:55 33.1486 
9 *671:55 *3910:B 23 
*END

*D_NET *672 0.0100369
*CONN
*I *4063:A2 I *D sky130_fd_sc_hd__o31a_2
*I *3907:B I *D sky130_fd_sc_hd__nand2_2
*I *4064:A2 I *D sky130_fd_sc_hd__o31a_2
*I *3837:A I *D sky130_fd_sc_hd__inv_2
*I *3903:A_N I *D sky130_fd_sc_hd__nand2b_2
*I *3900:A I *D sky130_fd_sc_hd__and4_2
*I *3892:A I *D sky130_fd_sc_hd__nand2_2
*I *3895:B I *D sky130_fd_sc_hd__or4_2
*I *4692:X O *D sky130_fd_sc_hd__clkdlybuf4s25_1
*CAP
1 *4063:A2 0
2 *3907:B 0
3 *4064:A2 6.25661e-05
4 *3837:A 0
5 *3903:A_N 2.21249e-05
6 *3900:A 8.71942e-05
7 *3892:A 0.000361684
8 *3895:B 0.000304041
9 *4692:X 0.000171457
10 *672:106 0.000491772
11 *672:89 0.000864848
12 *672:71 0.000236878
13 *672:59 0.00060427
14 *672:55 0.000847518
15 *672:39 0.000109319
16 *672:37 0.000544825
17 *672:26 0.00104093
18 *672:10 0.000171457
19 *3892:A *733:20 6.11183e-05
20 *3892:A *737:12 0.00025214
21 *4064:A2 *4064:B1 1.61385e-05
22 *672:106 *714:61 2.98648e-05
23 *672:106 *721:14 9.84851e-05
24 *3895:C *672:26 7.59794e-05
25 *3901:B *4064:A2 0.000187914
26 *3901:C *672:71 0.000166233
27 *3904:C *672:71 0.000167793
28 *3907:A *672:89 5.58003e-05
29 *3907:A *672:106 0.000275403
30 *4047:B *672:106 1.47563e-05
31 *4064:A3 *4064:A2 5.63425e-05
32 *4065:B *3892:A 0
33 *4065:C *672:37 0
34 *4653:A *672:55 3.13857e-05
35 *4848:A *672:106 0.000196165
36 *49:10 *672:106 0.000406198
37 *87:34 *672:59 0.000106485
38 *87:51 *672:55 0.000108129
39 *87:62 *672:71 0.000170542
40 *111:47 *3892:A 0
41 *130:8 *672:37 0
42 *135:10 *3900:A 0.000234534
43 *135:10 *3903:A_N 5.58003e-05
44 *137:14 *672:71 0.000189313
45 *138:12 *672:37 0
46 *138:12 *672:71 5.3304e-05
47 *138:25 *672:10 0.000227497
48 *141:8 *672:10 5.21024e-05
49 *142:14 *672:89 8.08617e-05
50 *143:8 *4064:A2 2.96073e-05
51 *143:8 *672:59 9.98069e-06
52 *145:12 *672:10 6.02277e-06
53 *147:12 *672:10 9.48318e-05
54 *261:22 *672:10 9.67842e-05
55 *261:41 *672:37 0
56 *468:14 *672:89 0.000223805
57 *497:10 *672:55 4.41821e-06
58 *497:10 *672:89 4.60997e-05
59 *506:8 *672:106 3.32626e-05
60 *666:18 *672:26 7.45491e-05
61 *666:64 *672:59 7.17698e-05
62 *668:52 *672:106 5.46117e-05
63 *670:23 *672:37 0
64 *670:25 *672:37 0
65 *670:27 *3892:A 0
66 *670:27 *672:37 0
67 *670:29 *3892:A 0
*RES
1 *4692:X *672:10 42.06 
2 *672:10 *3895:B 38 
3 *3895:B *672:26 42.4329 
4 *672:26 *3892:A 45.8921 
5 *672:26 *672:37 6.83571 
6 *672:37 *672:39 15 
7 *672:39 *3900:A 25.5271 
8 *672:39 *3903:A_N 23.6214 
9 *672:37 *672:55 3.31429 
10 *672:55 *672:59 20.3857 
11 *672:59 *672:71 37.3329 
12 *672:71 *3837:A 23 
13 *672:59 *4064:A2 25.5064 
14 *672:55 *672:89 23.8657 
15 *672:89 *3907:B 23 
16 *672:89 *672:106 42.8843 
17 *672:106 *4063:A2 23 
*END

*D_NET *673 0.00700223
*CONN
*I *3910:A I *D sky130_fd_sc_hd__or4_2
*I *3893:B1 I *D sky130_fd_sc_hd__o311a_2
*I *4068:B I *D sky130_fd_sc_hd__or3_2
*I *4349:A1 I *D sky130_fd_sc_hd__o32a_2
*I *4353:A1 I *D sky130_fd_sc_hd__o32a_2
*I *4693:X O *D sky130_fd_sc_hd__clkdlybuf4s25_1
*CAP
1 *3910:A 9.87868e-05
2 *3893:B1 0
3 *4068:B 0.000603649
4 *4349:A1 0
5 *4353:A1 0
6 *4693:X 0.000710585
7 *673:53 0.000375195
8 *673:45 0.000572216
9 *673:32 0.000744745
10 *673:23 0.00047574
11 *673:10 0.00114346
12 *4068:B *4736:A 0.000481931
13 *673:23 *4416:RESET_B 0
14 *673:23 *4420:RESET_B 0.000146634
15 *673:32 *4416:RESET_B 0
16 *673:45 *4416:RESET_B 0
17 *673:53 *4416:RESET_B 0.00020084
18 *4068:C *4068:B 1.31042e-05
19 *4349:B2 *4068:B 1.21972e-05
20 *107:73 *673:10 0
21 *107:73 *673:23 0
22 *111:99 *673:10 0.000351608
23 *111:99 *673:23 0.000201377
24 *145:6 *3910:A 2.02872e-05
25 *145:6 *673:53 0.000173442
26 *261:69 *673:23 6.48142e-05
27 *261:69 *673:32 8.94487e-05
28 *261:69 *673:45 0.000164203
29 *462:12 *673:53 0.000240897
30 *538:8 *673:23 0
31 *671:16 *673:23 0
32 *671:40 *4068:B 2.02872e-05
33 *671:55 *4068:B 9.67842e-05
*RES
1 *4693:X *673:10 49.0614 
2 *673:10 *4353:A1 38 
3 *673:10 *673:23 9.83929 
4 *673:23 *4349:A1 38 
5 *673:23 *673:32 1.20143 
6 *673:32 *4068:B 46.7207 
7 *673:32 *673:45 17.2579 
8 *673:45 *673:53 39.2593 
9 *673:53 *3893:B1 23 
10 *673:45 *3910:A 24.5743 
*END

*D_NET *674 0.0106498
*CONN
*I *4519:RESET_B I *D sky130_fd_sc_hd__dfrtp_2
*I *4515:RESET_B I *D sky130_fd_sc_hd__dfrtp_2
*I *4514:RESET_B I *D sky130_fd_sc_hd__dfrtp_2
*I *4513:RESET_B I *D sky130_fd_sc_hd__dfrtp_2
*I *4516:RESET_B I *D sky130_fd_sc_hd__dfrtp_2
*I *4517:RESET_B I *D sky130_fd_sc_hd__dfrtp_2
*I *4487:RESET_B I *D sky130_fd_sc_hd__dfrtp_2
*I *4518:RESET_B I *D sky130_fd_sc_hd__dfrtp_2
*I *4694:X O *D sky130_fd_sc_hd__clkdlybuf4s25_1
*CAP
1 *4519:RESET_B 0.000605872
2 *4515:RESET_B 0
3 *4514:RESET_B 0.000200013
4 *4513:RESET_B 0.00102957
5 *4516:RESET_B 0.000169679
6 *4517:RESET_B 0.000677609
7 *4487:RESET_B 7.75257e-05
8 *4518:RESET_B 0.000601365
9 *4694:X 0.000379534
10 *674:81 0.000283294
11 *674:79 0.00071693
12 *674:53 0.00169601
13 *674:10 0.000905349
14 *4513:RESET_B *891:10 3.95707e-06
15 *4514:RESET_B *4002:B 6.43792e-05
16 *4514:RESET_B *4222:A2 0.00011965
17 *4514:RESET_B *889:8 9.29579e-06
18 *4514:RESET_B *889:21 0.000135616
19 *4516:RESET_B *4516:D 5.02669e-05
20 *4516:RESET_B *891:10 3.25066e-05
21 *4518:RESET_B *894:12 0.000379422
22 *4519:RESET_B *4002:B 0.000184583
23 *4519:RESET_B *852:10 0
24 *4519:RESET_B *888:46 4.17929e-05
25 *674:10 *4265:A 0.000231251
26 *674:53 *4230:A1 0.000155059
27 *674:53 *4230:A2 7.59794e-05
28 *674:53 *891:10 0.000167443
29 *674:53 *891:21 0.000129504
30 *674:53 *891:42 0.000289053
31 *674:53 *892:10 5.3304e-05
32 *674:53 *894:12 9.58724e-05
33 *674:79 *888:46 9.29579e-06
34 *674:81 *4002:B 0.000128654
35 *4002:D *4519:RESET_B 0
36 *4225:B *674:53 0.000241365
37 *217:10 *4513:RESET_B 9.36858e-05
38 *217:10 *674:79 4.70852e-05
39 *218:8 *4519:RESET_B 0
40 *218:25 *4519:RESET_B 0
41 *218:33 *674:53 0.000165156
42 *218:35 *674:53 0.000195238
43 *359:12 *4519:RESET_B 0
44 *364:10 *4518:RESET_B 0
45 *365:8 *4518:RESET_B 0
46 *368:12 *4519:RESET_B 0
47 *466:6 *674:10 0.000128096
48 *661:78 *4517:RESET_B 7.95614e-05
*RES
1 *4694:X *674:10 46.3064 
2 *674:10 *4518:RESET_B 24.135 
3 *674:10 *4487:RESET_B 16.0254 
4 *4518:RESET_B *4517:RESET_B 33.6664 
5 *4517:RESET_B *674:53 44.3446 
6 *674:53 *4516:RESET_B 2.93107 
7 *674:53 *4513:RESET_B 14.0754 
8 *4513:RESET_B *674:79 15.5489 
9 *674:79 *674:81 1.90571 
10 *674:81 *4514:RESET_B 19.5675 
11 *674:81 *4515:RESET_B 15 
12 *674:79 *4519:RESET_B 26.9625 
*END

*D_NET *675 0.0107548
*CONN
*I *4418:RESET_B I *D sky130_fd_sc_hd__dfrtp_2
*I *4491:RESET_B I *D sky130_fd_sc_hd__dfrtp_2
*I *4490:RESET_B I *D sky130_fd_sc_hd__dfrtp_2
*I *4489:RESET_B I *D sky130_fd_sc_hd__dfrtp_2
*I *4488:RESET_B I *D sky130_fd_sc_hd__dfrtp_2
*I *4492:RESET_B I *D sky130_fd_sc_hd__dfrtp_2
*I *4494:RESET_B I *D sky130_fd_sc_hd__dfrtp_2
*I *4493:RESET_B I *D sky130_fd_sc_hd__dfrtp_2
*I *4695:X O *D sky130_fd_sc_hd__clkdlybuf4s25_1
*CAP
1 *4418:RESET_B 0.000528612
2 *4491:RESET_B 0.000479933
3 *4490:RESET_B 0.000203312
4 *4489:RESET_B 0.000239232
5 *4488:RESET_B 0.000218327
6 *4492:RESET_B 0.000103326
7 *4494:RESET_B 0
8 *4493:RESET_B 0.0010874
9 *4695:X 0.00026976
10 *675:48 0.000637242
11 *675:46 0.000833624
12 *675:44 0.000930562
13 *675:36 0.000606861
14 *675:10 0.000325014
15 *4418:RESET_B *935:10 6.51338e-05
16 *4418:RESET_B *936:14 0
17 *4488:RESET_B *917:42 2.4754e-05
18 *4488:RESET_B *928:10 1.12709e-05
19 *4488:RESET_B *928:28 0.000139352
20 *4488:RESET_B *928:43 0
21 *4489:RESET_B *3978:D 0.000310641
22 *4490:RESET_B *932:10 3.71228e-05
23 *4491:RESET_B *4825:A 0.000136743
24 *4491:RESET_B *933:8 2.93335e-05
25 *4492:RESET_B *934:8 5.96753e-05
26 *4493:RESET_B *677:14 0.00014411
27 *675:10 *4695:A 0.000200246
28 *675:10 *677:10 7.48331e-05
29 *675:10 *677:14 0.000119476
30 *675:10 *714:16 0.000136486
31 *675:48 *928:43 0
32 *675:48 *932:10 6.6869e-05
33 *4266:A1 *4488:RESET_B 4.83893e-05
34 *4275:B *675:46 7.03663e-05
35 *4276:A1 *675:36 5.03449e-05
36 *4276:B1 *675:36 0.00012838
37 *4277:B *4493:RESET_B 4.59027e-05
38 *4277:B *675:10 8.05868e-05
39 *4277:B *675:36 9.3813e-05
40 *4423:CLK *4418:RESET_B 0
41 *193:10 *4488:RESET_B 0.000180224
42 *194:10 *675:48 0
43 *195:10 *675:46 6.11286e-05
44 *195:10 *675:48 7.06124e-05
45 *195:23 *675:46 0.00013172
46 *195:47 *4491:RESET_B 4.99753e-06
47 *195:47 *675:46 7.02777e-05
48 *197:25 *4491:RESET_B 7.91596e-05
49 *197:25 *675:36 0
50 *197:25 *675:46 0.000144802
51 *197:33 *4491:RESET_B 0.000177145
52 *390:10 *675:36 0
53 *457:25 *4418:RESET_B 0.000480537
54 *488:6 *4492:RESET_B 5.50049e-05
55 *488:6 *675:36 5.50106e-05
56 *488:10 *4491:RESET_B 0.000188926
57 *488:32 *4492:RESET_B 8.40919e-05
58 *488:65 *675:36 5.41288e-05
59 *491:14 *4418:RESET_B 0.000187701
60 *491:51 *4418:RESET_B 0
61 *613:10 *4488:RESET_B 4.96264e-05
62 *613:10 *4489:RESET_B 9.67842e-05
63 *631:8 *675:36 4.59027e-05
*RES
1 *4695:X *675:10 44.0486 
2 *675:10 *4493:RESET_B 16.9057 
3 *675:10 *4494:RESET_B 15 
4 *4493:RESET_B *675:36 41.1132 
5 *675:36 *4492:RESET_B 2.45464 
6 *675:36 *675:44 15 
7 *675:44 *675:46 11.0614 
8 *675:46 *675:48 4.01857 
9 *675:48 *4488:RESET_B 19.8368 
10 *675:48 *4489:RESET_B 19.8368 
11 *675:46 *4490:RESET_B 17.9311 
12 *675:44 *4491:RESET_B 24.7254 
13 *4493:RESET_B *4418:RESET_B 42.035 
*END

*D_NET *676 0.006086
*CONN
*I *4523:RESET_B I *D sky130_fd_sc_hd__dfrtp_2
*I *4419:RESET_B I *D sky130_fd_sc_hd__dfrtp_2
*I *4422:RESET_B I *D sky130_fd_sc_hd__dfrtp_2
*I *4522:RESET_B I *D sky130_fd_sc_hd__dfrtp_2
*I *4524:RESET_B I *D sky130_fd_sc_hd__dfrtp_2
*I *4423:RESET_B I *D sky130_fd_sc_hd__dfrtp_2
*I *4696:X O *D sky130_fd_sc_hd__clkdlybuf4s25_1
*CAP
1 *4523:RESET_B 0.000195826
2 *4419:RESET_B 3.69763e-05
3 *4422:RESET_B 0
4 *4522:RESET_B 0.000224205
5 *4524:RESET_B 0.000511362
6 *4423:RESET_B 1.42209e-05
7 *4696:X 0.000157693
8 *676:20 0.000996939
9 *676:18 0.000773836
10 *676:16 0.000478081
11 *676:6 0.000296381
12 *4419:RESET_B *4847:A 2.33744e-05
13 *4423:RESET_B *677:53 4.83893e-05
14 *4522:RESET_B *876:16 0.000137039
15 *4522:RESET_B *876:55 0.000228903
16 *4523:RESET_B *876:16 8.05601e-05
17 *4523:RESET_B *876:55 0
18 *4523:RESET_B *877:6 2.93747e-05
19 *4523:RESET_B *878:20 4.6318e-06
20 *676:6 *677:53 0.000226306
21 *676:16 *735:10 0
22 *676:18 *734:10 0.000139647
23 *4524:CLK *4523:RESET_B 4.6318e-06
24 *4530:CLK *4522:RESET_B 0.000367698
25 *61:10 *676:20 0
26 *107:45 *4423:RESET_B 4.83893e-05
27 *107:45 *676:6 0.000515588
28 *107:47 *676:16 0
29 *227:21 *4524:RESET_B 0
30 *227:21 *676:20 0
31 *227:29 *676:20 0.000224345
32 *663:10 *4524:RESET_B 0.000139657
33 *663:10 *676:20 0.000181943
*RES
1 *4696:X *676:6 28.8621 
2 *676:6 *4423:RESET_B 0.548929 
3 *676:6 *676:16 16.9057 
4 *676:16 *676:18 5.77929 
5 *676:18 *676:20 9.65286 
6 *676:20 *4524:RESET_B 20.3132 
7 *676:20 *4522:RESET_B 22.2189 
8 *676:18 *4422:RESET_B 15 
9 *676:16 *4419:RESET_B 15.5489 
10 *4524:RESET_B *4523:RESET_B 34.3604 
*END

*D_NET *677 0.0147137
*CONN
*I *4695:A I *D sky130_fd_sc_hd__clkdlybuf4s25_1
*I *4696:A I *D sky130_fd_sc_hd__clkdlybuf4s25_1
*I *4521:RESET_B I *D sky130_fd_sc_hd__dfrtp_2
*I *4520:RESET_B I *D sky130_fd_sc_hd__dfrtp_2
*I *4694:A I *D sky130_fd_sc_hd__clkdlybuf4s25_1
*I *4697:X O *D sky130_fd_sc_hd__clkdlybuf4s25_1
*CAP
1 *4695:A 0.000313701
2 *4696:A 0
3 *4521:RESET_B 0
4 *4520:RESET_B 0.000100697
5 *4694:A 0.000657345
6 *4697:X 0.000253578
7 *677:53 0.00131094
8 *677:33 0.00118721
9 *677:14 0.00285753
10 *677:10 0.00248689
11 *677:8 0.000629554
12 *4520:RESET_B *873:23 6.58373e-05
13 *4694:A *4265:A 0.000141954
14 *4695:A *4806:A 0
15 *4695:A *714:16 2.84912e-05
16 *677:14 *3982:B 3.96156e-05
17 *677:14 *4806:A 0
18 *677:14 *917:55 0
19 *677:14 *928:43 0
20 *677:14 *935:10 5.08795e-05
21 *677:14 *936:14 0
22 *677:33 *4238:B1 0
23 *677:33 *873:23 0.000212369
24 *677:33 *873:44 0.000296956
25 *677:33 *874:28 8.94487e-05
26 *4235:B1 *677:33 0
27 *4248:A1 *677:33 7.01014e-05
28 *4276:A1 *677:14 0
29 *4277:B *677:14 0
30 *4423:RESET_B *677:53 4.83893e-05
31 *4493:RESET_B *677:14 0.00014411
32 *4619:A *677:33 4.9662e-05
33 *4666:A *677:53 3.71369e-05
34 *107:45 *677:53 2.80623e-05
35 *222:33 *677:33 0
36 *223:10 *677:14 2.54646e-05
37 *370:8 *677:33 2.7636e-05
38 *371:14 *677:14 0.000999781
39 *390:10 *677:14 2.60152e-05
40 *466:6 *4694:A 0.00015506
41 *488:67 *677:14 0.000149341
42 *586:39 *677:14 9.27917e-05
43 *586:43 *677:14 4.78793e-05
44 *619:10 *677:53 0.000148698
45 *627:8 *677:14 0.000564526
46 *642:45 *677:8 0.000354116
47 *661:12 *4520:RESET_B 0
48 *661:12 *677:33 0
49 *663:16 *677:33 0.000346095
50 *663:20 *677:33 5.50106e-05
51 *663:26 *677:33 0
52 *675:10 *4695:A 0.000200246
53 *675:10 *677:10 7.48331e-05
54 *675:10 *677:14 0.000119476
55 *676:6 *677:53 0.000226306
*RES
1 *4697:X *677:8 41.9564 
2 *677:8 *677:10 1.20143 
3 *677:10 *677:14 45.0771 
4 *677:14 *4694:A 33.8129 
5 *677:14 *677:33 34.7821 
6 *677:33 *4520:RESET_B 16.9057 
7 *677:33 *4521:RESET_B 15 
8 *677:10 *677:53 34.5957 
9 *677:53 *4696:A 23 
10 *677:8 *4695:A 44.1936 
*END

*D_NET *678 0.00120612
*CONN
*I *4855:A I *D sky130_fd_sc_hd__clkdlybuf4s25_1
*I *4600:X O *D sky130_fd_sc_hd__buf_2
*CAP
1 *4855:A 0
2 *4600:X 0.000603059
3 *678:10 0.000603059
*RES
1 *4600:X *678:10 47.5079 
2 *678:10 *4855:A 38 
*END

*D_NET *679 0.00798539
*CONN
*I *4535:RESET_B I *D sky130_fd_sc_hd__dfrtp_2
*I *4527:RESET_B I *D sky130_fd_sc_hd__dfrtp_2
*I *4526:RESET_B I *D sky130_fd_sc_hd__dfrtp_2
*I *4509:RESET_B I *D sky130_fd_sc_hd__dfrtp_2
*I *4511:RESET_B I *D sky130_fd_sc_hd__dfrtp_2
*I *4512:RESET_B I *D sky130_fd_sc_hd__dfrtp_2
*I *4510:RESET_B I *D sky130_fd_sc_hd__dfrtp_2
*I *4525:RESET_B I *D sky130_fd_sc_hd__dfrtp_2
*I *4698:X O *D sky130_fd_sc_hd__clkdlybuf4s25_1
*CAP
1 *4535:RESET_B 0.000329204
2 *4527:RESET_B 0
3 *4526:RESET_B 0.000816478
4 *4509:RESET_B 4.08008e-05
5 *4511:RESET_B 0
6 *4512:RESET_B 7.8107e-05
7 *4510:RESET_B 3.08565e-05
8 *4525:RESET_B 0
9 *4698:X 0.000167791
10 *679:83 0.00102185
11 *679:34 0.000486419
12 *679:25 0.000523074
13 *679:23 0.000572387
14 *679:14 0.000523994
15 *679:12 0.000509719
16 *679:10 0.000477361
17 *4535:RESET_B *822:10 4.6595e-05
18 *4535:RESET_B *843:10 2.30292e-05
19 *679:25 *872:8 5.80963e-05
20 *679:34 *872:8 0.000160095
21 *679:34 *886:10 7.74127e-05
22 *679:34 *886:31 8.52094e-06
23 *679:83 *4255:A2 1.83667e-05
24 *679:83 *822:10 0.000139357
25 *679:83 *879:10 0
26 *679:83 *880:10 3.83778e-05
27 *4165:A2 *4535:RESET_B 8.47188e-05
28 *4165:A2 *679:83 3.80641e-05
29 *4165:B1 *4535:RESET_B 3.22879e-05
30 *4165:B1 *679:83 1.03955e-05
31 *4215:B *4512:RESET_B 6.90927e-05
32 *4215:B *679:34 0.000191965
33 *4254:A2 *679:12 0.000237534
34 *4254:A2 *679:14 0.000141879
35 *4254:A2 *679:23 0.000233339
36 *4535:CLK *679:83 9.67842e-05
37 *4646:A *679:83 4.08664e-05
38 *224:43 *679:10 8.62876e-05
39 *225:14 *679:83 6.17437e-06
40 *225:20 *679:10 0.000194299
41 *225:20 *679:12 0.000113153
42 *380:14 *679:10 4.96717e-05
43 *458:8 *679:12 0
44 *458:12 *679:83 0.00017621
45 *458:18 *679:83 3.47781e-05
46 *597:33 *679:23 0
47 *597:33 *679:25 0
48 *597:33 *679:34 0
49 *597:43 *679:34 0
50 *608:28 *679:10 0
51 *608:28 *679:12 0
52 *663:87 *679:12 0
53 *663:87 *679:14 0
54 *663:87 *679:23 0
*RES
1 *4698:X *679:10 41.7079 
2 *679:10 *679:12 5.77929 
3 *679:12 *679:14 1.90571 
4 *679:14 *4525:RESET_B 15 
5 *679:14 *679:23 10.2743 
6 *679:23 *679:25 1.90571 
7 *679:25 *4510:RESET_B 15.6214 
8 *679:25 *679:34 9.65286 
9 *679:34 *4512:RESET_B 16.9057 
10 *679:34 *4511:RESET_B 15 
11 *679:23 *4509:RESET_B 15.5489 
12 *679:12 *4526:RESET_B 16.9782 
13 *679:10 *4527:RESET_B 15 
14 *4526:RESET_B *679:83 43.3296 
15 *679:83 *4535:RESET_B 7.23964 
*END

*D_NET *680 0.00486749
*CONN
*I *4537:RESET_B I *D sky130_fd_sc_hd__dfrtp_2
*I *4539:RESET_B I *D sky130_fd_sc_hd__dfrtp_2
*I *4538:RESET_B I *D sky130_fd_sc_hd__dfrtp_2
*I *4540:RESET_B I *D sky130_fd_sc_hd__dfrtp_2
*I *4536:RESET_B I *D sky130_fd_sc_hd__dfrtp_2
*I *4699:X O *D sky130_fd_sc_hd__clkdlybuf4s25_1
*CAP
1 *4537:RESET_B 0
2 *4539:RESET_B 3.53968e-05
3 *4538:RESET_B 1.89266e-05
4 *4540:RESET_B 0.000255702
5 *4536:RESET_B 0.000395331
6 *4699:X 0.000479559
7 *680:29 0.00059273
8 *680:27 0.000657491
9 *680:25 0.000653939
10 *680:10 0.000524944
11 *4536:RESET_B *844:6 6.8403e-06
12 *4536:RESET_B *844:18 1.22775e-06
13 *4538:RESET_B *846:12 4.89921e-05
14 *4538:RESET_B *847:16 1.60273e-05
15 *4539:RESET_B *847:10 1.19087e-05
16 *4540:RESET_B *847:16 2.70705e-05
17 *4540:RESET_B *847:22 0.000192871
18 *680:10 *4017:B 9.26005e-05
19 *680:10 *4699:A 9.17998e-05
20 *680:10 *844:27 0.000169683
21 *680:25 *844:18 0
22 *680:25 *844:27 9.26098e-05
23 *680:25 *845:8 0
24 *680:29 *847:10 4.5129e-05
25 *680:29 *847:16 4.2651e-05
26 *4170:A *680:27 0
27 *4170:A *680:29 0
28 *324:10 *680:10 0
29 *326:10 *4536:RESET_B 3.7122e-06
30 *326:10 *680:25 4.77308e-05
31 *655:14 *680:10 0.000352547
32 *655:14 *680:25 1.007e-05
*RES
1 *4699:X *680:10 48.1086 
2 *680:10 *4536:RESET_B 15.5489 
3 *4536:RESET_B *680:25 20.4271 
4 *680:25 *680:27 5.77929 
5 *680:27 *680:29 5.77929 
6 *680:29 *4540:RESET_B 20.7793 
7 *680:29 *4538:RESET_B 15.5489 
8 *680:27 *4539:RESET_B 15.5489 
9 *680:25 *4537:RESET_B 15 
*END

*D_NET *681 0.0114853
*CONN
*I *4409:RESET_B I *D sky130_fd_sc_hd__dfrtp_2
*I *4425:RESET_B I *D sky130_fd_sc_hd__dfrtp_2
*I *4528:RESET_B I *D sky130_fd_sc_hd__dfrtp_2
*I *4529:RESET_B I *D sky130_fd_sc_hd__dfrtp_2
*I *4530:RESET_B I *D sky130_fd_sc_hd__dfrtp_2
*I *4449:RESET_B I *D sky130_fd_sc_hd__dfrtp_2
*I *4450:RESET_B I *D sky130_fd_sc_hd__dfrtp_2
*I *4448:SET_B I *D sky130_fd_sc_hd__dfstp_2
*I *4700:X O *D sky130_fd_sc_hd__clkdlybuf4s25_1
*CAP
1 *4409:RESET_B 0.000288783
2 *4425:RESET_B 0.00118493
3 *4528:RESET_B 0.000272101
4 *4529:RESET_B 0.000244824
5 *4530:RESET_B 0.000144104
6 *4449:RESET_B 0.00025793
7 *4450:RESET_B 5.67658e-05
8 *4448:SET_B 0.000585215
9 *4700:X 0.000189999
10 *681:75 0.000576125
11 *681:63 0.000615279
12 *681:53 0.001652
13 *681:12 0.000456627
14 *681:10 0.000606451
15 *4448:SET_B *682:14 0.000487434
16 *4448:SET_B *749:8 8.93593e-05
17 *4448:SET_B *749:14 7.20519e-05
18 *4449:RESET_B *3914:A 6.9805e-05
19 *4449:RESET_B *714:37 5.15762e-05
20 *4449:RESET_B *748:6 3.4066e-05
21 *4449:RESET_B *748:52 0.00010018
22 *4528:RESET_B *682:14 0.0003055
23 *681:10 *4700:A 0.000100365
24 *681:10 *748:52 0
25 *681:12 *3914:A 4.16764e-05
26 *681:12 *4700:A 0.000139657
27 *681:12 *682:14 0.000126343
28 *681:12 *748:52 0
29 *681:12 *749:8 1.86973e-05
30 *681:53 *682:14 0
31 *681:53 *749:14 0
32 *681:75 *4529:D 0.000108681
33 *681:75 *682:14 0.000108681
34 *3915:A1 *4409:RESET_B 0.000152943
35 *3917:B1 *4450:RESET_B 5.3304e-05
36 *3919:A2 *681:53 0.000116314
37 *4207:B *4425:RESET_B 9.41704e-05
38 *4207:B *681:53 0.000323822
39 *4207:B *681:63 0
40 *4529:CLK *4528:RESET_B 2.45549e-06
41 *106:8 *681:63 0
42 *106:16 *4425:RESET_B 0.000172426
43 *107:92 *4409:RESET_B 0.000128201
44 *107:111 *4409:RESET_B 5.10416e-05
45 *111:18 *4448:SET_B 1.53169e-05
46 *150:37 *681:53 7.92343e-05
47 *151:22 *681:12 0
48 *228:14 *681:63 9.84794e-05
49 *350:6 *681:63 5.47927e-05
50 *449:226 *681:63 4.75206e-05
51 *449:228 *4528:RESET_B 3.31127e-05
52 *449:228 *681:63 2.64506e-05
53 *449:246 *4528:RESET_B 0
54 *449:266 *681:53 0
55 *449:266 *681:63 8.33469e-05
56 *459:8 *681:63 0
57 *495:23 *4425:RESET_B 9.84794e-05
58 *495:33 *4425:RESET_B 2.18506e-05
59 *500:10 *4409:RESET_B 0.000187504
60 *571:8 *4409:RESET_B 1.22906e-05
61 *608:8 *4530:RESET_B 0.000348804
62 *608:8 *681:63 0.000298209
*RES
1 *4700:X *681:10 40.7757 
2 *681:10 *681:12 3.66643 
3 *681:12 *4448:SET_B 22.6539 
4 *681:12 *4450:RESET_B 16.0461 
5 *681:10 *4449:RESET_B 20.3339 
6 *4448:SET_B *681:53 37.1879 
7 *681:53 *681:63 39.425 
8 *681:63 *4530:RESET_B 3.88393 
9 *681:63 *681:75 31.5536 
10 *681:75 *4529:RESET_B 3.57321 
11 *681:75 *4528:RESET_B 35.1164 
12 *681:53 *4425:RESET_B 12.1489 
13 *4425:RESET_B *4409:RESET_B 37.0014 
*END

*D_NET *682 0.0114603
*CONN
*I *4700:A I *D sky130_fd_sc_hd__clkdlybuf4s25_1
*I *4471:RESET_B I *D sky130_fd_sc_hd__dfrtp_2
*I *4699:A I *D sky130_fd_sc_hd__clkdlybuf4s25_1
*I *4698:A I *D sky130_fd_sc_hd__clkdlybuf4s25_1
*I *4701:X O *D sky130_fd_sc_hd__clkdlybuf4s25_1
*CAP
1 *4700:A 0.000347142
2 *4471:RESET_B 0.000261247
3 *4699:A 0.000373225
4 *4698:A 0
5 *4701:X 0.00021338
6 *682:27 0.00156837
7 *682:14 0.002157
8 *682:8 0.00178362
9 *4699:A *843:10 7.63857e-05
10 *4699:A *843:42 7.06021e-05
11 *4700:A *748:52 0
12 *682:8 *3914:A 0.000144221
13 *682:14 *4260:A1 8.68575e-05
14 *682:14 *4529:D 0.00034411
15 *682:14 *749:14 0
16 *682:14 *882:19 7.66085e-05
17 *682:27 *843:42 2.9938e-05
18 *682:27 *843:52 0.000123944
19 *4161:B *682:27 0.000415995
20 *4162:A *4471:RESET_B 8.26672e-05
21 *4162:A *4699:A 1.22803e-05
22 *4448:SET_B *682:14 0.000487434
23 *4528:RESET_B *682:14 0.0003055
24 *4675:A *4699:A 0.000154138
25 *34:10 *682:14 0.000138708
26 *148:27 *4700:A 7.70737e-05
27 *148:27 *682:14 0.000349377
28 *149:18 *4700:A 0
29 *225:20 *682:14 0
30 *228:14 *682:14 0.000382564
31 *316:8 *4471:RESET_B 0
32 *316:8 *4699:A 0
33 *324:10 *4699:A 0
34 *380:14 *682:14 5.67058e-05
35 *380:14 *682:27 0.000346095
36 *383:12 *682:14 0
37 *449:228 *682:14 3.18683e-05
38 *449:246 *682:14 0
39 *449:266 *682:14 3.74442e-05
40 *458:8 *682:14 8.76088e-05
41 *655:14 *4699:A 0.000271382
42 *680:10 *4699:A 9.17998e-05
43 *681:10 *4700:A 0.000100365
44 *681:12 *4700:A 0.000139657
45 *681:12 *682:14 0.000126343
46 *681:53 *682:14 0
47 *681:75 *682:14 0.000108681
*RES
1 *4701:X *682:8 41.0036 
2 *682:8 *682:14 48.5157 
3 *682:14 *4698:A 23 
4 *682:14 *682:27 34.3679 
5 *682:27 *4699:A 46.1821 
6 *682:27 *4471:RESET_B 20.4271 
7 *682:8 *4700:A 44.1936 
*END

*D_NET *683 0.0102556
*CONN
*I *4496:RESET_B I *D sky130_fd_sc_hd__dfrtp_2
*I *4417:RESET_B I *D sky130_fd_sc_hd__dfrtp_2
*I *4421:RESET_B I *D sky130_fd_sc_hd__dfrtp_2
*I *4495:RESET_B I *D sky130_fd_sc_hd__dfrtp_2
*I *4500:RESET_B I *D sky130_fd_sc_hd__dfrtp_2
*I *4498:RESET_B I *D sky130_fd_sc_hd__dfrtp_2
*I *4497:RESET_B I *D sky130_fd_sc_hd__dfrtp_2
*I *4499:RESET_B I *D sky130_fd_sc_hd__dfrtp_2
*I *4702:X O *D sky130_fd_sc_hd__clkdlybuf4s25_1
*CAP
1 *4496:RESET_B 0.000223912
2 *4417:RESET_B 0.000199772
3 *4421:RESET_B 0
4 *4495:RESET_B 0.000290356
5 *4500:RESET_B 0
6 *4498:RESET_B 0.000793592
7 *4497:RESET_B 3.30949e-05
8 *4499:RESET_B 0.000179564
9 *4702:X 0.000223021
10 *683:84 0.00121135
11 *683:72 0.00170458
12 *683:38 0.000200127
13 *683:36 0.000682156
14 *683:12 0.00103812
15 *683:10 0.000399421
16 *4495:RESET_B *937:8 5.3304e-05
17 *4496:RESET_B *3985:B 2.93335e-05
18 *4497:RESET_B *918:35 1.06815e-05
19 *4498:RESET_B *897:14 1.12919e-05
20 *4498:RESET_B *918:8 0.000116314
21 *4498:RESET_B *918:35 2.20111e-05
22 *4499:RESET_B *898:10 4.2812e-06
23 *4499:RESET_B *920:32 0.000182397
24 *683:10 *921:12 8.50366e-05
25 *683:36 *897:14 0.00031868
26 *683:72 *3988:A 0.000250839
27 *683:72 *4820:A 3.47781e-05
28 *683:72 *937:25 0.000139647
29 *683:84 *937:8 5.50106e-05
30 *3988:C *683:72 7.80354e-05
31 *4284:A1 *683:36 2.64616e-05
32 *4354:A1 *4417:RESET_B 0
33 *4354:A1 *683:84 0
34 *4421:CLK *4417:RESET_B 0
35 *60:10 *683:84 0.000315852
36 *200:21 *683:72 3.71714e-05
37 *201:8 *4496:RESET_B 6.47558e-05
38 *202:8 *683:72 0.000191148
39 *204:16 *4498:RESET_B 7.03766e-05
40 *204:16 *683:36 3.65917e-05
41 *205:10 *683:36 5.0518e-05
42 *205:10 *683:72 3.95159e-06
43 *205:23 *683:36 0.00012667
44 *205:34 *683:36 7.30768e-05
45 *205:49 *683:10 9.98635e-05
46 *205:49 *683:36 3.08441e-05
47 *496:72 *683:36 0.000557619
48 *497:77 *4417:RESET_B 0
49 *642:28 *683:84 0
*RES
1 *4702:X *683:10 41.6043 
2 *683:10 *683:12 3.24179 
3 *683:12 *4499:RESET_B 18.9979 
4 *683:12 *683:36 45.9604 
5 *683:36 *683:38 15 
6 *683:38 *4497:RESET_B 0.548929 
7 *683:38 *4498:RESET_B 33.48 
8 *683:10 *4500:RESET_B 15 
9 *4498:RESET_B *683:72 43.3918 
10 *683:72 *4495:RESET_B 1.02536 
11 *683:72 *683:84 33.7257 
12 *683:84 *4421:RESET_B 15 
13 *683:84 *4417:RESET_B 19.0186 
14 *4495:RESET_B *4496:RESET_B 33.8839 
*END

*D_NET *684 0.00498804
*CONN
*I *4464:RESET_B I *D sky130_fd_sc_hd__dfrtp_2
*I *4473:RESET_B I *D sky130_fd_sc_hd__dfrtp_2
*I *4472:RESET_B I *D sky130_fd_sc_hd__dfrtp_2
*I *4463:RESET_B I *D sky130_fd_sc_hd__dfrtp_2
*I *4468:RESET_B I *D sky130_fd_sc_hd__dfrtp_2
*I *4467:RESET_B I *D sky130_fd_sc_hd__dfrtp_2
*I *4703:X O *D sky130_fd_sc_hd__clkdlybuf4s25_1
*CAP
1 *4464:RESET_B 0
2 *4473:RESET_B 0
3 *4472:RESET_B 0.000158617
4 *4463:RESET_B 0.000467463
5 *4468:RESET_B 0
6 *4467:RESET_B 0.000331511
7 *4703:X 0.000218464
8 *684:48 0.00027562
9 *684:46 0.000333916
10 *684:8 0.000299424
11 *260:10 *684:8 0.000167452
12 *260:41 *684:8 0
13 *449:94 *4463:RESET_B 1.27489e-05
14 *461:20 *684:8 1.42006e-05
15 *497:77 *4472:RESET_B 0.000424572
16 *497:77 *684:46 6.437e-05
17 *497:77 *684:48 0.000408193
18 *511:25 *4467:RESET_B 0.000170807
19 *511:25 *684:8 0.000194209
20 *546:8 *684:8 0.000135557
21 *642:26 *4463:RESET_B 7.30188e-05
22 *642:26 *684:8 0
23 *642:28 *4472:RESET_B 0.000424572
24 *642:28 *684:46 0.000416581
25 *642:28 *684:48 0.000396747
*RES
1 *4703:X *684:8 43.075 
2 *684:8 *4467:RESET_B 17.2579 
3 *684:8 *4468:RESET_B 15 
4 *4467:RESET_B *4463:RESET_B 35.8104 
5 *4463:RESET_B *684:46 20.7793 
6 *684:46 *684:48 5.42714 
7 *684:48 *4472:RESET_B 20.7793 
8 *684:48 *4473:RESET_B 15 
9 *684:46 *4464:RESET_B 15 
*END

*D_NET *685 0.0109505
*CONN
*I *4506:RESET_B I *D sky130_fd_sc_hd__dfrtp_2
*I *4505:RESET_B I *D sky130_fd_sc_hd__dfrtp_2
*I *4703:A I *D sky130_fd_sc_hd__clkdlybuf4s25_1
*I *4702:A I *D sky130_fd_sc_hd__clkdlybuf4s25_1
*I *4503:RESET_B I *D sky130_fd_sc_hd__dfrtp_2
*I *4504:RESET_B I *D sky130_fd_sc_hd__dfrtp_2
*I *4502:RESET_B I *D sky130_fd_sc_hd__dfrtp_2
*I *4501:RESET_B I *D sky130_fd_sc_hd__dfrtp_2
*I *4704:X O *D sky130_fd_sc_hd__clkdlybuf4s25_1
*CAP
1 *4506:RESET_B 6.7648e-05
2 *4505:RESET_B 0.000231081
3 *4703:A 0.000142788
4 *4702:A 0
5 *4503:RESET_B 0.000111702
6 *4504:RESET_B 7.11059e-05
7 *4502:RESET_B 0.000130536
8 *4501:RESET_B 0.000267936
9 *4704:X 0
10 *685:73 0.000747446
11 *685:62 0.000624366
12 *685:50 0.00159458
13 *685:31 0.000288645
14 *685:21 0.000610228
15 *685:8 0.000896371
16 *685:4 0.000783565
17 *4501:RESET_B *4501:D 0
18 *4501:RESET_B *740:10 8.62876e-05
19 *4502:RESET_B *4829:A 2.64616e-05
20 *4503:RESET_B *3994:A 0.000370208
21 *4505:RESET_B *3996:B 9.27917e-05
22 *4505:RESET_B *904:8 4.70852e-05
23 *4505:RESET_B *926:17 6.51012e-05
24 *4505:RESET_B *927:27 0.000435943
25 *4506:RESET_B *927:27 0.000162422
26 *4703:A *927:27 3.70094e-05
27 *685:8 *731:10 5.70419e-05
28 *685:8 *900:8 1.92678e-05
29 *685:21 *3992:A 0.000136486
30 *685:21 *4501:D 0
31 *685:21 *731:10 0
32 *685:21 *740:10 0.000268481
33 *685:31 *3992:A 0.00010711
34 *685:31 *3994:A 0.000224345
35 *685:50 *731:10 7.53384e-06
36 *685:62 *714:10 0.000171931
37 *685:62 *714:16 9.98891e-05
38 *685:73 *3996:C 3.7122e-06
39 *3992:B *685:21 2.50756e-05
40 *4298:A1 *685:21 0.000164291
41 *4298:A1 *685:31 3.70187e-05
42 *4468:CLK *685:62 1.24376e-05
43 *39:8 *685:62 0.000178368
44 *208:24 *685:21 7.28116e-05
45 *211:10 *4503:RESET_B 0.000381653
46 *211:10 *685:31 0.000293134
47 *211:54 *685:73 9.41704e-05
48 *213:12 *4703:A 0
49 *260:41 *4703:A 5.67309e-05
50 *260:41 *685:73 6.53303e-05
51 *399:8 *685:21 1.59208e-05
52 *405:20 *4506:RESET_B 0.000165583
53 *461:33 *4505:RESET_B 0.000131744
54 *461:33 *4703:A 0.000269151
*RES
1 *4704:X *685:4 23 
2 *685:4 *685:8 18.48 
3 *685:8 *4501:RESET_B 20.1371 
4 *685:8 *685:21 8.94857 
5 *685:21 *4502:RESET_B 16.9782 
6 *685:21 *685:31 4.37071 
7 *685:31 *4504:RESET_B 16.0461 
8 *685:31 *4503:RESET_B 20.075 
9 *685:4 *685:50 6.815 
10 *685:50 *685:62 44.0443 
11 *685:62 *4702:A 23 
12 *685:50 *685:73 22.4157 
13 *685:73 *4703:A 41.6664 
14 *685:73 *4505:RESET_B 21.3282 
15 *4505:RESET_B *4506:RESET_B 32.2579 
*END

*D_NET *686 0.00807022
*CONN
*I *4469:RESET_B I *D sky130_fd_sc_hd__dfrtp_2
*I *4470:RESET_B I *D sky130_fd_sc_hd__dfrtp_2
*I *4420:RESET_B I *D sky130_fd_sc_hd__dfrtp_2
*I *4460:RESET_B I *D sky130_fd_sc_hd__dfrtp_2
*I *4416:RESET_B I *D sky130_fd_sc_hd__dfrtp_2
*I *4459:RESET_B I *D sky130_fd_sc_hd__dfrtp_2
*I *4458:RESET_B I *D sky130_fd_sc_hd__dfrtp_2
*I *4457:RESET_B I *D sky130_fd_sc_hd__dfrtp_2
*I *4705:X O *D sky130_fd_sc_hd__clkdlybuf4s25_1
*CAP
1 *4469:RESET_B 8.25999e-05
2 *4470:RESET_B 0.000693558
3 *4420:RESET_B 0.000680552
4 *4460:RESET_B 0.000129787
5 *4416:RESET_B 0.000793563
6 *4459:RESET_B 0.00164335
7 *4458:RESET_B 0
8 *4457:RESET_B 0.000964001
9 *4705:X 0.000269565
10 *686:10 0.000443974
11 *4457:RESET_B *728:8 0.000275575
12 *4469:RESET_B *757:26 0
13 *686:10 *728:8 0.000115526
14 *4060:A *4459:RESET_B 3.24245e-05
15 *4060:C *4459:RESET_B 0.000168852
16 *4420:CLK *4470:RESET_B 2.30292e-05
17 *4459:D *4459:RESET_B 6.74419e-06
18 *86:103 *686:10 0.000406185
19 *111:99 *4420:RESET_B 0.000283088
20 *131:26 *686:10 5.3304e-05
21 *259:8 *4469:RESET_B 4.83778e-05
22 *259:44 *686:10 5.61611e-05
23 *261:12 *4469:RESET_B 0
24 *261:69 *4460:RESET_B 0.000139006
25 *462:12 *4416:RESET_B 3.78309e-05
26 *469:10 *4416:RESET_B 0
27 *469:36 *4459:RESET_B 0.000100477
28 *469:42 *4459:RESET_B 2.50118e-05
29 *535:10 *686:10 0.000246679
30 *668:52 *4457:RESET_B 3.52678e-06
31 *671:16 *4416:RESET_B 0
32 *673:23 *4416:RESET_B 0
33 *673:23 *4420:RESET_B 0.000146634
34 *673:32 *4416:RESET_B 0
35 *673:45 *4416:RESET_B 0
36 *673:53 *4416:RESET_B 0.00020084
*RES
1 *4705:X *686:10 45.8093 
2 *686:10 *4457:RESET_B 19.785 
3 *686:10 *4458:RESET_B 15 
4 *4457:RESET_B *4459:RESET_B 11.7657 
5 *4459:RESET_B *4416:RESET_B 43.1743 
6 *4459:RESET_B *4460:RESET_B 33.6664 
7 *4416:RESET_B *4420:RESET_B 33.6664 
8 *4420:RESET_B *4470:RESET_B 8.90714 
9 *4470:RESET_B *4469:RESET_B 31.9057 
*END

*D_NET *687 0.00410392
*CONN
*I *4461:RESET_B I *D sky130_fd_sc_hd__dfrtp_2
*I *4474:RESET_B I *D sky130_fd_sc_hd__dfrtp_2
*I *4475:RESET_B I *D sky130_fd_sc_hd__dfrtp_2
*I *4462:RESET_B I *D sky130_fd_sc_hd__dfrtp_2
*I *4706:X O *D sky130_fd_sc_hd__clkdlybuf4s25_1
*CAP
1 *4461:RESET_B 0
2 *4474:RESET_B 2.51449e-05
3 *4475:RESET_B 0.000206541
4 *4462:RESET_B 4.31949e-05
5 *4706:X 0.000168472
6 *687:26 0.000956658
7 *687:24 0.00123687
8 *687:10 0.000555094
9 *687:8 0.000168472
10 *687:26 *742:18 0
11 *4362:A *687:26 0
12 *4462:CLK *687:24 1.12034e-05
13 *4462:D *687:24 0.000141355
14 *129:12 *4474:RESET_B 4.83893e-05
15 *267:8 *4475:RESET_B 0.000150461
16 *267:8 *687:26 3.04021e-05
17 *470:18 *4462:RESET_B 1.26547e-05
18 *470:18 *687:24 2.75275e-06
19 *470:64 *687:8 6.29744e-05
20 *516:10 *4475:RESET_B 0.000102365
21 *517:20 *4475:RESET_B 0
22 *541:23 *687:8 8.72006e-05
23 *543:10 *687:8 8.36198e-05
24 *573:8 *687:24 1.0092e-05
25 *668:10 *687:26 0
26 *668:23 *687:26 0
*RES
1 *4706:X *687:8 42.0186 
2 *687:8 *687:10 15 
3 *687:10 *4462:RESET_B 1.04607 
4 *687:10 *687:24 22.4986 
5 *687:24 *687:26 13.5264 
6 *687:26 *4475:RESET_B 20.7793 
7 *687:26 *4474:RESET_B 15.5489 
8 *687:24 *4461:RESET_B 15 
*END

*D_NET *688 0.00832004
*CONN
*I *4579:RESET_B I *D sky130_fd_sc_hd__dfrtp_2
*I *4581:RESET_B I *D sky130_fd_sc_hd__dfrtp_2
*I *4583:RESET_B I *D sky130_fd_sc_hd__dfrtp_2
*I *4580:RESET_B I *D sky130_fd_sc_hd__dfrtp_2
*I *4585:RESET_B I *D sky130_fd_sc_hd__dfrtp_2
*I *4588:RESET_B I *D sky130_fd_sc_hd__dfrtp_2
*I *4587:RESET_B I *D sky130_fd_sc_hd__dfrtp_2
*I *4584:RESET_B I *D sky130_fd_sc_hd__dfrtp_2
*I *4707:X O *D sky130_fd_sc_hd__clkdlybuf4s25_1
*CAP
1 *4579:RESET_B 0.000315618
2 *4581:RESET_B 0
3 *4583:RESET_B 0.000139294
4 *4580:RESET_B 0.000379229
5 *4585:RESET_B 0.000864474
6 *4588:RESET_B 7.52531e-05
7 *4587:RESET_B 0.000721995
8 *4584:RESET_B 0.00105483
9 *4707:X 0
10 *688:79 0.000405215
11 *688:36 0.00142364
12 *688:6 0.000538327
13 *4579:RESET_B *956:10 1.14452e-05
14 *4579:RESET_B *980:22 0
15 *4583:RESET_B *961:8 0
16 *4585:RESET_B *4316:A 5.97296e-05
17 *4587:RESET_B *4584:D 0.000127537
18 *4587:RESET_B *4587:D 0.000141954
19 *688:36 *3959:A 0
20 *688:36 *3963:C 0
21 *3959:B *688:36 0
22 *4315:A1 *4580:RESET_B 0
23 *4316:B *4585:RESET_B 5.41288e-05
24 *4584:CLK *4587:RESET_B 7.59964e-05
25 *4585:CLK *4585:RESET_B 5.47927e-05
26 *4669:A *4579:RESET_B 0.000144699
27 *4669:A *688:79 6.93449e-05
28 *177:10 *4580:RESET_B 0
29 *177:10 *688:36 0
30 *181:10 *688:36 8.4047e-05
31 *181:16 *4583:RESET_B 0
32 *181:16 *4584:RESET_B 0.000545265
33 *181:16 *688:36 0.000136746
34 *184:18 *4588:RESET_B 0.000277705
35 *409:10 *4579:RESET_B 0
36 *409:10 *688:79 0
37 *470:64 *4587:RESET_B 1.38758e-05
38 *472:50 *4580:RESET_B 1.94693e-05
39 *648:30 *4588:RESET_B 0.000277705
40 *649:24 *4580:RESET_B 0
41 *649:24 *4583:RESET_B 0.000307731
42 *649:24 *688:36 0
*RES
1 *4707:X *688:6 38 
2 *688:6 *4584:RESET_B 22.1879 
3 *4584:RESET_B *4587:RESET_B 10.8129 
4 *4587:RESET_B *4588:RESET_B 33.6664 
5 *688:6 *688:36 5.77929 
6 *688:36 *4585:RESET_B 26.6725 
7 *688:36 *4580:RESET_B 19.7125 
8 *4584:RESET_B *4583:RESET_B 34.0186 
9 *4580:RESET_B *688:79 16.9057 
10 *688:79 *4581:RESET_B 15 
11 *688:79 *4579:RESET_B 20.9968 
*END

*D_NET *689 0.00162135
*CONN
*I *4856:A I *D sky130_fd_sc_hd__clkdlybuf4s25_1
*I *4601:X O *D sky130_fd_sc_hd__buf_2
*CAP
1 *4856:A 0
2 *4601:X 0.000436442
3 *689:12 0.000436442
4 *689:12 *4378:A1 4.43717e-05
5 *689:12 *4434:RESET_B 0
6 *4434:CLK *689:12 0.00021356
7 *72:10 *689:12 5.3304e-05
8 *433:42 *689:12 0.000254208
9 *555:10 *689:12 4.2361e-05
10 *566:10 *689:12 2.11887e-05
11 *569:10 *689:12 0.000119477
*RES
1 *4601:X *689:12 48.585 
2 *689:12 *4856:A 38 
*END

*D_NET *690 0.00644065
*CONN
*I *4576:RESET_B I *D sky130_fd_sc_hd__dfrtp_2
*I *4578:RESET_B I *D sky130_fd_sc_hd__dfrtp_2
*I *4577:RESET_B I *D sky130_fd_sc_hd__dfrtp_2
*I *4465:RESET_B I *D sky130_fd_sc_hd__dfrtp_2
*I *4707:A I *D sky130_fd_sc_hd__clkdlybuf4s25_1
*I *4575:RESET_B I *D sky130_fd_sc_hd__dfrtp_2
*I *4466:RESET_B I *D sky130_fd_sc_hd__dfrtp_2
*I *4582:RESET_B I *D sky130_fd_sc_hd__dfrtp_2
*I *4708:X O *D sky130_fd_sc_hd__clkdlybuf4s25_1
*CAP
1 *4576:RESET_B 8.93528e-05
2 *4578:RESET_B 0
3 *4577:RESET_B 0
4 *4465:RESET_B 7.17459e-05
5 *4707:A 0
6 *4575:RESET_B 0.00049904
7 *4466:RESET_B 0.000447722
8 *4582:RESET_B 0.000178797
9 *4708:X 0.000178797
10 *690:82 0.000181805
11 *690:73 0.000550692
12 *690:49 0.000853715
13 *690:29 0.00103298
14 *690:17 0.000514439
15 *4465:RESET_B *721:14 0.00014411
16 *4466:RESET_B *691:19 0.000155729
17 *4466:RESET_B *721:14 0
18 *4576:RESET_B *973:10 6.46393e-05
19 *4576:RESET_B *976:23 0
20 *4582:RESET_B *691:19 0.000140259
21 *4582:RESET_B *981:8 3.92918e-05
22 *690:29 *940:8 0
23 *690:49 *959:10 0.000113989
24 *690:49 *962:8 9.98891e-05
25 *690:73 *4308:B 0.000123428
26 *690:73 *940:8 0.000123256
27 *690:73 *962:8 0
28 *690:73 *973:10 2.95125e-05
29 *690:73 *973:12 6.57448e-05
30 *690:82 *973:10 6.93449e-05
31 *4321:A1 *690:49 4.50058e-05
32 *4321:A2 *690:49 5.3304e-05
33 *4321:B1 *690:49 7.88828e-05
34 *4322:A2 *690:49 5.50049e-05
35 *4624:A *690:29 0
36 *4624:A *690:49 0
37 *175:12 *690:73 0
38 *176:10 *4576:RESET_B 0.000283088
39 *176:10 *690:73 9.98891e-05
40 *176:10 *690:82 5.71927e-05
41 *463:8 *4466:RESET_B 0
42 *463:8 *690:29 0
43 *647:26 *690:73 0
*RES
1 *4708:X *4582:RESET_B 26.4075 
2 *4708:X *690:17 38 
3 *690:17 *4466:RESET_B 23.2132 
4 *690:17 *690:29 2.61 
5 *690:29 *4575:RESET_B 15.5489 
6 *690:29 *690:49 31.8614 
7 *690:49 *4707:A 23 
8 *4466:RESET_B *4465:RESET_B 31.9057 
9 *4575:RESET_B *690:73 26.4136 
10 *690:73 *4577:RESET_B 15 
11 *690:73 *690:82 2.52714 
12 *690:82 *4578:RESET_B 15 
13 *690:82 *4576:RESET_B 18.6664 
*END

*D_NET *691 0.00956415
*CONN
*I *4586:RESET_B I *D sky130_fd_sc_hd__dfrtp_2
*I *4706:A I *D sky130_fd_sc_hd__clkdlybuf4s25_1
*I *4705:A I *D sky130_fd_sc_hd__clkdlybuf4s25_1
*I *4708:A I *D sky130_fd_sc_hd__clkdlybuf4s25_1
*I *4709:X O *D sky130_fd_sc_hd__clkdlybuf4s25_1
*CAP
1 *4586:RESET_B 0.00107025
2 *4706:A 0.000219103
3 *4705:A 0
4 *4708:A 0
5 *4709:X 3.34522e-05
6 *691:32 0.00233388
7 *691:19 0.00183859
8 *691:6 0.000827503
9 *4586:RESET_B *3967:B 0
10 *4586:RESET_B *3968:A 0
11 *4586:RESET_B *939:12 0.000463821
12 *4586:RESET_B *966:10 0
13 *4706:A *714:63 9.58714e-05
14 *691:19 *719:8 6.68793e-05
15 *3902:C_N *691:32 5.50106e-05
16 *3968:B *4586:RESET_B 0.000100533
17 *3968:B *4706:A 1.58805e-05
18 *3968:B *691:32 9.67842e-05
19 *4326:B *4586:RESET_B 0
20 *4328:B *4586:RESET_B 0.000227023
21 *4466:RESET_B *691:19 0.000155729
22 *4582:RESET_B *691:19 0.000140259
23 *131:26 *691:32 0.000935765
24 *131:41 *691:32 0.000148688
25 *181:40 *4586:RESET_B 0
26 *182:8 *4586:RESET_B 0.000113614
27 *184:18 *4586:RESET_B 0.000286494
28 *262:8 *691:32 0.000118143
29 *463:8 *691:19 0
30 *470:64 *4706:A 0
31 *512:14 *691:19 6.38947e-05
32 *512:14 *691:32 9.75779e-05
33 *573:8 *4706:A 5.94125e-05
34 *648:30 *4586:RESET_B 0
35 *648:41 *4586:RESET_B 0
*RES
1 *4709:X *691:6 23.6214 
2 *691:6 *4708:A 23 
3 *691:6 *691:19 46.3229 
4 *691:19 *4705:A 23 
5 *691:19 *691:32 40.5614 
6 *691:32 *4706:A 42.06 
7 *691:32 *4586:RESET_B 40.8514 
*END

*D_NET *692 0.00723288
*CONN
*I *4709:A I *D sky130_fd_sc_hd__clkdlybuf4s25_1
*I *4704:A I *D sky130_fd_sc_hd__clkdlybuf4s25_1
*I *4507:RESET_B I *D sky130_fd_sc_hd__dfrtp_2
*I *4508:RESET_B I *D sky130_fd_sc_hd__dfrtp_2
*I *4710:X O *D sky130_fd_sc_hd__clkdlybuf4s25_1
*CAP
1 *4709:A 0
2 *4704:A 0.000133148
3 *4507:RESET_B 0.000450158
4 *4508:RESET_B 0.000395626
5 *4710:X 0.000317056
6 *692:54 0.000450158
7 *692:18 0.00100471
8 *692:16 0.00154266
9 *692:10 0.00138379
10 *4508:RESET_B *3997:A 0
11 *4508:RESET_B *930:8 0
12 *4704:A *4501:D 0
13 *4704:A *714:10 0
14 *4704:A *731:10 0
15 *692:10 *4501:D 0
16 *692:10 *714:10 0
17 *4620:A *692:16 7.9199e-05
18 *212:32 *692:18 0
19 *213:12 *4508:RESET_B 0.000194309
20 *213:12 *692:18 0.000375277
21 *213:20 *4508:RESET_B 0
22 *214:10 *4508:RESET_B 0
23 *214:10 *692:18 0
24 *214:10 *692:54 0.00010763
25 *260:41 *692:18 1.95604e-05
26 *461:20 *692:16 8.7843e-05
27 *467:8 *692:10 0
28 *468:37 *692:54 0.000219383
29 *579:12 *4508:RESET_B 6.11286e-05
30 *640:8 *692:18 0.000194318
31 *642:14 *692:54 0.00021693
*RES
1 *4710:X *692:10 43.0129 
2 *692:10 *692:16 42.0557 
3 *692:16 *692:18 13.8786 
4 *692:18 *4508:RESET_B 23.5136 
5 *692:18 *4507:RESET_B 15 
6 *692:10 *4704:A 40.2579 
7 *4507:RESET_B *692:54 41.2271 
8 *692:54 *4709:A 23 
*END

*D_NET *693 0.00803681
*CONN
*I *4546:RESET_B I *D sky130_fd_sc_hd__dfrtp_2
*I *4545:RESET_B I *D sky130_fd_sc_hd__dfrtp_2
*I *4544:RESET_B I *D sky130_fd_sc_hd__dfrtp_2
*I *4533:RESET_B I *D sky130_fd_sc_hd__dfrtp_2
*I *4534:RESET_B I *D sky130_fd_sc_hd__dfrtp_2
*I *4543:RESET_B I *D sky130_fd_sc_hd__dfrtp_2
*I *4542:RESET_B I *D sky130_fd_sc_hd__dfrtp_2
*I *4541:RESET_B I *D sky130_fd_sc_hd__dfrtp_2
*I *4711:X O *D sky130_fd_sc_hd__clkdlybuf4s25_1
*CAP
1 *4546:RESET_B 0.000234295
2 *4545:RESET_B 0.000270031
3 *4544:RESET_B 0.000827031
4 *4533:RESET_B 4.33971e-05
5 *4534:RESET_B 4.76236e-05
6 *4543:RESET_B 0
7 *4542:RESET_B 0
8 *4541:RESET_B 0.000975573
9 *4711:X 0.000162853
10 *693:71 0.000504327
11 *693:18 0.00042082
12 *693:16 0.000786588
13 *693:10 0.000620561
14 *693:8 0.000264876
15 *4533:RESET_B *841:10 9.29579e-06
16 *4541:RESET_B *828:6 1.85944e-05
17 *4544:RESET_B *4544:D 0.00012721
18 *4544:RESET_B *828:6 3.00511e-05
19 *4544:RESET_B *828:43 6.59001e-05
20 *4545:RESET_B *832:10 5.81185e-05
21 *693:8 *842:8 0.000194296
22 *693:10 *842:8 5.56203e-05
23 *693:16 *4182:A2 6.02277e-06
24 *693:16 *830:28 0.000114083
25 *693:18 *4182:A2 8.44064e-05
26 *693:18 *829:22 1.79317e-05
27 *693:18 *830:10 0
28 *230:12 *693:8 0.00039048
29 *230:12 *693:10 0.000132665
30 *230:12 *693:16 0.000283088
31 *236:14 *4546:RESET_B 9.14776e-05
32 *333:8 *4541:RESET_B 0.000104535
33 *333:8 *693:18 6.35755e-05
34 *334:10 *4541:RESET_B 0.000104535
35 *334:10 *693:18 5.78179e-05
36 *336:8 *693:16 0.000169674
37 *337:8 *4545:RESET_B 0.000168524
38 *337:8 *4546:RESET_B 0.000167676
39 *542:35 *693:16 0
40 *564:38 *4544:RESET_B 0.000232289
41 *564:61 *4544:RESET_B 0.000130971
42 *652:52 *693:16 0
43 *652:56 *693:16 0
44 *655:46 *693:10 0
45 *655:46 *693:16 0
46 *655:46 *693:18 0
*RES
1 *4711:X *693:8 43.4271 
2 *693:8 *693:10 1.90571 
3 *693:10 *693:16 12.18 
4 *693:16 *693:18 6.13143 
5 *693:18 *4541:RESET_B 19.0082 
6 *693:18 *4542:RESET_B 15 
7 *693:16 *4543:RESET_B 15 
8 *693:10 *4534:RESET_B 15.5489 
9 *693:8 *4533:RESET_B 15.5489 
10 *4541:RESET_B *4544:RESET_B 15.2457 
11 *4544:RESET_B *693:71 15 
12 *693:71 *4545:RESET_B 20.1889 
13 *693:71 *4546:RESET_B 20.4271 
*END

*D_NET *694 0.0107612
*CONN
*I *4424:RESET_B I *D sky130_fd_sc_hd__dfrtp_2
*I *4451:SET_B I *D sky130_fd_sc_hd__dfstp_2
*I *4552:RESET_B I *D sky130_fd_sc_hd__dfrtp_2
*I *4532:RESET_B I *D sky130_fd_sc_hd__dfrtp_2
*I *4414:RESET_B I *D sky130_fd_sc_hd__dfrtp_2
*I *4406:RESET_B I *D sky130_fd_sc_hd__dfrtp_2
*I *4401:RESET_B I *D sky130_fd_sc_hd__dfrtp_2
*I *4531:RESET_B I *D sky130_fd_sc_hd__dfrtp_2
*I *4712:X O *D sky130_fd_sc_hd__clkdlybuf4s25_1
*CAP
1 *4424:RESET_B 0.000446121
2 *4451:SET_B 0.00125055
3 *4552:RESET_B 0.000229047
4 *4532:RESET_B 0.000174795
5 *4414:RESET_B 0.000804424
6 *4406:RESET_B 6.89298e-05
7 *4401:RESET_B 0
8 *4531:RESET_B 0.000748567
9 *4712:X 0.000608275
10 *694:53 0.0006955
11 *694:14 0.000678883
12 *694:12 0.000400346
13 *694:10 0.000717716
14 *4424:RESET_B *4452:RESET_B 0.000357205
15 *4424:RESET_B *695:14 3.46476e-05
16 *4424:RESET_B *696:41 0.000356146
17 *4451:SET_B *745:6 9.41704e-05
18 *4451:SET_B *745:27 8.76309e-05
19 *4532:RESET_B *805:10 5.31444e-05
20 *4532:RESET_B *818:8 5.31444e-05
21 *4552:RESET_B *4552:D 4.36616e-05
22 *4552:RESET_B *805:10 1.37349e-05
23 *4552:RESET_B *818:8 4.18032e-05
24 *694:10 *696:63 0.000508907
25 *3928:A_N *4451:SET_B 5.50106e-05
26 *4401:D *4531:RESET_B 0
27 *4453:D *4424:RESET_B 6.66635e-05
28 *4660:A *4531:RESET_B 9.95713e-05
29 *4660:A *4552:RESET_B 0
30 *107:111 *4531:RESET_B 0
31 *107:128 *4531:RESET_B 0
32 *107:128 *694:10 0
33 *107:128 *694:14 0
34 *111:88 *694:10 2.55642e-05
35 *111:88 *694:12 0.000243847
36 *111:88 *694:14 0.000218962
37 *159:12 *4424:RESET_B 2.62559e-05
38 *159:12 *4451:SET_B 0.000309668
39 *163:14 *694:10 0
40 *449:13 *694:10 3.56433e-05
41 *449:222 *694:10 0
42 *449:222 *694:12 0
43 *449:222 *694:14 0
44 *475:8 *4552:RESET_B 0.000104879
45 *475:12 *4552:RESET_B 0.000141869
46 *475:58 *4531:RESET_B 0
47 *475:58 *4552:RESET_B 0
48 *476:68 *4424:RESET_B 4.94168e-05
49 *519:10 *4531:RESET_B 0.000410379
50 *519:10 *694:14 0.000406279
51 *553:10 *4531:RESET_B 9.98788e-05
52 *572:10 *4531:RESET_B 0
*RES
1 *4712:X *694:10 49.5793 
2 *694:10 *694:12 3.31429 
3 *694:12 *694:14 6.48357 
4 *694:14 *4531:RESET_B 26.4136 
5 *694:14 *4401:RESET_B 15 
6 *694:12 *4406:RESET_B 16.0461 
7 *694:10 *4414:RESET_B 15 
8 *4531:RESET_B *694:53 19.0496 
9 *694:53 *4532:RESET_B 18.0554 
10 *694:53 *4552:RESET_B 20.3961 
11 *4414:RESET_B *4451:SET_B 13.5679 
12 *4451:SET_B *4424:RESET_B 39.6736 
*END

*D_NET *695 0.00704439
*CONN
*I *4453:RESET_B I *D sky130_fd_sc_hd__dfrtp_2
*I *4551:RESET_B I *D sky130_fd_sc_hd__dfrtp_2
*I *4550:RESET_B I *D sky130_fd_sc_hd__dfrtp_2
*I *4452:RESET_B I *D sky130_fd_sc_hd__dfrtp_2
*I *4713:X O *D sky130_fd_sc_hd__clkdlybuf4s25_1
*CAP
1 *4453:RESET_B 0.000290666
2 *4551:RESET_B 0.000128867
3 *4550:RESET_B 0.000120692
4 *4452:RESET_B 0.000157689
5 *4713:X 0.000291711
6 *695:26 0.000768933
7 *695:14 0.00110207
8 *695:8 0.00100738
9 *4452:RESET_B *696:41 4.33374e-05
10 *4452:RESET_B *743:10 9.15069e-05
11 *4452:RESET_B *743:40 0.000315092
12 *4453:RESET_B *713:31 0.000172085
13 *4453:RESET_B *744:34 0.000102638
14 *4453:RESET_B *746:8 0.00013273
15 *4551:RESET_B *839:8 2.93747e-05
16 *695:8 *4713:A 5.50106e-05
17 *695:14 *696:41 1.40533e-05
18 *695:14 *743:40 5.3304e-05
19 *695:14 *744:24 0.000144933
20 *695:14 *744:34 0.000218952
21 *695:26 *3927:B 0.000394302
22 *695:26 *743:40 0.000212984
23 *695:26 *744:8 7.34394e-06
24 *4358:A1 *695:14 2.60152e-05
25 *4424:RESET_B *4452:RESET_B 0.000357205
26 *4424:RESET_B *695:14 3.46476e-05
27 *241:40 *4550:RESET_B 4.21594e-06
28 *241:57 *4550:RESET_B 8.93593e-05
29 *241:57 *695:26 5.19255e-05
30 *349:10 *695:26 0.000166513
31 *465:25 *695:26 0
32 *480:31 *695:8 1.94812e-05
33 *480:31 *695:14 0
34 *539:8 *695:26 0.000243587
35 *540:14 *4550:RESET_B 7.76183e-05
36 *540:14 *695:26 3.85256e-05
37 *595:10 *695:26 7.96355e-05
*RES
1 *4713:X *695:8 41.9564 
2 *695:8 *695:14 23.0993 
3 *695:14 *4452:RESET_B 5.81036 
4 *695:14 *695:26 28.8786 
5 *695:26 *4550:RESET_B 18.6664 
6 *695:26 *4551:RESET_B 16.9782 
7 *695:8 *4453:RESET_B 20.4375 
*END

*D_NET *696 0.0152024
*CONN
*I *4548:RESET_B I *D sky130_fd_sc_hd__dfrtp_2
*I *4549:RESET_B I *D sky130_fd_sc_hd__dfrtp_2
*I *4712:A I *D sky130_fd_sc_hd__clkdlybuf4s25_1
*I *4713:A I *D sky130_fd_sc_hd__clkdlybuf4s25_1
*I *4547:RESET_B I *D sky130_fd_sc_hd__dfrtp_2
*I *4711:A I *D sky130_fd_sc_hd__clkdlybuf4s25_1
*I *4714:X O *D sky130_fd_sc_hd__clkdlybuf4s25_1
*CAP
1 *4548:RESET_B 0
2 *4549:RESET_B 0.000202334
3 *4712:A 0.000107513
4 *4713:A 0.000390457
5 *4547:RESET_B 0.000831551
6 *4711:A 0
7 *4714:X 0.000778015
8 *696:81 0.000450301
9 *696:63 0.000318377
10 *696:41 0.00163494
11 *696:16 0.00172853
12 *696:10 0.00295658
13 *4547:RESET_B *834:6 9.83705e-05
14 *4549:RESET_B *834:27 0
15 *4549:RESET_B *836:6 7.53384e-06
16 *4713:A *3927:B 4.70239e-05
17 *4713:A *4790:A 0.000257636
18 *4713:A *743:40 0.000111852
19 *4713:A *746:10 1.19796e-05
20 *696:10 *3945:A1 0.000228001
21 *696:10 *4714:A 2.02872e-05
22 *696:10 *743:10 0
23 *696:10 *743:23 0
24 *696:16 *4015:D 0.000137153
25 *696:16 *805:10 0
26 *696:16 *818:8 0.000382574
27 *696:16 *838:8 4.23817e-05
28 *696:16 *838:12 5.86432e-05
29 *696:41 *743:10 3.90219e-05
30 *696:81 *812:8 0
31 *696:81 *834:23 2.11887e-05
32 *696:81 *834:27 0.000103481
33 *3928:A_N *696:10 0.000110913
34 *3945:A3 *696:10 0.000243521
35 *4202:B *4549:RESET_B 6.15872e-05
36 *4202:B *696:81 2.84835e-05
37 *4358:A2 *4713:A 0.000241355
38 *4414:CLK *696:16 0.000107648
39 *4424:RESET_B *696:41 0.000356146
40 *4452:D *696:41 5.67058e-05
41 *4452:RESET_B *696:41 4.33374e-05
42 *20:21 *696:63 0.000434994
43 *154:16 *696:10 0
44 *154:16 *696:16 0
45 *159:43 *4713:A 7.39034e-05
46 *343:8 *696:81 0.000309985
47 *449:13 *696:63 0
48 *449:222 *696:63 5.08899e-05
49 *449:300 *696:16 0
50 *475:8 *696:16 0.00024009
51 *475:65 *696:16 9.98891e-05
52 *476:68 *4713:A 0.000175903
53 *476:80 *696:41 4.75206e-05
54 *593:14 *696:16 0.000289187
55 *654:10 *696:16 0
56 *654:16 *696:16 0
57 *655:32 *4547:RESET_B 6.6978e-05
58 *655:32 *696:16 5.47927e-05
59 *664:51 *696:10 0.000426701
60 *664:51 *696:16 0.000138151
61 *694:10 *696:63 0.000508907
62 *695:8 *4713:A 5.50106e-05
63 *695:14 *696:41 1.40533e-05
*RES
1 *4714:X *696:10 49.6414 
2 *696:10 *696:16 44.1864 
3 *696:16 *4711:A 23 
4 *696:16 *4547:RESET_B 11.0304 
5 *696:10 *696:41 47.6279 
6 *696:41 *4713:A 46.8243 
7 *4714:X *696:63 45.8921 
8 *696:63 *4712:A 39.5743 
9 *4547:RESET_B *696:81 21.4007 
10 *696:81 *4549:RESET_B 18.4075 
11 *696:81 *4548:RESET_B 15 
*END

*D_NET *697 0.00628895
*CONN
*I *4558:RESET_B I *D sky130_fd_sc_hd__dfrtp_2
*I *4557:RESET_B I *D sky130_fd_sc_hd__dfrtp_2
*I *4573:RESET_B I *D sky130_fd_sc_hd__dfrtp_2
*I *4574:RESET_B I *D sky130_fd_sc_hd__dfrtp_2
*I *4553:RESET_B I *D sky130_fd_sc_hd__dfrtp_2
*I *4554:RESET_B I *D sky130_fd_sc_hd__dfrtp_2
*I *4556:RESET_B I *D sky130_fd_sc_hd__dfrtp_2
*I *4555:RESET_B I *D sky130_fd_sc_hd__dfrtp_2
*I *4715:X O *D sky130_fd_sc_hd__clkdlybuf4s25_1
*CAP
1 *4558:RESET_B 0.000300735
2 *4557:RESET_B 0.000721921
3 *4573:RESET_B 0
4 *4574:RESET_B 0
5 *4553:RESET_B 0
6 *4554:RESET_B 0
7 *4556:RESET_B 0.000421186
8 *4555:RESET_B 0.000132017
9 *4715:X 0.000147544
10 *697:22 0.000653397
11 *697:20 0.000826889
12 *697:18 0.000678585
13 *697:12 0.000642662
14 *697:10 0.000417129
15 *4555:RESET_B *796:10 3.19287e-05
16 *4557:RESET_B *759:10 0.000323904
17 *4557:RESET_B *797:10 3.27252e-05
18 *697:20 *711:23 0
19 *697:20 *782:10 0
20 *697:20 *782:12 0
21 *697:22 *4031:B 2.07509e-05
22 *697:22 *4101:B1 7.39923e-05
23 *697:22 *711:23 0
24 *697:22 *771:10 0
25 *697:22 *782:12 0
26 *697:22 *782:14 0
27 *697:22 *793:18 7.23468e-05
28 *697:22 *796:10 3.40838e-05
29 *697:22 *796:22 9.37325e-05
30 *697:22 *797:10 7.33172e-05
31 *4042:D *697:10 5.50106e-05
32 *4557:CLK *4557:RESET_B 0.00010766
33 *4631:A *697:12 0.000143204
34 *4631:A *697:18 8.16356e-05
35 *451:8 *697:10 5.2949e-05
36 *451:8 *697:12 6.33614e-05
37 *478:10 *697:18 0
38 *478:12 *697:18 0
39 *478:12 *697:20 0
40 *531:22 *697:12 0
41 *531:22 *697:18 0
42 *531:22 *697:20 0
43 *531:32 *697:10 0
44 *531:32 *697:12 0
45 *626:10 *697:10 8.62876e-05
*RES
1 *4715:X *697:10 41.2314 
2 *697:10 *697:12 5.77929 
3 *697:12 *697:18 7.02214 
4 *697:18 *697:20 5.77929 
5 *697:20 *697:22 11.4136 
6 *697:22 *4555:RESET_B 17.4546 
7 *697:22 *4556:RESET_B 15 
8 *697:20 *4554:RESET_B 15 
9 *697:18 *4553:RESET_B 15 
10 *697:12 *4574:RESET_B 15 
11 *697:10 *4573:RESET_B 15 
12 *4556:RESET_B *4557:RESET_B 9.52857 
13 *4557:RESET_B *4558:RESET_B 35.4271 
*END

*D_NET *698 0.0044271
*CONN
*I *4561:RESET_B I *D sky130_fd_sc_hd__dfrtp_2
*I *4560:RESET_B I *D sky130_fd_sc_hd__dfrtp_2
*I *4559:RESET_B I *D sky130_fd_sc_hd__dfrtp_2
*I *4562:RESET_B I *D sky130_fd_sc_hd__dfrtp_2
*I *4716:X O *D sky130_fd_sc_hd__clkdlybuf4s25_1
*CAP
1 *4561:RESET_B 0.000119961
2 *4560:RESET_B 8.29838e-05
3 *4559:RESET_B 0.000455537
4 *4562:RESET_B 0.000337106
5 *4716:X 0.000166485
6 *698:25 0.000648215
7 *698:23 0.000365091
8 *698:8 0.000368155
9 *4559:RESET_B *801:19 1.22803e-05
10 *4560:RESET_B *4034:A 2.02872e-05
11 *4561:RESET_B *4035:B 2.18409e-05
12 *4561:RESET_B *802:10 7.28721e-05
13 *698:23 *4035:C 0
14 *698:23 *801:38 0.000121273
15 *698:25 *801:19 5.97612e-05
16 *698:25 *801:38 2.71291e-05
17 *247:8 *4559:RESET_B 0
18 *247:16 *4559:RESET_B 0.000223043
19 *247:31 *4559:RESET_B 0.000247678
20 *247:31 *4560:RESET_B 5.3304e-05
21 *247:37 *4559:RESET_B 3.47781e-05
22 *247:37 *698:25 0.000161121
23 *247:45 *4561:RESET_B 0.000137651
24 *248:8 *4560:RESET_B 0.000219685
25 *249:8 *698:8 0.000169683
26 *249:17 *698:8 0.000171906
27 *290:12 *4559:RESET_B 0.000129279
*RES
1 *4716:X *698:8 42.3707 
2 *698:8 *4562:RESET_B 17.9311 
3 *4562:RESET_B *698:23 18.3143 
4 *698:23 *698:25 2.61 
5 *698:25 *4559:RESET_B 26.4136 
6 *698:25 *4560:RESET_B 17.4546 
7 *698:23 *4561:RESET_B 17.9518 
*END

*D_NET *699 0.0125477
*CONN
*I *4479:RESET_B I *D sky130_fd_sc_hd__dfrtp_2
*I *4477:RESET_B I *D sky130_fd_sc_hd__dfrtp_2
*I *4567:RESET_B I *D sky130_fd_sc_hd__dfrtp_2
*I *4570:RESET_B I *D sky130_fd_sc_hd__dfrtp_2
*I *4563:RESET_B I *D sky130_fd_sc_hd__dfrtp_2
*I *4571:RESET_B I *D sky130_fd_sc_hd__dfrtp_2
*I *4572:RESET_B I *D sky130_fd_sc_hd__dfrtp_2
*I *4569:RESET_B I *D sky130_fd_sc_hd__dfrtp_2
*I *4717:X O *D sky130_fd_sc_hd__clkdlybuf4s25_1
*CAP
1 *4479:RESET_B 0.000241087
2 *4477:RESET_B 0.000631093
3 *4567:RESET_B 0.000908147
4 *4570:RESET_B 0.000273436
5 *4563:RESET_B 0.000797954
6 *4571:RESET_B 0.000150216
7 *4572:RESET_B 0.000276441
8 *4569:RESET_B 0.000163035
9 *4717:X 0
10 *699:92 0.00114517
11 *699:26 0.000492978
12 *699:24 0.000965169
13 *699:22 0.00099
14 *699:16 0.00088805
15 *699:4 0.000282432
16 *4477:RESET_B *4477:D 7.88828e-05
17 *4479:RESET_B *998:8 0.000199701
18 *4563:RESET_B *4144:A1 0.000183733
19 *4567:RESET_B *720:69 0.000134216
20 *4569:RESET_B *789:10 1.39317e-05
21 *4571:RESET_B *791:10 5.50106e-05
22 *4572:RESET_B *720:26 0
23 *4572:RESET_B *770:8 0
24 *4572:RESET_B *791:10 1.01436e-05
25 *699:22 *4040:B 0
26 *699:22 *720:69 2.89256e-05
27 *699:22 *789:10 0
28 *699:22 *791:10 0.000450424
29 *699:22 *791:31 0
30 *699:24 *720:43 0
31 *699:24 *791:10 0.000238464
32 *699:26 *720:26 0
33 *699:26 *791:10 0.00010394
34 *699:92 *702:57 0.000481841
35 *699:92 *720:69 0
36 *699:92 *787:8 5.83407e-05
37 *4130:A2 *699:92 2.70366e-05
38 *4477:CLK *699:92 0.000140259
39 *4568:CLK *699:92 0.000263159
40 *313:10 *699:22 5.08795e-05
41 *313:10 *699:24 6.63698e-05
42 *451:8 *4572:RESET_B 0.000158516
43 *481:32 *4563:RESET_B 0.000487147
44 *531:32 *4572:RESET_B 0
45 *531:42 *4570:RESET_B 0.000173442
46 *531:42 *4571:RESET_B 0.000137651
47 *570:10 *4479:RESET_B 0
48 *659:21 *4567:RESET_B 0.000397065
49 *659:21 *699:16 5.3304e-05
50 *659:21 *699:22 3.47781e-05
51 *659:27 *699:22 0.000315369
52 *660:12 *699:22 0
*RES
1 *4717:X *699:4 23 
2 *699:4 *4569:RESET_B 2.95179 
3 *699:4 *699:16 16.5743 
4 *699:16 *699:22 14.1893 
5 *699:22 *699:24 3.31429 
6 *699:24 *699:26 1.55357 
7 *699:26 *4572:RESET_B 19.3707 
8 *699:26 *4571:RESET_B 17.9518 
9 *699:24 *4563:RESET_B 29.6968 
10 *699:22 *4570:RESET_B 20.3339 
11 *699:16 *4567:RESET_B 20.4271 
12 *4567:RESET_B *699:92 45.5875 
13 *699:92 *4477:RESET_B 7.23964 
14 *4477:RESET_B *4479:RESET_B 35.1682 
*END

*D_NET *700 0.000971703
*CONN
*I *4857:A I *D sky130_fd_sc_hd__clkdlybuf4s25_1
*I *3871:X O *D sky130_fd_sc_hd__a21o_2
*CAP
1 *4857:A 0
2 *3871:X 0.000332434
3 *700:8 0.000332434
4 *700:8 *3884:A 5.67058e-05
5 *121:40 *700:8 0.000195119
6 *123:8 *700:8 5.50106e-05
*RES
1 *3871:X *700:8 30.3121 
2 *700:8 *4857:A 23 
*END

*D_NET *701 0.00575276
*CONN
*I *4565:RESET_B I *D sky130_fd_sc_hd__dfrtp_2
*I *4564:RESET_B I *D sky130_fd_sc_hd__dfrtp_2
*I *4568:RESET_B I *D sky130_fd_sc_hd__dfrtp_2
*I *4566:RESET_B I *D sky130_fd_sc_hd__dfrtp_2
*I *4718:X O *D sky130_fd_sc_hd__clkdlybuf4s25_1
*CAP
1 *4565:RESET_B 0.000145941
2 *4564:RESET_B 0.000247766
3 *4568:RESET_B 0.000833291
4 *4566:RESET_B 0.000383957
5 *4718:X 0.000305675
6 *701:37 0.000843041
7 *701:10 0.000305675
8 *4564:RESET_B *784:24 4.48671e-05
9 *4568:RESET_B *4039:A 0.000221084
10 *4568:RESET_B *786:8 6.44747e-05
11 *4568:RESET_B *788:23 0.000141869
12 *4568:RESET_B *988:8 3.99296e-05
13 *701:37 *763:8 0
14 *4039:D *701:37 8.16356e-05
15 *4126:B *4565:RESET_B 0.000475327
16 *4134:A *4568:RESET_B 7.20519e-05
17 *251:10 *4564:RESET_B 0.000206416
18 *251:19 *4564:RESET_B 2.08324e-05
19 *251:19 *701:37 6.43005e-05
20 *251:32 *701:37 0.000123428
21 *253:12 *4568:RESET_B 2.8936e-05
22 *253:12 *701:37 0
23 *272:28 *4568:RESET_B 0
24 *272:28 *701:37 0.00012837
25 *297:10 *4564:RESET_B 0
26 *301:10 *4564:RESET_B 0
27 *301:10 *4565:RESET_B 4.97675e-05
28 *301:10 *701:37 0
29 *302:8 *701:10 0.000400877
30 *305:10 *701:10 0.000108681
31 *306:10 *701:10 0
32 *452:29 *701:10 5.3304e-05
33 *481:10 *4564:RESET_B 2.22079e-05
34 *481:10 *701:37 3.21327e-05
35 *481:18 *4565:RESET_B 5.47927e-05
36 *570:10 *701:37 0.000252131
*RES
1 *4718:X *701:10 44.0486 
2 *701:10 *4566:RESET_B 15 
3 *4566:RESET_B *4568:RESET_B 38.3789 
4 *4568:RESET_B *701:37 26.0614 
5 *701:37 *4564:RESET_B 20.7793 
6 *701:37 *4565:RESET_B 20.3132 
*END

*D_NET *702 0.0101004
*CONN
*I *4718:A I *D sky130_fd_sc_hd__clkdlybuf4s25_1
*I *4716:A I *D sky130_fd_sc_hd__clkdlybuf4s25_1
*I *4715:A I *D sky130_fd_sc_hd__clkdlybuf4s25_1
*I *4717:A I *D sky130_fd_sc_hd__clkdlybuf4s25_1
*I *4719:X O *D sky130_fd_sc_hd__clkdlybuf4s25_1
*CAP
1 *4718:A 0
2 *4716:A 0
3 *4715:A 9.83074e-06
4 *4717:A 0
5 *4719:X 0.00019404
6 *702:57 0.000408367
7 *702:46 0.00105605
8 *702:27 0.00197601
9 *702:21 0.00152528
10 *702:12 0.000108394
11 *702:6 0.000509216
12 *702:12 *720:69 0.000274553
13 *702:12 *764:8 4.31366e-05
14 *702:27 *4038:A 0
15 *702:27 *720:43 0
16 *702:27 *720:61 0.000276287
17 *702:27 *764:8 6.93449e-05
18 *702:27 *770:8 0.000318105
19 *702:46 *801:38 5.58152e-06
20 *702:57 *720:69 0
21 *4130:A2 *702:27 0.000277695
22 *4130:A2 *702:57 0.000349386
23 *4477:CLK *702:57 5.50106e-05
24 *4566:CLK *702:6 0.000116554
25 *253:46 *702:27 0.000102083
26 *253:52 *702:27 0.000536103
27 *253:56 *4715:A 9.85586e-06
28 *253:56 *702:27 9.65492e-05
29 *452:29 *702:57 0.000478433
30 *481:32 *702:27 0.000406288
31 *531:32 *4715:A 2.46922e-05
32 *531:32 *702:27 0.000354721
33 *659:27 *702:12 3.70094e-05
34 *659:27 *702:27 0
35 *699:92 *702:57 0.000481841
*RES
1 *4719:X *702:6 25.5271 
2 *702:6 *702:12 33.6664 
3 *702:12 *4717:A 23 
4 *702:6 *702:21 17.5271 
5 *702:21 *702:27 27.2704 
6 *702:27 *4715:A 38.3211 
7 *702:27 *702:46 34.4683 
8 *702:46 *4716:A 23 
9 *702:21 *702:57 27.0143 
10 *702:57 *4718:A 23 
*END

*D_NET *703 0.0102854
*CONN
*I *4400:RESET_B I *D sky130_fd_sc_hd__dfrtp_2
*I *4402:RESET_B I *D sky130_fd_sc_hd__dfrtp_2
*I *4410:RESET_B I *D sky130_fd_sc_hd__dfrtp_2
*I *4407:RESET_B I *D sky130_fd_sc_hd__dfrtp_2
*I *4427:RESET_B I *D sky130_fd_sc_hd__dfrtp_2
*I *4426:RESET_B I *D sky130_fd_sc_hd__dfrtp_2
*I *4411:RESET_B I *D sky130_fd_sc_hd__dfrtp_2
*I *4403:RESET_B I *D sky130_fd_sc_hd__dfrtp_2
*I *4720:X O *D sky130_fd_sc_hd__clkdlybuf4s25_1
*CAP
1 *4400:RESET_B 0.000589856
2 *4402:RESET_B 2.00578e-05
3 *4410:RESET_B 0.0007268
4 *4407:RESET_B 0.000337312
5 *4427:RESET_B 0.00039783
6 *4426:RESET_B 0
7 *4411:RESET_B 4.19706e-05
8 *4403:RESET_B 0.00111987
9 *4720:X 0
10 *703:90 0.00091941
11 *703:25 0.000531834
12 *703:8 0.000508117
13 *703:6 0.000234894
14 *4400:RESET_B *744:42 4.94862e-05
15 *4410:RESET_B *742:41 1.02387e-05
16 *703:90 *713:12 0.000241355
17 *3859:B *4403:RESET_B 0
18 *3859:B *4410:RESET_B 0
19 *3925:A2 *4410:RESET_B 1.94418e-05
20 *3949:B1 *4427:RESET_B 0.000140731
21 *3950:A2 *4400:RESET_B 0.000276171
22 *3950:A2 *4402:RESET_B 0
23 *3950:A2 *703:90 0.000180224
24 *4361:A0 *4403:RESET_B 0
25 *4410:CLK *4407:RESET_B 0
26 *4427:D *4427:RESET_B 0.000100486
27 *4757:A *4427:RESET_B 5.75756e-06
28 *4757:A *703:8 3.53698e-05
29 *4757:A *703:25 0.00012267
30 *17:16 *703:90 0.000243596
31 *20:21 *4410:RESET_B 0.000130695
32 *23:8 *4410:RESET_B 6.68793e-05
33 *29:10 *4407:RESET_B 1.14452e-05
34 *88:24 *703:90 5.0645e-05
35 *90:10 *4400:RESET_B 0.000747328
36 *102:10 *4400:RESET_B 5.28733e-05
37 *102:34 *4400:RESET_B 0.000394105
38 *104:24 *4410:RESET_B 0.000138727
39 *105:8 *4403:RESET_B 4.38375e-05
40 *105:8 *4410:RESET_B 0
41 *165:6 *4411:RESET_B 1.21972e-05
42 *165:8 *4411:RESET_B 1.60273e-05
43 *165:16 *703:8 2.28401e-05
44 *165:16 *703:25 4.16878e-06
45 *165:44 *4403:RESET_B 0.000390563
46 *165:44 *703:8 7.9636e-05
47 *171:20 *4427:RESET_B 0.000157287
48 *171:20 *703:25 0.000238921
49 *449:13 *4407:RESET_B 0.000155417
50 *482:10 *4407:RESET_B 0
51 *482:12 *4407:RESET_B 0
52 *482:39 *4410:RESET_B 0.00011229
53 *483:14 *4400:RESET_B 0.00031867
54 *498:37 *4403:RESET_B 0
55 *524:8 *703:90 9.41704e-05
56 *526:14 *4403:RESET_B 4.73379e-05
57 *526:14 *703:8 5.60351e-05
58 *527:21 *4403:RESET_B 0
59 *528:57 *4410:RESET_B 0
60 *541:10 *4411:RESET_B 8.98585e-05
61 *583:16 *4410:RESET_B 0
*RES
1 *4720:X *703:6 38 
2 *703:6 *703:8 2.61 
3 *703:8 *4403:RESET_B 22.54 
4 *703:8 *4411:RESET_B 16.0254 
5 *703:6 *703:25 3.66643 
6 *703:25 *4426:RESET_B 15 
7 *703:25 *4427:RESET_B 23.0682 
8 *4403:RESET_B *4407:RESET_B 36.6182 
9 *4403:RESET_B *4410:RESET_B 39.8496 
10 *4410:RESET_B *703:90 37.3432 
11 *703:90 *4402:RESET_B 0.424643 
12 *703:90 *4400:RESET_B 18.2596 
*END

*D_NET *704 0.00492813
*CONN
*I *4408:RESET_B I *D sky130_fd_sc_hd__dfrtp_2
*I *4415:RESET_B I *D sky130_fd_sc_hd__dfrtp_2
*I *4405:RESET_B I *D sky130_fd_sc_hd__dfrtp_2
*I *4413:RESET_B I *D sky130_fd_sc_hd__dfrtp_2
*I *4721:X O *D sky130_fd_sc_hd__clkdlybuf4s25_1
*CAP
1 *4408:RESET_B 0.000570856
2 *4415:RESET_B 0.000605081
3 *4405:RESET_B 0
4 *4413:RESET_B 0.00139091
5 *4721:X 0.000211976
6 *704:12 0.000426953
7 *4415:RESET_B *713:12 0
8 *704:12 *4721:A 2.93432e-05
9 *4413:CLK *4408:RESET_B 5.3304e-05
10 *4413:D *4408:RESET_B 0.000106277
11 *453:8 *4415:RESET_B 0.000135794
12 *483:34 *4408:RESET_B 0.000144858
13 *498:10 *4415:RESET_B 9.42865e-05
14 *520:8 *4415:RESET_B 8.78864e-05
15 *521:10 *4415:RESET_B 0.000113398
16 *521:18 *4415:RESET_B 0.000315264
17 *521:22 *4415:RESET_B 0.000417347
18 *521:32 *4415:RESET_B 0.000166513
19 *576:18 *4413:RESET_B 5.80772e-05
*RES
1 *4721:X *704:12 41.5007 
2 *704:12 *4413:RESET_B 19.785 
3 *704:12 *4405:RESET_B 15 
4 *4413:RESET_B *4415:RESET_B 45.1525 
5 *4413:RESET_B *4408:RESET_B 9.38357 
*END

*D_NET *705 0.0071755
*CONN
*I *4441:RESET_B I *D sky130_fd_sc_hd__dfrtp_2
*I *4442:RESET_B I *D sky130_fd_sc_hd__dfrtp_2
*I *4593:RESET_B I *D sky130_fd_sc_hd__dfrtp_2
*I *4592:RESET_B I *D sky130_fd_sc_hd__dfrtp_2
*I *4440:RESET_B I *D sky130_fd_sc_hd__dfrtp_2
*I *4591:RESET_B I *D sky130_fd_sc_hd__dfrtp_2
*I *4590:RESET_B I *D sky130_fd_sc_hd__dfrtp_2
*I *4589:RESET_B I *D sky130_fd_sc_hd__dfrtp_2
*I *4722:X O *D sky130_fd_sc_hd__clkdlybuf4s25_1
*CAP
1 *4441:RESET_B 0.00014997
2 *4442:RESET_B 0.000103309
3 *4593:RESET_B 0.000202246
4 *4592:RESET_B 4.08008e-05
5 *4440:RESET_B 0.00054648
6 *4591:RESET_B 0.00102494
7 *4590:RESET_B 0.00042351
8 *4589:RESET_B 5.2782e-05
9 *4722:X 0.000194705
10 *705:75 0.000376249
11 *705:52 0.000681529
12 *705:20 0.000787791
13 *705:10 0.000448818
14 *4442:RESET_B *1008:12 0.000246739
15 *4589:RESET_B *967:8 5.03619e-05
16 *4591:RESET_B *3969:B 0
17 *4593:RESET_B *3955:A 0
18 *4593:RESET_B *4342:A1 0
19 *4593:RESET_B *949:8 0
20 *705:10 *713:46 0
21 *705:10 *967:10 0
22 *705:20 *3969:B 0
23 *705:20 *4812:A 0
24 *705:20 *713:46 0
25 *705:52 *4342:A1 0
26 *705:52 *4805:A 0.000169674
27 *705:52 *947:10 0
28 *705:52 *949:8 0
29 *705:75 *1008:6 9.58714e-05
30 *4339:B1 *4591:RESET_B 0
31 *4339:B1 *705:52 0
32 *4392:B1 *4442:RESET_B 0.000194299
33 *4394:A2 *4441:RESET_B 0.000154147
34 *4394:A2 *4442:RESET_B 8.72173e-05
35 *4440:CLK *4440:RESET_B 0.000391657
36 *4440:D *4440:RESET_B 0.000125072
37 *189:10 *4591:RESET_B 0
38 *190:18 *705:52 0.000137788
39 *421:10 *4591:RESET_B 0.00025307
40 *445:10 *705:75 0.000180841
41 *609:10 *705:52 5.56306e-05
42 *616:8 *705:10 0
43 *637:10 *4593:RESET_B 0
44 *638:10 *4441:RESET_B 0
45 *648:10 *4591:RESET_B 0
46 *648:18 *4591:RESET_B 0
47 *648:18 *705:10 0
48 *648:18 *705:20 0
*RES
1 *4722:X *705:10 41.3557 
2 *705:10 *4589:RESET_B 16.0254 
3 *705:10 *705:20 3.66643 
4 *705:20 *4590:RESET_B 15 
5 *705:20 *4591:RESET_B 26.7657 
6 *4590:RESET_B *4440:RESET_B 8.09929 
7 *4591:RESET_B *705:52 23.5654 
8 *705:52 *4592:RESET_B 15.5489 
9 *705:52 *4593:RESET_B 19.0186 
10 *4440:RESET_B *705:75 17.9311 
11 *705:75 *4442:RESET_B 18.6664 
12 *705:75 *4441:RESET_B 17.8068 
*END

*D_NET *706 0.0121444
*CONN
*I *4595:RESET_B I *D sky130_fd_sc_hd__dfrtp_2
*I *4594:RESET_B I *D sky130_fd_sc_hd__dfrtp_2
*I *4596:RESET_B I *D sky130_fd_sc_hd__dfrtp_2
*I *4722:A I *D sky130_fd_sc_hd__clkdlybuf4s25_1
*I *4721:A I *D sky130_fd_sc_hd__clkdlybuf4s25_1
*I *4720:A I *D sky130_fd_sc_hd__clkdlybuf4s25_1
*I *4723:X O *D sky130_fd_sc_hd__clkdlybuf4s25_1
*CAP
1 *4595:RESET_B 0.000293709
2 *4594:RESET_B 0.000165667
3 *4596:RESET_B 0.000692789
4 *4722:A 9.99513e-05
5 *4721:A 0.000838818
6 *4720:A 0
7 *4723:X 0.00035936
8 *706:59 0.0010789
9 *706:24 0.000333501
10 *706:16 0.00167362
11 *706:10 0.000970266
12 *706:8 0.00157386
13 *4595:RESET_B *3974:A 0
14 *4595:RESET_B *4781:A 0
15 *4595:RESET_B *974:8 4.70852e-05
16 *4596:RESET_B *974:16 3.64337e-05
17 *4722:A *713:6 4.67488e-05
18 *4722:A *713:10 6.17437e-06
19 *706:8 *4723:A 0.000139346
20 *706:10 *4723:A 0.000157185
21 *706:10 *713:46 0.000134585
22 *706:10 *714:69 2.68751e-05
23 *706:16 *713:12 0.000198646
24 *706:16 *714:69 0.000380342
25 *706:24 *713:12 0.000539678
26 *706:24 *984:8 0.000324972
27 *706:59 *3969:B 6.86012e-05
28 *706:59 *4723:A 1.12487e-05
29 *3974:B *4595:RESET_B 0.00014065
30 *3974:B *4596:RESET_B 0.000141888
31 *4348:A *4595:RESET_B 0.000135557
32 *4638:A *706:59 3.59884e-05
33 *80:10 *706:59 0
34 *171:10 *706:24 0.000269823
35 *189:10 *706:59 0.000107548
36 *191:10 *4595:RESET_B 1.22906e-05
37 *192:10 *4594:RESET_B 0.000111665
38 *192:10 *4596:RESET_B 3.11916e-05
39 *449:125 *4721:A 0.000109081
40 *449:129 *4721:A 4.21633e-05
41 *485:10 *706:59 1.39431e-05
42 *485:42 *706:59 0.000240447
43 *521:66 *706:24 0.000450326
44 *582:8 *4595:RESET_B 9.29579e-06
45 *649:70 *706:59 6.48142e-05
46 *704:12 *4721:A 2.93432e-05
*RES
1 *4723:X *706:8 43.8621 
2 *706:8 *706:10 8.24429 
3 *706:10 *706:16 11.02 
4 *706:16 *706:24 27.5943 
5 *706:24 *4720:A 23 
6 *706:16 *4721:A 49.4757 
7 *706:10 *4722:A 39.595 
8 *706:8 *706:59 47.4621 
9 *706:59 *4596:RESET_B 19.7229 
10 *4596:RESET_B *4594:RESET_B 33.3143 
11 *4596:RESET_B *4595:RESET_B 36.3282 
*END

*D_NET *707 0.00907195
*CONN
*I *4480:RESET_B I *D sky130_fd_sc_hd__dfrtp_2
*I *4478:SET_B I *D sky130_fd_sc_hd__dfstp_2
*I *4404:RESET_B I *D sky130_fd_sc_hd__dfrtp_2
*I *4446:RESET_B I *D sky130_fd_sc_hd__dfrtp_2
*I *4412:RESET_B I *D sky130_fd_sc_hd__dfrtp_2
*I *4428:RESET_B I *D sky130_fd_sc_hd__dfrtp_2
*I *4429:RESET_B I *D sky130_fd_sc_hd__dfrtp_2
*I *4476:RESET_B I *D sky130_fd_sc_hd__dfrtp_2
*I *4724:X O *D sky130_fd_sc_hd__clkdlybuf4s25_1
*CAP
1 *4480:RESET_B 0.000470021
2 *4478:SET_B 0.0012922
3 *4404:RESET_B 0.000161021
4 *4446:RESET_B 0.000496515
5 *4412:RESET_B 0.000185025
6 *4428:RESET_B 0.000101721
7 *4429:RESET_B 0.00091114
8 *4476:RESET_B 0.000423635
9 *4724:X 4.25104e-05
10 *707:37 0.00102637
11 *707:12 0.000589558
12 *707:10 0.000650835
13 *707:8 0.00069847
14 *4428:RESET_B *985:8 6.27234e-05
15 *4476:RESET_B *986:10 0
16 *4476:RESET_B *987:14 0
17 *4480:RESET_B *3878:B 3.71251e-05
18 *4480:RESET_B *4077:A1 0
19 *4480:RESET_B *991:10 0
20 *4480:RESET_B *998:36 0
21 *4480:RESET_B *999:6 4.59382e-05
22 *707:12 *987:14 0
23 *4429:CLK *4478:SET_B 0.00023032
24 *67:8 *4476:RESET_B 0.00019747
25 *67:8 *707:12 0.000376261
26 *90:43 *707:10 0
27 *90:43 *707:12 0
28 *112:8 *707:8 5.50049e-05
29 *112:12 *707:10 0
30 *115:10 *4476:RESET_B 2.95125e-05
31 *115:10 *707:10 5.21127e-05
32 *115:10 *707:12 2.70366e-05
33 *117:8 *4480:RESET_B 0.000169683
34 *272:12 *4480:RESET_B 0
35 *272:20 *4480:RESET_B 0
36 *483:34 *4446:RESET_B 3.20631e-05
37 *483:40 *4446:RESET_B 5.0518e-05
38 *483:40 *707:37 1.7403e-05
39 *487:33 *4478:SET_B 0.000189763
40 *487:62 *4428:RESET_B 0.000260563
41 *528:16 *707:10 0
42 *528:16 *707:37 0
43 *529:6 *4404:RESET_B 4.83893e-05
44 *598:10 *4476:RESET_B 0
45 *618:10 *707:37 0.000141038
46 *665:10 *707:37 0
*RES
1 *4724:X *707:8 38.6214 
2 *707:8 *707:10 4.37071 
3 *707:10 *707:12 5.77929 
4 *707:12 *4476:RESET_B 20.7793 
5 *707:12 *4429:RESET_B 16.0254 
6 *707:10 *4428:RESET_B 17.9311 
7 *707:8 *707:37 7.18786 
8 *707:37 *4412:RESET_B 17.9311 
9 *707:37 *4446:RESET_B 22.0325 
10 *4476:RESET_B *4404:RESET_B 33.0036 
11 *4429:RESET_B *4478:SET_B 13.195 
12 *4478:SET_B *4480:RESET_B 38.7104 
*END

*D_NET *708 0.00596853
*CONN
*I *4483:RESET_B I *D sky130_fd_sc_hd__dfrtp_2
*I *4482:SET_B I *D sky130_fd_sc_hd__dfstp_2
*I *4484:SET_B I *D sky130_fd_sc_hd__dfstp_2
*I *4481:SET_B I *D sky130_fd_sc_hd__dfstp_2
*I *4725:X O *D sky130_fd_sc_hd__clkdlybuf4s25_1
*CAP
1 *4483:RESET_B 0.000236083
2 *4482:SET_B 0.000354254
3 *4484:SET_B 6.30891e-05
4 *4481:SET_B 0.0011204
5 *4725:X 0.000243434
6 *708:10 0.000836589
7 *4481:SET_B *1003:33 8.52094e-06
8 *4482:SET_B *4085:A1_N 2.8521e-05
9 *4482:SET_B *1003:6 5.5792e-05
10 *4482:SET_B *1003:33 8.07477e-05
11 *4483:RESET_B *3879:A 5.61414e-05
12 *4483:RESET_B *4750:A 2.97188e-05
13 *4483:RESET_B *1003:33 0
14 *708:10 *4485:SET_B 0.000110913
15 *708:10 *4486:RESET_B 1.01436e-05
16 *3880:D *4483:RESET_B 0.000297981
17 *4087:A2 *4482:SET_B 0.000267337
18 *4092:A2 *708:10 5.3304e-05
19 *117:41 *4483:RESET_B 0.000171906
20 *119:8 *4483:RESET_B 4.89921e-05
21 *119:10 *4481:SET_B 0.000374677
22 *119:25 *4481:SET_B 0.000432935
23 *120:8 *4481:SET_B 0.000132638
24 *120:8 *708:10 0.000407804
25 *123:10 *4481:SET_B 3.2865e-05
26 *123:10 *708:10 0.000148239
27 *272:12 *4482:SET_B 0.000193024
28 *548:10 *4483:RESET_B 0
29 *596:8 *708:10 3.34247e-05
30 *601:10 *4481:SET_B 8.57485e-05
31 *601:10 *4484:SET_B 5.3304e-05
*RES
1 *4725:X *708:10 45.0014 
2 *708:10 *4481:SET_B 28.1743 
3 *708:10 *4484:SET_B 16.0254 
4 *4481:SET_B *4482:SET_B 38.5136 
5 *4481:SET_B *4483:RESET_B 36.6804 
*END

*D_NET *709 0.0096115
*CONN
*I *4436:RESET_B I *D sky130_fd_sc_hd__dfrtp_2
*I *4435:RESET_B I *D sky130_fd_sc_hd__dfrtp_2
*I *4437:RESET_B I *D sky130_fd_sc_hd__dfrtp_2
*I *4438:RESET_B I *D sky130_fd_sc_hd__dfrtp_2
*I *4439:RESET_B I *D sky130_fd_sc_hd__dfrtp_2
*I *4445:RESET_B I *D sky130_fd_sc_hd__dfrtp_2
*I *4447:RESET_B I *D sky130_fd_sc_hd__dfrtp_2
*I *4443:RESET_B I *D sky130_fd_sc_hd__dfrtp_2
*I *4726:X O *D sky130_fd_sc_hd__clkdlybuf4s25_1
*CAP
1 *4436:RESET_B 0.000177695
2 *4435:RESET_B 0.00031091
3 *4437:RESET_B 0
4 *4438:RESET_B 0.00059772
5 *4439:RESET_B 0.000137481
6 *4445:RESET_B 0
7 *4447:RESET_B 5.89597e-05
8 *4443:RESET_B 8.95487e-05
9 *4726:X 1.25102e-05
10 *709:76 0.000592612
11 *709:69 0.000400596
12 *709:40 0.000712788
13 *709:33 0.000620659
14 *709:21 0.00103151
15 *709:6 0.00072813
16 *4436:RESET_B *939:50 0.000105072
17 *4436:RESET_B *1019:22 5.24393e-05
18 *4438:RESET_B *715:75 9.26098e-05
19 *709:21 *4726:A 2.88979e-05
20 *709:21 *712:23 0.000578606
21 *709:33 *715:10 0.000103949
22 *709:33 *715:16 0.000401825
23 *709:33 *715:75 0.00032093
24 *709:40 *715:75 0.000558185
25 *709:69 *715:75 0
26 *709:69 *1020:25 7.7086e-05
27 *709:76 *1019:22 8.62876e-05
28 *3887:B1 *709:33 0.000180621
29 *4384:B1 *4435:RESET_B 0.00014196
30 *4390:A2 *709:40 0.000110922
31 *4399:A1 *709:6 5.50049e-05
32 *4399:A1 *709:21 5.50106e-05
33 *4399:B1 *4443:RESET_B 0
34 *4438:CLK *4438:RESET_B 4.08664e-05
35 *78:10 *709:40 0.000114083
36 *123:88 *709:33 6.48142e-05
37 *123:88 *709:40 2.55642e-05
38 *125:10 *709:33 0.00010858
39 *125:12 *709:33 6.79006e-05
40 *126:20 *709:33 6.16531e-05
41 *440:8 *4436:RESET_B 0.000104433
42 *449:175 *709:6 3.22879e-05
43 *449:175 *709:21 9.6103e-05
44 *489:10 *4438:RESET_B 0
45 *489:21 *4438:RESET_B 0.000225265
46 *489:21 *709:69 0
47 *489:27 *4438:RESET_B 0.000135338
48 *489:27 *709:69 0
49 *489:42 *709:69 0
50 *489:42 *709:76 0
51 *547:8 *4443:RESET_B 0.000114083
52 *650:85 *709:69 0
53 *650:85 *709:76 0
*RES
1 *4726:X *709:6 23.6214 
2 *709:6 *4443:RESET_B 31.9057 
3 *709:6 *709:21 10.7921 
4 *709:21 *4447:RESET_B 1.04607 
5 *709:21 *709:33 26.0614 
6 *709:33 *4445:RESET_B 15 
7 *709:33 *709:40 7.54 
8 *709:40 *4439:RESET_B 16.9782 
9 *709:40 *4438:RESET_B 22.7161 
10 *4438:RESET_B *709:69 20.4271 
11 *709:69 *4437:RESET_B 15 
12 *709:69 *709:76 1.90571 
13 *709:76 *4435:RESET_B 20.0025 
14 *709:76 *4436:RESET_B 20.1371 
*END

*D_NET *710 0.00864012
*CONN
*I *4434:RESET_B I *D sky130_fd_sc_hd__dfrtp_2
*I *4433:RESET_B I *D sky130_fd_sc_hd__dfrtp_2
*I *4432:RESET_B I *D sky130_fd_sc_hd__dfrtp_2
*I *4431:RESET_B I *D sky130_fd_sc_hd__dfrtp_2
*I *4430:RESET_B I *D sky130_fd_sc_hd__dfrtp_2
*I *4486:RESET_B I *D sky130_fd_sc_hd__dfrtp_2
*I *4485:SET_B I *D sky130_fd_sc_hd__dfstp_2
*I *4444:SET_B I *D sky130_fd_sc_hd__dfstp_2
*I *4727:X O *D sky130_fd_sc_hd__clkdlybuf4s25_1
*CAP
1 *4434:RESET_B 0.000408054
2 *4433:RESET_B 0.00072098
3 *4432:RESET_B 0.000548979
4 *4431:RESET_B 0
5 *4430:RESET_B 0.000814745
6 *4486:RESET_B 0.000756617
7 *4485:SET_B 5.242e-05
8 *4444:SET_B 3.27288e-05
9 *4727:X 0.000156247
10 *710:62 0.000450596
11 *710:26 0.000845099
12 *710:12 0.000668992
13 *710:10 0.000156247
14 *4430:RESET_B *3884:A 8.58219e-05
15 *4430:RESET_B *1007:19 4.58924e-05
16 *4430:RESET_B *1012:8 0.000141888
17 *4430:RESET_B *1012:20 0
18 *4432:RESET_B *1014:12 0.000199701
19 *4434:RESET_B *4378:A1 0
20 *4434:RESET_B *4766:A 2.52027e-05
21 *4434:RESET_B *1016:12 0
22 *710:26 *996:10 0.000140259
23 *710:62 *1013:8 0
24 uart_tx *4430:RESET_B 0
25 *3891:A1 *710:10 5.09885e-05
26 *4091:B *710:26 6.9805e-05
27 *4092:A2 *710:26 0.000180218
28 *4092:B1 *710:26 7.23724e-05
29 *4375:B *4432:RESET_B 0.000157309
30 *4375:B *710:62 0.000283088
31 *4378:A3 *4434:RESET_B 3.72639e-05
32 *4433:CLK *4434:RESET_B 8.87126e-05
33 *72:10 *4434:RESET_B 0.000222113
34 *120:8 *4486:RESET_B 1.12487e-05
35 *123:10 *4430:RESET_B 0
36 *123:10 *4485:SET_B 0.000110913
37 *123:10 *4486:RESET_B 0.00032
38 *270:23 *710:10 6.50205e-05
39 *433:42 *4434:RESET_B 0
40 *436:8 *4432:RESET_B 4.83778e-05
41 *436:8 *4433:RESET_B 3.70094e-05
42 *486:10 *710:10 0
43 *486:49 *4444:SET_B 2.56078e-05
44 *486:49 *710:26 0.000100733
45 *563:8 *4432:RESET_B 0
46 *566:10 *4434:RESET_B 2.79004e-05
47 *569:10 *4434:RESET_B 0.000194327
48 *596:8 *710:26 1.76557e-05
49 *650:40 *4430:RESET_B 0
50 *650:40 *710:62 9.20311e-06
51 *650:51 *710:62 0.000138727
52 *689:12 *4434:RESET_B 0
53 *708:10 *4485:SET_B 0.000110913
54 *708:10 *4486:RESET_B 1.01436e-05
*RES
1 *4727:X *710:10 40.8793 
2 *710:10 *710:12 15 
3 *710:12 *4444:SET_B 0.548929 
4 *710:12 *710:26 25.7921 
5 *710:26 *4485:SET_B 16.5536 
6 *710:26 *4486:RESET_B 19.3707 
7 *4486:RESET_B *4430:RESET_B 42.7911 
8 *4430:RESET_B *710:62 20.7793 
9 *710:62 *4431:RESET_B 15 
10 *710:62 *4432:RESET_B 21.1211 
11 *4432:RESET_B *4433:RESET_B 35.3132 
12 *4433:RESET_B *4434:RESET_B 38.7829 
*END

*D_NET *711 0.00865961
*CONN
*I *4111:A1 I *D sky130_fd_sc_hd__o21ai_2
*I *4108:A1 I *D sky130_fd_sc_hd__o21ai_2
*I *4098:A1 I *D sky130_fd_sc_hd__o21ai_2
*I *4106:A1 I *D sky130_fd_sc_hd__o21ai_2
*I *4044:A I *D sky130_fd_sc_hd__inv_2
*I *4103:A1 I *D sky130_fd_sc_hd__o21ai_2
*I *4100:A1 I *D sky130_fd_sc_hd__o21ai_2
*I *4095:A2 I *D sky130_fd_sc_hd__o21ai_2
*I *4728:X O *D sky130_fd_sc_hd__clkdlybuf4s25_1
*CAP
1 *4111:A1 0.000138306
2 *4108:A1 0.000157506
3 *4098:A1 0
4 *4106:A1 0.000277177
5 *4044:A 0
6 *4103:A1 0
7 *4100:A1 6.13799e-05
8 *4095:A2 0
9 *4728:X 0
10 *711:111 0.000295812
11 *711:95 0.000219577
12 *711:61 0.000168577
13 *711:55 0.000676622
14 *711:44 8.94669e-05
15 *711:29 0.00037049
16 *711:27 0.000922713
17 *711:23 0.000564477
18 *711:12 0.000348528
19 *711:4 0.000660381
20 *4106:A1 *798:33 0.000102971
21 *4111:A1 *778:10 5.67058e-05
22 *711:23 *771:10 0.000140949
23 *711:23 *793:18 0
24 *711:27 *793:18 0
25 *711:29 *774:10 5.58003e-05
26 *711:55 *4031:B 0.000228233
27 *711:55 *796:16 0.000226899
28 *711:95 *777:10 0.000169359
29 *711:95 *798:33 0.000142454
30 *711:111 *778:10 0
31 *4032:B *711:55 0.000179567
32 *4097:A *711:27 6.52736e-05
33 *4099:B *711:27 4.41504e-05
34 *4100:A2 *4100:A1 2.37172e-05
35 *4100:A2 *711:29 0.000230723
36 *4100:B1 *711:29 2.193e-05
37 *4103:A2 *711:44 0.000168515
38 *4106:B1 *711:95 0.000407573
39 *4107:B *711:95 0.000102742
40 *4111:B1 *4111:A1 0.000272383
41 *4111:B1 *711:111 0
42 *4557:CLK *711:95 5.71002e-06
43 *245:8 *711:55 0.000145163
44 *246:8 *4106:A1 2.19403e-05
45 *246:8 *711:55 6.17437e-06
46 *287:8 *711:95 1.98991e-05
47 *289:10 *711:95 8.54959e-05
48 *289:10 *711:111 6.07611e-06
49 *478:12 *711:12 0
50 *478:12 *711:23 8.51225e-05
51 *478:16 *711:23 0.00010404
52 *478:16 *711:27 0.00021188
53 *479:33 *711:111 0
54 *581:10 *711:12 8.98616e-05
55 *581:10 *711:23 1.33487e-05
56 *657:31 *711:29 6.55954e-05
57 *657:31 *711:55 0.000208347
58 *697:20 *711:23 0
59 *697:22 *711:23 0
*RES
1 *4728:X *711:4 23 
2 *711:4 *711:12 36.1936 
3 *711:12 *4095:A2 23 
4 *711:4 *711:23 21.6493 
5 *711:23 *711:27 21.1314 
6 *711:27 *711:29 4.43286 
7 *711:29 *4100:A1 24.1186 
8 *711:29 *711:44 32.2579 
9 *711:44 *4103:A1 23 
10 *711:27 *711:55 11.745 
11 *711:55 *711:61 32.9621 
12 *711:61 *4044:A 23 
13 *711:55 *4106:A1 24.5743 
14 *711:23 *4098:A1 38 
15 *4106:A1 *711:95 45.9957 
16 *711:95 *4108:A1 38 
17 *4108:A1 *711:111 40.61 
18 *711:111 *4111:A1 41.9564 
*END

*D_NET *712 0.00817706
*CONN
*I *4725:A I *D sky130_fd_sc_hd__clkdlybuf4s25_1
*I *4727:A I *D sky130_fd_sc_hd__clkdlybuf4s25_1
*I *4724:A I *D sky130_fd_sc_hd__clkdlybuf4s25_1
*I *4726:A I *D sky130_fd_sc_hd__clkdlybuf4s25_1
*I *4729:X O *D sky130_fd_sc_hd__clkdlybuf4s25_1
*CAP
1 *4725:A 0.000561666
2 *4727:A 1.55804e-05
3 *4724:A 0
4 *4726:A 2.35476e-05
5 *4729:X 0.000404863
6 *712:42 0.00149099
7 *712:31 0.000643492
8 *712:23 0.00180025
9 *712:10 0.000266564
10 *712:8 0.000404863
11 *4725:A *996:10 3.96981e-05
12 *712:8 *3886:A 0.000138727
13 *712:8 *1011:10 0.000164291
14 *712:31 *715:16 0.000226382
15 *3887:B1 *712:31 0.000433839
16 *4445:CLK *712:8 0
17 *4447:CLK *712:8 0
18 *4447:CLK *712:23 9.67842e-05
19 *37:8 *712:31 0.000216387
20 *38:10 *712:31 1.55888e-05
21 *112:25 *712:31 0.000165538
22 *114:8 *712:31 0.000118518
23 *123:10 *4725:A 8.06532e-05
24 *123:55 *712:31 0.000187911
25 *449:175 *712:8 6.28591e-05
26 *486:10 *4727:A 1.05658e-05
27 *547:8 *712:8 0
28 *709:21 *4726:A 2.88979e-05
29 *709:21 *712:23 0.000578606
*RES
1 *4729:X *712:8 45.54 
2 *712:8 *712:10 15 
3 *712:10 *4726:A 23.6214 
4 *712:10 *712:23 21.8357 
5 *712:23 *712:31 33.1664 
6 *712:31 *4724:A 23 
7 *712:23 *712:42 10.5461 
8 *712:42 *4727:A 46.3211 
9 *712:42 *4725:A 49.5203 
*END

*D_NET *713 0.019803
*CONN
*I *4723:A I *D sky130_fd_sc_hd__clkdlybuf4s25_1
*I *4729:A I *D sky130_fd_sc_hd__clkdlybuf4s25_1
*I *4719:A I *D sky130_fd_sc_hd__clkdlybuf4s25_1
*I *4714:A I *D sky130_fd_sc_hd__clkdlybuf4s25_1
*I *4730:X O *D sky130_fd_sc_hd__clkdlybuf4s25_1
*CAP
1 *4723:A 0.000220253
2 *4729:A 0
3 *4719:A 0
4 *4714:A 0.00024249
5 *4730:X 0.000325193
6 *713:52 0.00154924
7 *713:46 0.00193299
8 *713:37 0.000254099
9 *713:31 0.00191834
10 *713:12 0.00362734
11 *713:10 0.00182619
12 *713:6 0.000594284
13 *4714:A *743:23 9.03784e-05
14 *4723:A *3969:B 0.000215791
15 *4723:A *4812:A 0.000132665
16 *713:12 *3937:A 1.07299e-05
17 *713:12 *4336:A1 0
18 *713:12 *714:69 5.08899e-05
19 *713:12 *743:23 0.000376242
20 *713:12 *984:8 1.70417e-05
21 *713:31 *746:8 3.44502e-05
22 *713:46 *4812:A 6.48142e-05
23 *713:46 *714:69 8.9458e-05
24 *713:52 *4812:A 0.000123839
25 *713:52 *715:54 2.18409e-05
26 *713:52 *1010:6 0.000137651
27 *713:52 *1010:25 0.000178517
28 *3926:B1 *4714:A 0.000103647
29 *3926:B1 *713:31 1.38197e-05
30 *3926:B2 *713:31 3.20742e-05
31 *3945:A3 *4714:A 0.000183733
32 *4139:B1 *713:31 0.000229693
33 *4361:S *713:12 4.82774e-05
34 *4415:RESET_B *713:12 0
35 *4442:CLK *713:52 0.000267494
36 *4453:D *713:31 2.93747e-05
37 *4453:RESET_B *713:31 0.000172085
38 *4476:CLK *713:37 0
39 *4566:CLK *713:37 0
40 *4680:A *713:37 3.0647e-05
41 *4685:A *713:12 0.000408647
42 *4722:A *713:6 4.67488e-05
43 *4722:A *713:10 6.17437e-06
44 *17:10 *713:12 8.26569e-05
45 *17:16 *713:12 0.000428329
46 *104:38 *713:12 0
47 *157:10 *4714:A 0
48 *157:10 *713:12 0
49 *159:43 *713:31 0.000238539
50 *476:80 *713:31 0.000190499
51 *480:8 *713:37 0
52 *480:10 *713:37 0
53 *498:10 *713:12 0.000299178
54 *521:18 *713:12 8.52094e-06
55 *521:32 *713:12 0
56 *525:26 *713:12 0.000138718
57 *531:59 *713:31 5.50049e-05
58 *583:16 *4714:A 5.50106e-05
59 *584:10 *713:12 0.000196832
60 *584:16 *713:12 0.000189081
61 *616:8 *713:12 0.000167443
62 *616:8 *713:46 0.000225275
63 *622:33 *713:12 0.00018974
64 *659:21 *713:37 0
65 *660:51 *713:37 0.000207437
66 *664:25 *713:12 7.4564e-05
67 *664:27 *713:12 6.7177e-06
68 *664:43 *713:12 0
69 *664:45 *713:12 0
70 *696:10 *4714:A 2.02872e-05
71 *703:90 *713:12 0.000241355
72 *705:10 *713:46 0
73 *705:20 *713:46 0
74 *706:8 *4723:A 0.000139346
75 *706:10 *4723:A 0.000157185
76 *706:10 *713:46 0.000134585
77 *706:16 *713:12 0.000198646
78 *706:24 *713:12 0.000539678
79 *706:59 *4723:A 1.12487e-05
*RES
1 *4730:X *713:6 26.9564 
2 *713:6 *713:10 16.0979 
3 *713:10 *713:12 46.2757 
4 *713:12 *4714:A 44.1107 
5 *713:12 *713:31 43.2957 
6 *713:31 *713:37 36.1314 
7 *713:37 *4719:A 23 
8 *713:6 *713:46 19.7229 
9 *713:46 *713:52 35.88 
10 *713:52 *4729:A 23 
11 *713:46 *4723:A 44.2971 
*END

*D_NET *714 0.0243733
*CONN
*I *4730:A I *D sky130_fd_sc_hd__clkdlybuf4s25_1
*I *4710:A I *D sky130_fd_sc_hd__clkdlybuf4s25_1
*I *4701:A I *D sky130_fd_sc_hd__clkdlybuf4s25_1
*I *4697:A I *D sky130_fd_sc_hd__clkdlybuf4s25_1
*I *4731:X O *D sky130_fd_sc_hd__clkdlybuf4s25_1
*CAP
1 *4730:A 0
2 *4710:A 6.33006e-05
3 *4701:A 0
4 *4697:A 0
5 *4731:X 0.000629456
6 *714:69 0.000149694
7 *714:63 0.00219745
8 *714:61 0.00388527
9 *714:44 0.00190081
10 *714:37 0.00192302
11 *714:20 0.00194726
12 *714:16 0.00171783
13 *714:10 0.00232305
14 *714:37 *3912:A1 3.51496e-05
15 *714:37 *3912:A2 5.50049e-05
16 *714:37 *3914:A 6.1789e-05
17 *714:37 *4806:A 5.41385e-05
18 *714:61 *721:14 0.000145784
19 *3912:A3 *714:37 1.22822e-05
20 *3912:B1 *714:37 0.000828125
21 *4048:A *714:10 0
22 *4049:A *714:61 0.000566283
23 *4049:B *714:61 4.95081e-05
24 *4058:A1 *714:63 0.000530622
25 *4058:A2 *714:63 0.000227208
26 *4061:A *714:63 2.18409e-05
27 *4062:A *714:63 0.000131304
28 *4062:B *714:63 0.000274078
29 *4277:B *714:16 9.88575e-05
30 *4356:A1 *714:37 9.84851e-05
31 *4356:A2 *714:37 7.1349e-05
32 *4449:RESET_B *714:37 5.15762e-05
33 *4468:CLK *714:16 0.000119266
34 *4472:CLK *714:16 0.000406288
35 *4695:A *714:16 2.84912e-05
36 *4704:A *714:10 0
37 *4706:A *714:63 9.58714e-05
38 *4753:A *714:63 2.93845e-05
39 *4754:A *714:61 0.000123934
40 *39:8 *714:16 0
41 *40:10 *714:61 8.06804e-06
42 *42:10 *714:61 0.000141052
43 *43:8 *714:16 2.99194e-05
44 *51:10 *714:16 7.03663e-05
45 *62:10 *714:37 6.18929e-05
46 *148:27 *714:37 0.000164364
47 *211:54 *714:10 0
48 *259:38 *714:61 8.30505e-05
49 *264:23 *714:63 0.0002263
50 *265:12 *714:61 9.45591e-05
51 *265:12 *714:63 5.50106e-05
52 *496:88 *714:16 0.000169665
53 *497:35 *714:16 0.00011429
54 *497:44 *714:16 8.69631e-05
55 *532:10 *714:61 1.41077e-05
56 *541:23 *714:63 5.50106e-05
57 *544:10 *714:16 0.000123988
58 *552:8 *714:61 0.000695805
59 *610:10 *714:20 2.02872e-05
60 *610:10 *714:37 5.3304e-05
61 *616:8 *714:69 7.80251e-05
62 *642:45 *714:20 2.93747e-05
63 *642:45 *714:37 0.00015838
64 *642:57 *714:16 0
65 *672:106 *714:61 2.98648e-05
66 *675:10 *714:16 0.000136486
67 *685:62 *714:10 0.000171931
68 *685:62 *714:16 9.98891e-05
69 *692:10 *714:10 0
70 *706:10 *714:69 2.68751e-05
71 *706:16 *714:69 0.000380342
72 *713:12 *714:69 5.08899e-05
73 *713:46 *714:69 8.9458e-05
*RES
1 *4731:X *714:10 48.0671 
2 *714:10 *714:16 40.3514 
3 *714:16 *714:20 15.6214 
4 *714:20 *4697:A 23 
5 *714:20 *714:37 33.2464 
6 *714:37 *4701:A 23 
7 *714:10 *714:44 15 
8 *714:44 *4710:A 24.0979 
9 *714:44 *714:61 34.655 
10 *714:61 *714:63 40.165 
11 *714:63 *714:69 35.4271 
12 *714:69 *4730:A 23 
*END

*D_NET *715 0.0139759
*CONN
*I *4382:A1 I *D sky130_fd_sc_hd__a31o_2
*I *4384:A1 I *D sky130_fd_sc_hd__a31o_2
*I *4386:A1 I *D sky130_fd_sc_hd__a31o_2
*I *4398:D I *D sky130_fd_sc_hd__and4bb_2
*I *4395:A1 I *D sky130_fd_sc_hd__a21bo_2
*I *4393:C I *D sky130_fd_sc_hd__and4b_2
*I *3834:A I *D sky130_fd_sc_hd__inv_2
*I *3887:B2 I *D sky130_fd_sc_hd__a22o_2
*I *4732:X O *D sky130_fd_sc_hd__clkdlybuf4s25_1
*CAP
1 *4382:A1 9.6829e-05
2 *4384:A1 0
3 *4386:A1 0.000289402
4 *4398:D 2.0995e-05
5 *4395:A1 0
6 *4393:C 0
7 *3834:A 4.80723e-05
8 *3887:B2 0
9 *4732:X 5.67095e-05
10 *715:89 0.00117361
11 *715:75 0.00201195
12 *715:54 0.000293275
13 *715:44 0.000366318
14 *715:31 0.000618953
15 *715:25 0.000619702
16 *715:16 0.00048078
17 *715:10 0.000625051
18 *715:8 0.00113103
19 *4382:A1 *939:50 1.56762e-05
20 *4398:D *4398:A_N 1.14154e-05
21 *715:25 *4398:A_N 6.08617e-05
22 *715:31 *4398:A_N 0.000294224
23 *715:31 *4749:A 5.3304e-05
24 *715:54 *3885:B 7.10099e-05
25 *715:54 *1008:31 2.18506e-05
26 *715:54 *1010:6 5.3304e-05
27 *715:54 *1010:12 3.47781e-05
28 *715:54 *1010:25 0.00016778
29 *715:75 *716:52 0
30 *715:89 *939:50 0.000215417
31 *3887:B1 *715:16 3.95159e-06
32 *4382:A3 *4382:A1 9.84794e-05
33 *4382:A3 *715:75 0.00016994
34 *4384:A3 *4386:A1 0.000137786
35 *4384:A3 *715:89 1.47563e-05
36 *4388:A3 *715:75 3.60739e-05
37 *4388:B1 *715:75 0
38 *4392:A2 *3834:A 2.46933e-05
39 *4392:A2 *715:44 4.16764e-05
40 *4393:B *715:54 5.50049e-05
41 *4395:B1_N *715:54 2.75404e-05
42 *4398:C *715:25 1.24376e-05
43 *4398:C *715:31 5.50049e-05
44 *4436:CLK *715:89 2.62401e-05
45 *4438:RESET_B *715:75 9.26098e-05
46 *4596:CLK *4386:A1 2.30292e-05
47 *75:10 *715:89 0.000166522
48 *83:10 *715:31 5.50106e-05
49 *114:61 *715:16 0
50 *122:16 *715:8 1.59094e-05
51 *124:10 *3834:A 6.38845e-05
52 *124:10 *715:31 2.93747e-05
53 *124:10 *715:44 0.000169674
54 *431:8 *715:75 0
55 *441:8 *715:75 0.000197479
56 *443:23 *715:44 9.48381e-06
57 *444:8 *715:54 5.12254e-05
58 *448:10 *715:31 0.000189991
59 *456:8 *715:10 0.000111852
60 *456:8 *715:16 0.000243596
61 *456:8 *715:75 0.000456496
62 *456:25 *715:75 0
63 *489:27 *4386:A1 5.8112e-05
64 *489:42 *4386:A1 0.00010403
65 *489:55 *4386:A1 4.74809e-05
66 *489:55 *715:89 4.68476e-05
67 *567:10 *4386:A1 6.64442e-05
68 *580:16 *715:16 2.95423e-05
69 *638:10 *715:54 8.93663e-05
70 *650:85 *715:75 0.000457425
71 *651:16 *4386:A1 3.15179e-05
72 *709:33 *715:10 0.000103949
73 *709:33 *715:16 0.000401825
74 *709:33 *715:75 0.00032093
75 *709:40 *715:75 0.000558185
76 *709:69 *715:75 0
77 *712:31 *715:16 0.000226382
78 *713:52 *715:54 2.18409e-05
*RES
1 *4732:X *715:8 38.6214 
2 *715:8 *715:10 1.55357 
3 *715:10 *715:16 27.3871 
4 *715:16 *3887:B2 23 
5 *715:10 *715:25 16.5743 
6 *715:25 *715:31 25.6471 
7 *715:31 *3834:A 38.8493 
8 *715:31 *715:44 17.2579 
9 *715:44 *715:54 36.7114 
10 *715:54 *4393:C 23 
11 *715:44 *4395:A1 23 
12 *715:25 *4398:D 23.4971 
13 *715:8 *715:75 41.9079 
14 *715:75 *715:89 30.3286 
15 *715:89 *4386:A1 45.4571 
16 *715:89 *4384:A1 38 
17 *715:75 *4382:A1 25.0714 
*END

*D_NET *716 0.0117449
*CONN
*I *4368:B2 I *D sky130_fd_sc_hd__a221o_2
*I *4378:A1 I *D sky130_fd_sc_hd__a31o_2
*I *4376:A1 I *D sky130_fd_sc_hd__a31o_2
*I *4372:A1 I *D sky130_fd_sc_hd__a31o_2
*I *4374:A1 I *D sky130_fd_sc_hd__a31o_2
*I *4388:A1 I *D sky130_fd_sc_hd__a31o_2
*I *4732:A I *D sky130_fd_sc_hd__clkdlybuf4s25_1
*I *4073:A I *D sky130_fd_sc_hd__or3_2
*I *4733:X O *D sky130_fd_sc_hd__clkdlybuf4s25_1
*CAP
1 *4368:B2 0
2 *4378:A1 0.000228737
3 *4376:A1 9.77858e-05
4 *4372:A1 0
5 *4374:A1 0
6 *4388:A1 9.63283e-05
7 *4732:A 0
8 *4073:A 0.000377129
9 *4733:X 0.000384838
10 *716:89 0.000486046
11 *716:82 0.000317662
12 *716:69 0.000525016
13 *716:65 0.00123022
14 *716:52 0.0015139
15 *716:41 0.000659045
16 *716:28 0.000553768
17 *716:22 0.000220013
18 *716:10 0.000533029
19 *4073:A *4073:C 5.3304e-05
20 *4073:A *1025:6 1.21972e-05
21 *716:10 *4733:A 0.000181925
22 *716:10 *1024:44 5.94125e-05
23 *716:10 *1025:34 1.58805e-05
24 *716:22 *4368:C1 2.28308e-05
25 *716:22 *4398:A_N 2.07314e-05
26 *716:22 *1025:34 3.27248e-05
27 *716:28 *4398:A_N 5.45607e-05
28 *3891:B1 *716:10 5.3304e-05
29 *3891:B1 *716:22 7.46838e-05
30 *4368:B1 *716:22 1.81583e-05
31 *4374:A2 *716:69 7.30054e-05
32 *4375:B *716:82 0
33 *4376:A3 *4376:A1 6.17437e-06
34 *4378:A3 *4376:A1 2.24608e-05
35 *4378:A3 *4378:A1 0.000171922
36 *4378:A3 *716:89 2.13834e-05
37 *4388:A2 *4388:A1 0.000141954
38 *4388:A2 *716:65 8.43466e-05
39 *4388:A3 *716:52 0
40 *4388:B1 *716:52 0
41 *4434:CLK *4378:A1 5.48415e-05
42 *4434:RESET_B *4378:A1 0
43 *35:10 *4073:A 0.000165593
44 *71:14 *4376:A1 3.70071e-06
45 *122:8 *716:10 0.000112685
46 *122:8 *716:22 0
47 *123:67 *4073:A 0.000454347
48 *123:67 *716:41 5.01986e-05
49 *123:88 *716:41 0.000141879
50 *123:88 *716:52 0.000207507
51 *126:10 *4073:A 0.000114533
52 *126:44 *4073:A 2.49836e-05
53 *126:44 *716:41 9.88575e-05
54 *126:44 *716:52 0.000325202
55 *431:8 *716:52 0
56 *432:10 *716:65 0
57 *433:14 *716:52 0
58 *434:8 *716:82 2.08324e-05
59 *435:8 *716:82 0
60 *455:12 *716:10 9.21347e-06
61 *456:25 *716:52 0.000277705
62 *490:30 *716:82 0
63 *490:39 *716:65 3.98859e-05
64 *490:39 *716:89 9.35752e-05
65 *490:52 *4378:A1 4.67762e-05
66 *490:52 *716:89 1.11121e-05
67 *566:10 *4378:A1 1.14452e-05
68 *568:10 *716:65 2.13054e-05
69 *650:10 *716:52 0.000219707
70 *650:51 *716:82 0
71 *651:66 *4376:A1 6.48224e-06
72 *651:66 *716:65 3.70187e-05
73 *651:66 *716:89 0.000240686
74 *651:86 *716:69 0.000355029
75 *651:92 *716:82 0.000210934
76 *689:12 *4378:A1 4.43717e-05
77 *715:75 *716:52 0
*RES
1 *4733:X *716:10 45.1879 
2 *716:10 *716:22 18.3402 
3 *716:22 *716:28 16.2377 
4 *716:28 *4073:A 47.135 
5 *716:28 *716:41 2.61 
6 *716:41 *4732:A 38 
7 *716:41 *716:52 30.2871 
8 *716:52 *4388:A1 24.5743 
9 *716:52 *716:65 26.5793 
10 *716:65 *716:69 20.1164 
11 *716:69 *4374:A1 23 
12 *716:69 *716:82 36.4836 
13 *716:82 *4372:A1 23 
14 *716:65 *716:89 4.19464 
15 *716:89 *4376:A1 39.5639 
16 *716:89 *4378:A1 43.6032 
17 *716:22 *4368:B2 23 
*END

*D_NET *717 0.00125821
*CONN
*I *4454:D I *D sky130_fd_sc_hd__dfrtp_2
*I *4455:HI O *D sky130_fd_sc_hd__conb_1
*CAP
1 *4454:D 0.000103014
2 *4455:HI 0.000286317
3 *717:10 0.000389331
4 *4454:CLK *4454:D 2.93747e-05
5 *208:10 *717:10 1.22803e-05
6 *398:8 *717:10 0.000141879
7 *467:44 *717:10 0.00017949
8 *467:46 *717:10 0.000116526
*RES
1 *4455:HI *717:10 43.5929 
2 *717:10 *4454:D 39.9471 
*END

*D_NET *718 0.000726385
*CONN
*I *4456:D I *D sky130_fd_sc_hd__dfrtp_2
*I *4839:X O *D sky130_fd_sc_hd__dlygate4sd3_1
*CAP
1 *4456:D 0
2 *4839:X 0.000293899
3 *718:10 0.000293899
4 *4454:RESET_B *718:10 2.59524e-05
5 *530:18 *718:10 9.67247e-05
6 *630:44 *718:10 1.59094e-05
*RES
1 *4839:X *718:10 42.3086 
2 *718:10 *4456:D 38 
*END

*D_NET *719 0.00119064
*CONN
*I *4050:B1 I *D sky130_fd_sc_hd__o21a_2
*I *4840:X O *D sky130_fd_sc_hd__dlygate4sd3_1
*CAP
1 *4050:B1 9.52331e-05
2 *4840:X 9.73994e-05
3 *719:8 0.000192632
4 *3902:C_N *4050:B1 0.000446275
5 *131:17 *4050:B1 2.02872e-05
6 *131:26 *4050:B1 0.000173452
7 *259:50 *4050:B1 9.84794e-05
8 *691:19 *719:8 6.68793e-05
*RES
1 *4840:X *719:8 39.9057 
2 *719:8 *4050:B1 42.9093 
*END

*D_NET *720 0.0125311
*CONN
*I *4135:A1 I *D sky130_fd_sc_hd__o21ai_2
*I *4127:A1 I *D sky130_fd_sc_hd__o21ai_2
*I *4130:A1 I *D sky130_fd_sc_hd__o21ai_2
*I *4132:A1 I *D sky130_fd_sc_hd__o21ai_2
*I *4122:A1 I *D sky130_fd_sc_hd__o21ai_2
*I *4146:A1 I *D sky130_fd_sc_hd__o21ai_2
*I *4144:A1 I *D sky130_fd_sc_hd__o21ai_2
*I *4124:A1 I *D sky130_fd_sc_hd__o21ai_2
*I *4734:X O *D sky130_fd_sc_hd__clkdlybuf4s25_1
*CAP
1 *4135:A1 0
2 *4127:A1 0.000495806
3 *4130:A1 0.000192059
4 *4132:A1 0.000581201
5 *4122:A1 0.000348919
6 *4146:A1 0
7 *4144:A1 0.000539532
8 *4124:A1 0
9 *4734:X 0.000790823
10 *720:92 0.000659739
11 *720:69 0.00117164
12 *720:61 0.000960061
13 *720:45 0.000348919
14 *720:43 0.000501936
15 *720:26 0.000928245
16 *720:10 0.000562554
17 *4144:A1 *4145:A 9.67842e-05
18 *720:26 *770:8 6.4393e-05
19 *720:43 *770:8 0.000207437
20 *4127:B1 *4127:A1 0.000200203
21 *4130:A2 *720:69 0
22 *4143:A *4144:A1 2.93747e-05
23 *4144:A2 *4144:A1 2.02517e-05
24 *4145:B *4144:A1 3.13428e-05
25 *4563:RESET_B *4144:A1 0.000183733
26 *4567:RESET_B *720:69 0.000134216
27 *4572:RESET_B *720:26 0
28 *251:40 *4127:A1 0.000554047
29 *251:40 *720:92 0.000230604
30 *304:8 *4132:A1 0.000322914
31 *313:10 *4144:A1 0.00010018
32 *313:10 *720:43 0.000410369
33 *531:32 *720:10 6.17437e-06
34 *531:32 *720:26 3.28382e-05
35 *659:21 *720:69 5.12254e-05
36 *659:27 *720:43 1.47563e-05
37 *659:27 *720:61 0.000305412
38 *659:27 *720:69 1.22906e-05
39 *659:37 *4144:A1 9.75779e-05
40 *659:46 *4122:A1 4.39725e-05
41 *659:57 *4122:A1 0.000500058
42 *659:74 *4122:A1 9.75779e-05
43 *659:81 *720:69 2.32101e-05
44 *659:98 *4130:A1 1.94812e-05
45 *659:98 *720:69 1.40958e-05
46 *659:98 *720:92 6.53382e-05
47 *699:22 *720:69 2.89256e-05
48 *699:24 *720:43 0
49 *699:26 *720:26 0
50 *699:92 *720:69 0
51 *702:12 *720:69 0.000274553
52 *702:27 *720:43 0
53 *702:27 *720:61 0.000276287
54 *702:57 *720:69 0
*RES
1 *4734:X *720:10 32.8393 
2 *720:10 *4124:A1 23 
3 *4734:X *720:26 41.48 
4 *720:26 *4144:A1 48.3364 
5 *720:26 *720:43 6.13143 
6 *720:43 *720:45 15 
7 *720:45 *4146:A1 23 
8 *720:45 *4122:A1 31.2443 
9 *720:43 *720:61 23.2443 
10 *720:61 *720:69 42.76 
11 *720:69 *4132:A1 31.6171 
12 *720:61 *4130:A1 23.6214 
13 *4130:A1 *720:92 26.9564 
14 *720:92 *4127:A1 33.8129 
15 *720:92 *4135:A1 23 
*END

*D_NET *721 0.00225327
*CONN
*I *4051:B1 I *D sky130_fd_sc_hd__o21a_2
*I *4841:X O *D sky130_fd_sc_hd__dlygate4sd3_1
*CAP
1 *4051:B1 0
2 *4841:X 0.000161268
3 *721:14 0.000621247
4 *721:8 0.000782515
5 *4047:B *721:14 0
6 *4465:CLK *721:14 0
7 *4465:RESET_B *721:14 0.00014411
8 *4466:RESET_B *721:14 0
9 *41:8 *721:14 0.000141879
10 *42:10 *721:14 0
11 *49:10 *721:14 2.02872e-05
12 *131:10 *721:14 4.90891e-05
13 *259:44 *721:14 5.15908e-05
14 *259:50 *721:14 0
15 *471:51 *721:14 0
16 *668:52 *721:14 3.70187e-05
17 *672:106 *721:14 9.84851e-05
18 *714:61 *721:14 0.000145784
*RES
1 *4841:X *721:8 40.0507 
2 *721:8 *721:14 28.7129 
3 *721:14 *4051:B1 23 
*END

*D_NET *722 0.000505971
*CONN
*I *4355:B1 I *D sky130_fd_sc_hd__o21a_2
*I *4842:X O *D sky130_fd_sc_hd__dlygate4sd3_1
*CAP
1 *4355:B1 0
2 *4842:X 0.000185108
3 *722:10 0.000185108
4 *722:10 *738:6 5.41288e-05
5 *4355:A2 *722:10 8.16253e-05
6 *61:10 *722:10 0
*RES
1 *4842:X *722:10 41.3557 
2 *722:10 *4355:B1 38 
*END

*D_NET *723 0.000342916
*CONN
*I *4053:B1 I *D sky130_fd_sc_hd__o21a_2
*I *4843:X O *D sky130_fd_sc_hd__dlygate4sd3_1
*CAP
1 *4053:B1 9.33235e-05
2 *4843:X 9.33235e-05
3 *4053:A1 *4053:B1 5.5792e-05
4 *4053:A2 *4053:B1 0.000100477
*RES
1 *4843:X *4053:B1 48.0507 
*END

*D_NET *724 0.000189759
*CONN
*I *4350:B1 I *D sky130_fd_sc_hd__o31a_2
*I *4844:X O *D sky130_fd_sc_hd__dlygate4sd3_1
*CAP
1 *4350:B1 4.56369e-05
2 *4844:X 4.56369e-05
3 *4350:A2 *4350:B1 9.84851e-05
*RES
1 *4844:X *4350:B1 47.0979 
*END

*D_NET *725 0.000183651
*CONN
*I *4354:B1 I *D sky130_fd_sc_hd__o31a_2
*I *4845:X O *D sky130_fd_sc_hd__dlygate4sd3_1
*CAP
1 *4354:B1 4.2583e-05
2 *4845:X 4.2583e-05
3 *4354:A2 *4354:B1 9.84851e-05
*RES
1 *4845:X *4354:B1 47.0979 
*END

*D_NET *726 0.000597582
*CONN
*I *4356:B1 I *D sky130_fd_sc_hd__o21a_2
*I *4846:X O *D sky130_fd_sc_hd__dlygate4sd3_1
*CAP
1 *4356:B1 0
2 *4846:X 0.000204765
3 *726:10 0.000204765
4 *4352:B1 *726:10 4.93341e-05
5 *4354:A3 *726:10 0.000127272
6 *58:10 *726:10 0
7 *107:47 *726:10 1.14452e-05
*RES
1 *4846:X *726:10 41.48 
2 *726:10 *4356:B1 38 
*END

*D_NET *727 0.000401436
*CONN
*I *4351:B1 I *D sky130_fd_sc_hd__o21a_2
*I *4847:X O *D sky130_fd_sc_hd__dlygate4sd3_1
*CAP
1 *4351:B1 0.000110609
2 *4847:X 0.000110609
3 *4351:B1 *734:30 0.000180218
*RES
1 *4847:X *4351:B1 48.0507 
*END

*D_NET *728 0.00246791
*CONN
*I *4064:B1 I *D sky130_fd_sc_hd__o31a_2
*I *4848:X O *D sky130_fd_sc_hd__dlygate4sd3_1
*CAP
1 *4064:B1 0.000132379
2 *4848:X 0.00036708
3 *728:8 0.000499459
4 *4064:A1 *4064:B1 9.41704e-05
5 *4064:A2 *4064:B1 1.61385e-05
6 *4064:A3 *4064:B1 4.83798e-05
7 *4457:RESET_B *728:8 0.000275575
8 *86:8 *728:8 1.07299e-05
9 *86:65 *728:8 1.29944e-05
10 *86:103 *728:8 0.000154635
11 *139:8 *728:8 0.000186772
12 *140:10 *728:8 1.16455e-05
13 *143:8 *4064:B1 0.000100477
14 *668:44 *728:8 0.000441943
15 *686:10 *728:8 0.000115526
*RES
1 *4848:X *728:8 49.0614 
2 *728:8 *4064:B1 41.0243 
*END

*D_NET *729 0.000464513
*CONN
*I *4307:A I *D sky130_fd_sc_hd__nor2_2
*I *4849:X O *D sky130_fd_sc_hd__dlygate4sd3_1
*CAP
1 *4307:A 6.85595e-05
2 *4849:X 6.85595e-05
3 *4307:A *4308:A 0.000228909
4 *4307:A *4308:B 9.84851e-05
*RES
1 *4849:X *4307:A 48.5271 
*END

*D_NET *730 0.000219597
*CONN
*I *4264:A I *D sky130_fd_sc_hd__nor2_2
*I *4850:X O *D sky130_fd_sc_hd__dlygate4sd3_1
*CAP
1 *4264:A 0.000109799
2 *4850:X 0.000109799
*RES
1 *4850:X *4264:A 48.0507 
*END

*D_NET *731 0.000471022
*CONN
*I *4731:A I *D sky130_fd_sc_hd__clkdlybuf4s25_1
*I *4456:Q O *D sky130_fd_sc_hd__dfrtp_2
*CAP
1 *4731:A 0
2 *4456:Q 0.000187
3 *731:10 0.000187
4 *731:10 *4501:D 3.24466e-05
5 *4704:A *731:10 0
6 *685:8 *731:10 5.70419e-05
7 *685:21 *731:10 0
8 *685:50 *731:10 7.53384e-06
*RES
1 *4456:Q *731:10 42.06 
2 *731:10 *4731:A 38 
*END

*D_NET *732 0.00206271
*CONN
*I *3910:C I *D sky130_fd_sc_hd__or4_2
*I *4736:A I *D sky130_fd_sc_hd__dlygate4sd3_1
*I *4416:Q O *D sky130_fd_sc_hd__dfrtp_2
*CAP
1 *3910:C 8.07024e-05
2 *4736:A 0.000159899
3 *4416:Q 0.000136744
4 *732:10 0.000377345
5 *4068:B *4736:A 0.000481931
6 *4068:C *4736:A 7.97636e-05
7 *4349:B1 *4736:A 0.000115
8 *111:99 *732:10 5.97612e-05
9 *129:12 *732:10 5.50049e-05
10 *261:69 *3910:C 0
11 *264:8 *3910:C 0.000163352
12 *264:8 *732:10 0.000188926
13 *498:20 *3910:C 9.94675e-05
14 *498:20 *732:10 6.48142e-05
*RES
1 *4416:Q *732:10 41.2314 
2 *732:10 *4736:A 43.8829 
3 *732:10 *3910:C 40.2579 
*END

*D_NET *733 0.000601201
*CONN
*I *4844:A I *D sky130_fd_sc_hd__dlygate4sd3_1
*I *3911:C I *D sky130_fd_sc_hd__or4_2
*I *4417:Q O *D sky130_fd_sc_hd__dfrtp_2
*CAP
1 *4844:A 0
2 *3911:C 0.000210619
3 *4417:Q 9.24906e-05
4 *733:20 0.000118128
5 *733:20 *737:12 6.07611e-06
6 *3892:A *733:20 6.11183e-05
7 *86:25 *3911:C 4.74355e-05
8 *670:29 *733:20 6.53342e-05
*RES
1 *4417:Q *3911:C 47.5743 
2 *3911:C *733:20 40.61 
3 *733:20 *4844:A 38 
*END

*D_NET *734 0.00305293
*CONN
*I *3909:A I *D sky130_fd_sc_hd__or3_2
*I *4847:A I *D sky130_fd_sc_hd__dlygate4sd3_1
*I *4418:Q O *D sky130_fd_sc_hd__dfrtp_2
*CAP
1 *3909:A 0
2 *4847:A 0.000478101
3 *4418:Q 0.000519931
4 *734:30 0.000344227
5 *734:10 0.000653805
6 *4847:A *735:10 4.06849e-05
7 *734:30 *3909:B 7.44354e-05
8 *3909:C *734:30 4.5051e-05
9 *4351:A2 *734:30 1.14154e-05
10 *4351:B1 *734:30 0.000180218
11 *4419:RESET_B *4847:A 2.33744e-05
12 *138:40 *734:30 0.000163198
13 *457:25 *734:10 0.000378845
14 *676:18 *734:10 0.000139647
*RES
1 *4418:Q *734:10 47.1971 
2 *734:10 *4847:A 40.5271 
3 *4847:A *734:30 30.9336 
4 *734:30 *3909:A 23 
*END

*D_NET *735 0.00178885
*CONN
*I *4739:A I *D sky130_fd_sc_hd__dlygate4sd3_1
*I *3912:A1 I *D sky130_fd_sc_hd__o311a_2
*I *4419:Q O *D sky130_fd_sc_hd__dfrtp_2
*CAP
1 *4739:A 8.79892e-05
2 *3912:A1 7.39056e-05
3 *4419:Q 0.000346154
4 *735:12 0.000161895
5 *735:10 0.000346154
6 *3912:A1 *3912:A2 5.50049e-05
7 *735:10 *739:8 6.33511e-05
8 *3912:A3 *3912:A1 0.000109895
9 *3912:B1 *3912:A1 3.33773e-05
10 *3912:B1 *4739:A 0.000198206
11 *4847:A *735:10 4.06849e-05
12 *107:47 *735:10 0
13 *138:25 *735:10 0
14 *147:8 *3912:A1 4.5051e-05
15 *147:8 *4739:A 0.000192031
16 *676:16 *735:10 0
17 *714:37 *3912:A1 3.51496e-05
*RES
1 *4419:Q *735:10 43.8207 
2 *735:10 *735:12 15 
3 *735:12 *3912:A1 25.5479 
4 *735:12 *4739:A 26.9564 
*END

*D_NET *736 0.00317999
*CONN
*I *3910:D I *D sky130_fd_sc_hd__or4_2
*I *4740:A I *D sky130_fd_sc_hd__dlygate4sd3_1
*I *4420:Q O *D sky130_fd_sc_hd__dfrtp_2
*CAP
1 *3910:D 0.000276494
2 *4740:A 0.000316642
3 *4420:Q 0
4 *736:6 0.000593136
5 *4740:A *757:6 5.50049e-05
6 *4353:B1 *4740:A 1.41077e-05
7 *4475:CLK *3910:D 0.00014411
8 *4475:CLK *4740:A 0.000425472
9 *53:10 *4740:A 0
10 *264:8 *3910:D 0.000568125
11 *264:8 *4740:A 0.000335527
12 *470:20 *3910:D 0.00043546
13 *498:20 *3910:D 1.59094e-05
*RES
1 *4420:Q *736:6 38 
2 *736:6 *4740:A 46.3479 
3 *736:6 *3910:D 46.5136 
*END

*D_NET *737 0.00134212
*CONN
*I *4845:A I *D sky130_fd_sc_hd__dlygate4sd3_1
*I *3911:D I *D sky130_fd_sc_hd__or4_2
*I *4421:Q O *D sky130_fd_sc_hd__dfrtp_2
*CAP
1 *4845:A 0
2 *3911:D 0
3 *4421:Q 0.000170511
4 *737:25 0.000179636
5 *737:12 0.000146102
6 *737:6 0.000496248
7 *3892:A *737:12 0.00025214
8 *3892:B *737:25 6.17437e-06
9 *111:47 *737:12 0
10 *127:8 *737:12 1.83667e-05
11 *127:8 *737:25 0
12 *146:10 *737:12 0
13 *146:10 *737:25 6.6869e-05
14 *670:29 *737:12 0
15 *670:31 *737:12 0
16 *733:20 *737:12 6.07611e-06
*RES
1 *4421:Q *737:6 25.0507 
2 *737:6 *737:12 34.0186 
3 *737:12 *3911:D 23 
4 *737:6 *737:25 33.0036 
5 *737:25 *4845:A 23 
*END

*D_NET *738 0.0018024
*CONN
*I *3909:B I *D sky130_fd_sc_hd__or3_2
*I *4842:A I *D sky130_fd_sc_hd__dlygate4sd3_1
*I *4422:Q O *D sky130_fd_sc_hd__dfrtp_2
*CAP
1 *3909:B 0.000115342
2 *4842:A 0.000219451
3 *4422:Q 0.000248302
4 *738:22 0.000334792
5 *738:6 0.000248302
6 *4262:B *738:22 2.76611e-06
7 *92:8 *738:6 6.17437e-06
8 *92:8 *738:22 5.3304e-05
9 *107:24 *738:6 2.64616e-05
10 *107:24 *738:22 1.94812e-05
11 *111:18 *738:22 4.08537e-05
12 *494:12 *738:22 0.000216721
13 *494:23 *738:22 0.000141888
14 *722:10 *738:6 5.41288e-05
15 *734:30 *3909:B 7.44354e-05
*RES
1 *4422:Q *738:6 27.4329 
2 *738:6 *4842:A 23 
3 *4842:A *738:22 43.3443 
4 *738:22 *3909:B 39.5743 
*END

*D_NET *739 0.000865364
*CONN
*I *4846:A I *D sky130_fd_sc_hd__dlygate4sd3_1
*I *3912:A2 I *D sky130_fd_sc_hd__o311a_2
*I *4423:Q O *D sky130_fd_sc_hd__dfrtp_2
*CAP
1 *4846:A 0.000138288
2 *3912:A2 1.50079e-05
3 *4423:Q 0.000125105
4 *739:8 0.000278401
5 *3912:A1 *3912:A2 5.50049e-05
6 *107:47 *739:8 0
7 *127:12 *4846:A 6.11286e-05
8 *127:12 *739:8 1.19796e-05
9 *146:10 *4846:A 5.93278e-05
10 *146:10 *739:8 2.76611e-06
11 *714:37 *3912:A2 5.50049e-05
12 *735:10 *739:8 6.33511e-05
*RES
1 *4423:Q *739:8 40.2579 
2 *739:8 *3912:A2 38.6214 
3 *739:8 *4846:A 40.61 
*END

*D_NET *740 0.00115728
*CONN
*I *4839:A I *D sky130_fd_sc_hd__dlygate4sd3_1
*I *4454:Q O *D sky130_fd_sc_hd__dfrtp_2
*CAP
1 *4839:A 0
2 *4454:Q 0.000263297
3 *740:10 0.000263297
4 *4501:RESET_B *740:10 8.62876e-05
5 *208:24 *740:10 0.00027592
6 *685:21 *740:10 0.000268481
*RES
1 *4454:Q *740:10 44.2971 
2 *740:10 *4839:A 38 
*END

*D_NET *741 0.00765544
*CONN
*I *3924:A I *D sky130_fd_sc_hd__nand2_2
*I *3920:A I *D sky130_fd_sc_hd__nand2_2
*I *3934:A1 I *D sky130_fd_sc_hd__a32o_2
*I *3925:A1 I *D sky130_fd_sc_hd__a31oi_2
*I *3945:A1 I *D sky130_fd_sc_hd__a32o_2
*I *3921:A1 I *D sky130_fd_sc_hd__a31oi_2
*I *4476:Q O *D sky130_fd_sc_hd__dfrtp_2
*CAP
1 *3924:A 4.27506e-05
2 *3920:A 1.51801e-05
3 *3934:A1 0.000196064
4 *3925:A1 0
5 *3945:A1 0.00030483
6 *3921:A1 6.58385e-05
7 *4476:Q 0.0010472
8 *741:46 0.000196064
9 *741:31 0.000804654
10 *741:14 0.000628125
11 *741:12 0.000496256
12 *741:6 0.00150857
13 *3920:B *741:12 1.21972e-05
14 *3921:A2 *3920:A 5.33597e-05
15 *3921:A2 *3921:A1 0.000135547
16 *3921:A2 *741:14 0.000242926
17 *3924:B *741:12 5.40337e-05
18 *3925:A2 *3945:A1 6.07611e-06
19 *3925:A2 *741:31 6.33511e-05
20 *3925:A3 *3934:A1 0
21 *3945:A3 *3945:A1 0.00026808
22 *17:16 *3920:A 6.48142e-05
23 *17:16 *3921:A1 0.000135547
24 *17:16 *741:14 0.000250839
25 *21:10 *3945:A1 5.60335e-05
26 *104:78 *3934:A1 0.000164518
27 *449:222 *3945:A1 0.000126641
28 *449:222 *741:31 5.97612e-05
29 *583:16 *3945:A1 7.55668e-05
30 *584:16 *3934:A1 0.000348905
31 *664:43 *741:12 3.7122e-06
32 *696:10 *3945:A1 0.000228001
*RES
1 *4476:Q *741:6 41.2493 
2 *741:6 *741:12 21.3593 
3 *741:12 *741:14 3.31429 
4 *741:14 *3921:A1 39.9057 
5 *741:14 *741:31 36.3386 
6 *741:31 *3945:A1 46.12 
7 *741:31 *741:46 15 
8 *741:46 *3925:A1 23 
9 *741:46 *3934:A1 28.4271 
10 *741:12 *3920:A 38.8493 
11 *741:6 *3924:A 24.1186 
*END

*D_NET *742 0.00822369
*CONN
*I *3866:A I *D sky130_fd_sc_hd__nand2_2
*I *4363:B2 I *D sky130_fd_sc_hd__a221o_2
*I *4364:A I *D sky130_fd_sc_hd__nand2_2
*I *3867:A I *D sky130_fd_sc_hd__and3_2
*I *3859:A I *D sky130_fd_sc_hd__and3_2
*I *3858:A I *D sky130_fd_sc_hd__nand2_2
*I *4426:Q O *D sky130_fd_sc_hd__dfrtp_2
*CAP
1 *3866:A 0
2 *4363:B2 0
3 *4364:A 0
4 *3867:A 0
5 *3859:A 0
6 *3858:A 0
7 *4426:Q 0.000381359
8 *742:84 0.000344153
9 *742:68 0.000189235
10 *742:41 0.000351411
11 *742:26 0.000818322
12 *742:18 0.000836926
13 *742:12 0.0011987
14 *742:6 0.00105513
15 *4362:A *742:18 0.000150986
16 *4363:A1 *742:68 3.30725e-06
17 *4363:B1 *742:68 3.30725e-06
18 *4363:C1 *742:68 1.11909e-05
19 *4364:B *742:18 0.000179525
20 *4410:CLK *742:26 0.000222113
21 *4410:RESET_B *742:41 1.02387e-05
22 *4426:CLK *742:12 4.42603e-05
23 *4757:A *742:6 2.95526e-05
24 *4757:A *742:12 2.64616e-05
25 *4757:A *742:68 0.000108129
26 *4757:A *742:84 8.56042e-05
27 *65:10 *742:12 3.88629e-05
28 *104:24 *742:41 0.00019249
29 *171:10 *742:68 9.5148e-05
30 *171:20 *742:68 2.95423e-05
31 *429:10 *742:18 0.000288408
32 *482:10 *742:18 3.4678e-05
33 *482:10 *742:26 0.000158229
34 *482:12 *742:26 0.000216051
35 *482:69 *742:12 1.70419e-05
36 *482:69 *742:18 8.52094e-06
37 *517:6 *742:26 0.000310641
38 *517:20 *742:26 0.000192671
39 *521:66 *742:68 0.000223565
40 *525:8 *742:41 2.45549e-06
41 *528:57 *742:41 0
42 *556:8 *742:84 7.91323e-05
43 *583:10 *742:41 0.000114092
44 *622:16 *742:68 1.19384e-07
45 *664:12 *742:84 0.000172121
46 *687:26 *742:18 0
*RES
1 *4426:Q *742:6 23.6214 
2 *742:6 *742:12 25.15 
3 *742:12 *742:18 25.3986 
4 *742:18 *742:26 42.8014 
5 *742:26 *3858:A 23 
6 *742:26 *742:41 36.3593 
7 *742:41 *3859:A 23 
8 *742:18 *3867:A 23 
9 *742:12 *4364:A 38 
10 *742:6 *742:68 34.583 
11 *742:68 *4363:B2 23 
12 *4426:Q *742:84 45.25 
13 *742:84 *3866:A 38 
*END

*D_NET *743 0.00618625
*CONN
*I *4760:A I *D sky130_fd_sc_hd__dlygate4sd3_1
*I *4357:A I *D sky130_fd_sc_hd__or3b_2
*I *3928:B I *D sky130_fd_sc_hd__and2b_2
*I *4452:Q O *D sky130_fd_sc_hd__dfrtp_2
*CAP
1 *4760:A 0
2 *4357:A 0
3 *3928:B 0
4 *4452:Q 0
5 *743:40 0.000475772
6 *743:23 0.000790066
7 *743:10 0.00158292
8 *743:4 0.00126862
9 *743:40 *3927:B 1.12487e-05
10 *743:40 *744:24 0.000180841
11 *3926:A2 *743:23 0
12 *4358:A2 *743:40 5.4578e-05
13 *4452:D *743:10 9.88574e-06
14 *4452:RESET_B *743:10 9.15069e-05
15 *4452:RESET_B *743:40 0.000315092
16 *4713:A *743:40 0.000111852
17 *4714:A *743:23 9.03784e-05
18 *154:16 *743:10 5.56203e-05
19 *154:16 *743:23 0.000215178
20 *157:10 *743:23 0
21 *476:80 *743:10 7.4416e-05
22 *584:16 *743:23 0.000167443
23 *595:10 *743:40 9.28078e-06
24 *695:14 *743:40 5.3304e-05
25 *695:26 *743:40 0.000212984
26 *696:10 *743:10 0
27 *696:10 *743:23 0
28 *696:41 *743:10 3.90219e-05
29 *713:12 *743:23 0.000376242
*RES
1 *4452:Q *743:4 23 
2 *743:4 *743:10 25.7507 
3 *743:10 *3928:B 38 
4 *743:10 *743:23 31.5921 
5 *743:23 *4357:A 23 
6 *743:4 *743:40 40.295 
7 *743:40 *4760:A 23 
*END

*D_NET *744 0.00662581
*CONN
*I *3856:B1 I *D sky130_fd_sc_hd__o31ai_2
*I *3855:A I *D sky130_fd_sc_hd__nor2_2
*I *4793:A I *D sky130_fd_sc_hd__dlygate4sd3_1
*I *4424:Q O *D sky130_fd_sc_hd__dfrtp_2
*CAP
1 *3856:B1 0
2 *3855:A 0
3 *4793:A 0
4 *4424:Q 0.000650175
5 *744:42 0.000163584
6 *744:34 0.0011952
7 *744:24 0.00145968
8 *744:8 0.000222109
9 *744:8 *3927:B 1.03972e-05
10 *4358:A1 *744:34 0.000559134
11 *4400:RESET_B *744:42 4.94862e-05
12 *4453:D *744:8 0
13 *4453:RESET_B *744:34 0.000102638
14 *27:10 *744:42 0
15 *30:10 *744:34 0.000373091
16 *100:14 *744:42 0.000234595
17 *102:34 *744:42 2.18409e-05
18 *154:31 *744:8 0
19 *158:16 *744:8 0.000291232
20 *166:10 *744:34 2.70469e-05
21 *476:12 *744:34 0
22 *476:34 *744:34 0.000281995
23 *483:14 *744:42 6.37012e-05
24 *523:22 *744:34 2.98648e-05
25 *529:23 *744:34 0.000216956
26 *529:27 *744:34 0.000121021
27 *695:14 *744:24 0.000144933
28 *695:14 *744:34 0.000218952
29 *695:26 *744:8 7.34394e-06
30 *743:40 *744:24 0.000180841
*RES
1 *4424:Q *744:8 42.7229 
2 *744:8 *4793:A 38 
3 *4424:Q *744:24 43.3857 
4 *744:24 *744:34 40.52 
5 *744:34 *744:42 33.8321 
6 *744:42 *3855:A 23 
7 *744:34 *3856:B1 23 
*END

*D_NET *745 0.00391077
*CONN
*I *3929:A1 I *D sky130_fd_sc_hd__a311o_2
*I *3926:A1 I *D sky130_fd_sc_hd__a22o_2
*I *3923:A1 I *D sky130_fd_sc_hd__a22o_2
*I *4451:Q O *D sky130_fd_sc_hd__dfstp_2
*CAP
1 *3929:A1 0
2 *3926:A1 0
3 *3923:A1 0
4 *4451:Q 7.23497e-05
5 *745:50 0.000536114
6 *745:27 0.000729204
7 *745:14 0.000333294
8 *745:6 0.000598733
9 *3926:A2 *745:27 4.2812e-06
10 *3926:B1 *745:50 6.78627e-05
11 *3926:B2 *745:50 0.000135014
12 *3929:A2 *745:50 2.93431e-05
13 *4451:SET_B *745:6 9.41704e-05
14 *4451:SET_B *745:27 8.76309e-05
15 *31:12 *745:50 0
16 *32:8 *745:14 0.000296947
17 *32:8 *745:27 4.56384e-05
18 *33:10 *745:14 3.86462e-05
19 *100:26 *745:50 3.70094e-05
20 *154:16 *745:14 0.000305717
21 *154:38 *745:50 2.98648e-05
22 *154:44 *745:50 2.70469e-05
23 *159:43 *745:50 0
24 *476:68 *745:50 8.58779e-05
25 *476:80 *745:50 0.000111134
26 *559:10 *745:50 3.43144e-05
27 *592:10 *745:14 0
28 *664:51 *745:14 0.000210573
*RES
1 *4451:Q *745:6 24.0979 
2 *745:6 *745:14 38.7829 
3 *745:14 *3923:A1 23 
4 *745:6 *745:27 33.3557 
5 *745:27 *3926:A1 23 
6 *745:27 *745:50 40.2329 
7 *745:50 *3929:A1 23 
*END

*D_NET *746 0.0058699
*CONN
*I *4357:C_N I *D sky130_fd_sc_hd__or3b_2
*I *3922:A I *D sky130_fd_sc_hd__nand2_2
*I *4790:A I *D sky130_fd_sc_hd__dlygate4sd3_1
*I *3927:B I *D sky130_fd_sc_hd__and2b_2
*I *4453:Q O *D sky130_fd_sc_hd__dfrtp_2
*CAP
1 *4357:C_N 0.000269675
2 *3922:A 6.89521e-05
3 *4790:A 0.000167146
4 *3927:B 0.000502877
5 *4453:Q 0.000175489
6 *746:32 0.000512712
7 *746:10 0.000756476
8 *746:8 0.000436027
9 *4451:CLK *4790:A 0.000303724
10 *4453:RESET_B *746:8 0.00013273
11 *4629:A *4357:C_N 0.000229797
12 *4713:A *3927:B 4.70239e-05
13 *4713:A *4790:A 0.000257636
14 *4713:A *746:10 1.19796e-05
15 *31:12 *3922:A 1.83327e-05
16 *99:22 *4357:C_N 5.62672e-05
17 *155:8 *3922:A 5.3304e-05
18 *158:8 *3927:B 0.000232125
19 *158:16 *3922:A 0.000100061
20 *158:16 *3927:B 0.00055943
21 *158:16 *4357:C_N 2.4306e-05
22 *158:16 *746:10 0.000126601
23 *158:16 *746:32 0.000283412
24 *159:43 *746:10 0
25 *159:43 *746:32 0
26 *426:8 *4357:C_N 2.36123e-05
27 *426:12 *4357:C_N 0
28 *426:12 *746:32 0
29 *476:68 *4790:A 6.9805e-05
30 *695:26 *3927:B 0.000394302
31 *713:31 *746:8 3.44502e-05
32 *743:40 *3927:B 1.12487e-05
33 *744:8 *3927:B 1.03972e-05
*RES
1 *4453:Q *746:8 40.5271 
2 *746:8 *746:10 1.90571 
3 *746:10 *3927:B 49.7243 
4 *746:10 *4790:A 42.4329 
5 *746:8 *746:32 4.01857 
6 *746:32 *3922:A 39.5743 
7 *746:32 *4357:C_N 43.6136 
*END

*D_NET *747 0.0104681
*CONN
*I *3847:B1 I *D sky130_fd_sc_hd__o21ai_2
*I *3862:A I *D sky130_fd_sc_hd__or3_2
*I *3851:A2 I *D sky130_fd_sc_hd__a31oi_2
*I *3849:A2 I *D sky130_fd_sc_hd__a21oi_2
*I *4360:A1 I *D sky130_fd_sc_hd__a22o_2
*I *4359:A I *D sky130_fd_sc_hd__nand2_2
*I *3861:A I *D sky130_fd_sc_hd__nor2_2
*I *3919:A1 I *D sky130_fd_sc_hd__a221o_2
*I *4448:Q O *D sky130_fd_sc_hd__dfstp_2
*CAP
1 *3847:B1 0
2 *3862:A 0
3 *3851:A2 5.73213e-05
4 *3849:A2 0
5 *4360:A1 0.000189758
6 *4359:A 0.000106094
7 *3861:A 1.08768e-05
8 *3919:A1 0
9 *4448:Q 0
10 *747:109 0.000295686
11 *747:78 0.00120369
12 *747:55 0.00149294
13 *747:53 0.000315048
14 *747:40 0.000715934
15 *747:34 0.000480297
16 *747:25 0.000181927
17 *747:19 0.000482575
18 *747:12 0.000147527
19 *747:4 0.000192048
20 *3861:A *3862:C 5.50049e-05
21 *747:25 *3942:A_N 0
22 *747:34 *3862:C 0.000140259
23 *3870:B1 *3851:A2 4.92689e-05
24 *3870:B1 *747:40 0
25 *3870:B1 *747:55 0.000111852
26 *3942:B *747:109 1.36806e-05
27 *3942:C *747:25 1.83564e-05
28 *3942:C *747:109 0.000310653
29 *4360:B1 *4360:A1 3.22879e-05
30 *4360:B2 *4360:A1 9.67842e-05
31 *4409:CLK *747:78 0.000336473
32 *4409:D *747:78 3.40181e-05
33 *4471:CLK *4360:A1 0.000144203
34 *4471:CLK *747:55 3.47781e-05
35 *4529:CLK *747:78 5.3304e-05
36 *3:14 *747:25 0.000133301
37 *3:14 *747:40 0
38 *98:26 *747:25 0
39 *98:26 *747:40 0.000323452
40 *98:26 *747:109 1.40958e-05
41 *107:73 *747:12 0.000186442
42 *107:111 *747:78 0.00046312
43 *111:10 *747:25 0
44 *111:18 *747:12 9.41704e-05
45 *111:18 *747:19 9.67842e-05
46 *111:18 *747:109 0.000352426
47 *150:16 *3861:A 5.67058e-05
48 *150:16 *747:34 0.000128723
49 *150:37 *747:12 0.000185512
50 *160:10 *747:109 0.000164291
51 *160:27 *747:109 1.37349e-05
52 *167:18 *3851:A2 5.3304e-05
53 *167:18 *4359:A 3.26893e-05
54 *167:18 *747:53 0.0002246
55 *427:10 *4360:A1 0
56 *427:10 *747:40 1.19692e-05
57 *427:10 *747:55 0
58 *449:226 *3851:A2 2.64616e-05
59 *449:226 *4359:A 2.47702e-05
60 *495:33 *3851:A2 5.94125e-05
61 *495:33 *747:55 0.000181943
62 *495:71 *747:109 0.000188926
63 *519:26 *747:78 2.76611e-06
64 *519:65 *747:109 6.17437e-06
65 *644:8 *747:78 0
66 *669:60 *747:40 0.000139647
*RES
1 *4448:Q *747:4 23 
2 *747:4 *747:12 33.7079 
3 *747:12 *3919:A1 23 
4 *747:4 *747:19 1.09786 
5 *747:19 *747:25 33.3143 
6 *747:25 *3861:A 23.6214 
7 *747:25 *747:34 1.57429 
8 *747:34 *747:40 39.6529 
9 *747:40 *4359:A 24.9471 
10 *747:40 *747:53 17.5271 
11 *747:53 *747:55 2.96214 
12 *747:55 *4360:A1 42.1221 
13 *747:55 *747:78 48.5807 
14 *747:78 *3849:A2 38 
15 *747:53 *3851:A2 39.4707 
16 *747:34 *3862:A 23 
17 *747:19 *747:109 38.4721 
18 *747:109 *3847:B1 23 
*END

*D_NET *748 0.00369861
*CONN
*I *4045:C_N I *D sky130_fd_sc_hd__or3b_2
*I *4796:A I *D sky130_fd_sc_hd__dlygate4sd3_1
*I *3931:B I *D sky130_fd_sc_hd__or3_2
*I *3942:A_N I *D sky130_fd_sc_hd__and4b_2
*I *4838:A I *D sky130_fd_sc_hd__dlygate4sd3_1
*I *4449:Q O *D sky130_fd_sc_hd__dfrtp_2
*CAP
1 *4045:C_N 0.000134895
2 *4796:A 9.37145e-05
3 *3931:B 0
4 *3942:A_N 0.000140064
5 *4838:A 0
6 *4449:Q 0.000326628
7 *748:52 0.000431915
8 *748:23 0.000841053
9 *748:12 8.03308e-05
10 *748:6 0.000904642
11 *4045:C_N *750:10 0
12 *748:12 *749:8 0
13 *3942:C *3942:A_N 5.50049e-05
14 *4449:RESET_B *748:6 3.4066e-05
15 *4449:RESET_B *748:52 0.00010018
16 *4700:A *748:52 0
17 *3:14 *748:23 1.04265e-05
18 *84:8 *3942:A_N 0
19 *98:26 *3942:A_N 5.67058e-05
20 *107:73 *748:12 6.6869e-05
21 *111:10 *3942:A_N 3.83778e-05
22 *111:61 *3942:A_N 3.62323e-05
23 *111:61 *748:23 7.28629e-05
24 *111:99 *748:23 0.000142326
25 *149:18 *4045:C_N 0
26 *149:18 *748:52 0
27 *151:22 *4045:C_N 0
28 *151:22 *748:12 8.4047e-05
29 *151:22 *748:52 0
30 *152:24 *748:23 4.82745e-05
31 *599:10 *748:23 0
32 *681:10 *748:52 0
33 *681:12 *748:52 0
34 *747:25 *3942:A_N 0
*RES
1 *4449:Q *748:6 24.5743 
2 *748:6 *748:12 31.9057 
3 *748:12 *4838:A 23 
4 *748:6 *748:23 26.165 
5 *748:23 *3942:A_N 40.8793 
6 *748:23 *3931:B 38 
7 *4449:Q *748:52 41.3557 
8 *748:52 *4796:A 39.5743 
9 *748:52 *4045:C_N 40.61 
*END

*D_NET *749 0.00586233
*CONN
*I *3914:A I *D sky130_fd_sc_hd__and2_2
*I *3931:A I *D sky130_fd_sc_hd__or3_2
*I *3835:A I *D sky130_fd_sc_hd__inv_2
*I *3862:C I *D sky130_fd_sc_hd__or3_2
*I *3861:B I *D sky130_fd_sc_hd__nor2_2
*I *4450:Q O *D sky130_fd_sc_hd__dfrtp_2
*CAP
1 *3914:A 0.000285405
2 *3931:A 0.000115983
3 *3835:A 5.43565e-05
4 *3862:C 0.000163448
5 *3861:B 0
6 *4450:Q 0
7 *749:42 0.000597364
8 *749:14 0.000586749
9 *749:8 0.00103631
10 *749:6 0.000471389
11 *3861:A *3862:C 5.50049e-05
12 *3916:A *749:8 0
13 *3918:A *749:42 0.000386866
14 *3919:A2 *749:8 0
15 *3919:A2 *749:14 0
16 *3931:C *3931:A 2.93845e-05
17 *4448:SET_B *749:8 8.93593e-05
18 *4448:SET_B *749:14 7.20519e-05
19 *4449:RESET_B *3914:A 6.9805e-05
20 *34:10 *749:42 0.000228909
21 *95:10 *3862:C 0.000398991
22 *95:10 *749:14 4.66047e-05
23 *107:24 *749:14 0.000237388
24 *107:73 *749:8 0
25 *148:27 *3914:A 0.000269775
26 *148:27 *749:42 6.17437e-06
27 *150:16 *3862:C 9.97189e-05
28 *150:16 *749:14 4.67488e-05
29 *150:37 *749:8 0
30 *151:22 *3914:A 0
31 *151:22 *749:8 0
32 *152:12 *749:8 2.74987e-05
33 *152:24 *3835:A 4.75353e-05
34 *152:24 *3931:A 2.65879e-05
35 *152:24 *749:42 6.28205e-06
36 *519:65 *3862:C 0
37 *681:12 *3914:A 4.16764e-05
38 *681:12 *749:8 1.86973e-05
39 *681:53 *749:14 0
40 *682:8 *3914:A 0.000144221
41 *682:14 *749:14 0
42 *714:37 *3914:A 6.1789e-05
43 *747:34 *3862:C 0.000140259
44 *748:12 *749:8 0
*RES
1 *4450:Q *749:6 38 
2 *749:6 *749:8 4.37071 
3 *749:8 *749:14 24.0314 
4 *749:14 *3861:B 23 
5 *749:14 *3862:C 28.4271 
6 *749:8 *749:42 23.5757 
7 *749:42 *3835:A 24.8125 
8 *749:42 *3931:A 25.5479 
9 *749:6 *3914:A 45.2914 
*END

*D_NET *750 0.00450407
*CONN
*I *3953:B I *D sky130_fd_sc_hd__nor2_2
*I *3954:B I *D sky130_fd_sc_hd__nor2_2
*I *4450:D I *D sky130_fd_sc_hd__dfrtp_2
*I *4045:A I *D sky130_fd_sc_hd__or3b_2
*I *3848:Y O *D sky130_fd_sc_hd__inv_2
*CAP
1 *3953:B 0
2 *3954:B 9.73735e-05
3 *4450:D 0.000222449
4 *4045:A 0
5 *3848:Y 0.00031212
6 *750:27 0.000319822
7 *750:25 0.000627428
8 *750:14 0.000671189
9 *750:10 0.000355881
10 *4045:C_N *750:10 0
11 *107:73 *750:10 0.000126936
12 *111:26 *4450:D 0.000490586
13 *144:10 *4450:D 0
14 *148:12 *3954:B 0.000196549
15 *148:12 *4450:D 0.000437226
16 *149:8 *4450:D 8.85189e-05
17 *151:22 *750:10 0.000171906
18 *258:10 *750:25 0.000274078
19 *494:32 *3954:B 5.86432e-05
20 *494:32 *4450:D 5.3365e-05
*RES
1 *3848:Y *750:10 44.7943 
2 *750:10 *750:14 15.6214 
3 *750:14 *4045:A 23 
4 *750:14 *750:25 11.6207 
5 *750:25 *750:27 15 
6 *750:27 *4450:D 46.5964 
7 *750:27 *3954:B 40.61 
8 *750:25 *3953:B 23 
*END

*D_NET *751 0.00274918
*CONN
*I *4057:B I *D sky130_fd_sc_hd__or3b_2
*I *4069:B I *D sky130_fd_sc_hd__nor3_2
*I *4070:B I *D sky130_fd_sc_hd__or3_2
*I *4449:D I *D sky130_fd_sc_hd__dfrtp_2
*I *3917:X O *D sky130_fd_sc_hd__a21o_2
*CAP
1 *4057:B 9.80595e-05
2 *4069:B 0.000122632
3 *4070:B 5.613e-05
4 *4449:D 5.39135e-05
5 *3917:X 0.000164553
6 *751:23 0.000412662
7 *751:12 0.000287813
8 *751:10 0.000262612
9 *4069:C *4069:B 9.5877e-05
10 *3:20 *751:10 5.92299e-05
11 *96:12 *751:23 4.67488e-05
12 *96:18 *4069:B 0.000156388
13 *96:18 *4070:B 6.25829e-05
14 *111:99 *4057:B 0.000239775
15 *111:99 *751:10 0.000275482
16 *160:27 *4070:B 2.84809e-05
17 *160:27 *751:10 0
18 *160:38 *4057:B 0
19 *160:38 *751:10 0
20 *264:8 *4057:B 7.63602e-05
21 *269:10 *4069:B 0.000138718
22 *495:71 *751:10 0.000111158
23 *669:82 *4069:B 0
24 *669:82 *4070:B 0
*RES
1 *3917:X *751:10 42.7643 
2 *751:10 *751:12 15 
3 *751:12 *4449:D 23.6214 
4 *751:12 *751:23 18.48 
5 *751:23 *4070:B 39.5536 
6 *751:23 *4069:B 41.3557 
7 *751:10 *4057:B 41.3143 
*END

*D_NET *752 0.00339012
*CONN
*I *3930:A2 I *D sky130_fd_sc_hd__a21bo_2
*I *3850:A_N I *D sky130_fd_sc_hd__nand2b_2
*I *4771:A I *D sky130_fd_sc_hd__dlygate4sd3_1
*I *4425:Q O *D sky130_fd_sc_hd__dfrtp_2
*CAP
1 *3930:A2 0.000211576
2 *3850:A_N 0.0001734
3 *4771:A 0.000142823
4 *4425:Q 0
5 *752:19 0.000627783
6 *752:6 0.000385631
7 *3851:A1 *4771:A 7.88828e-05
8 *3915:A0 *3850:A_N 9.58714e-05
9 *3915:A1 *3850:A_N 2.18506e-05
10 *3932:A *3930:A2 9.84794e-05
11 *3933:A2 *3930:A2 0.000150977
12 *3933:A2 *752:19 0.000423289
13 *150:16 *3850:A_N 0.000104386
14 *161:10 *3930:A2 3.47781e-05
15 *167:33 *3930:A2 9.16459e-05
16 *449:226 *4771:A 7.59794e-05
17 *495:84 *3930:A2 0
18 *495:84 *752:19 0
19 *500:47 *3850:A_N 5.3304e-05
20 *518:38 *3930:A2 0.000152038
21 *519:38 *3850:A_N 6.89881e-05
22 *644:8 *4771:A 4.48383e-05
23 *644:8 *752:19 0.000160386
24 *669:46 *4771:A 7.57389e-05
25 *669:46 *752:19 5.2949e-05
26 *669:82 *3850:A_N 6.45221e-05
*RES
1 *4425:Q *752:6 38 
2 *752:6 *4771:A 41.8321 
3 *752:6 *752:19 7.18786 
4 *752:19 *3850:A_N 42.5986 
5 *752:19 *3930:A2 43.6136 
*END

*D_NET *753 0.00123631
*CONN
*I *4471:D I *D sky130_fd_sc_hd__dfrtp_2
*I *3851:Y O *D sky130_fd_sc_hd__a31oi_2
*CAP
1 *4471:D 4.01985e-05
2 *3851:Y 0.000347255
3 *753:8 0.000387453
4 *4471:CLK *753:8 0
5 *64:16 *753:8 0.00025056
6 *162:16 *753:8 6.7522e-05
7 *316:8 *753:8 0
8 *518:60 *753:8 0.000135557
9 *669:16 *753:8 7.76364e-06
*RES
1 *3851:Y *753:8 45.1879 
2 *753:8 *4471:D 38.6214 
*END

*D_NET *754 0.000317978
*CONN
*I *4689:A I *D sky130_fd_sc_hd__clkdlybuf4s25_1
*I *4471:Q O *D sky130_fd_sc_hd__dfrtp_2
*CAP
1 *4689:A 0
2 *4471:Q 0.000158989
3 *754:10 0.000158989
4 *316:8 *754:10 0
*RES
1 *4471:Q *754:10 40.5271 
2 *754:10 *4689:A 38 
*END

*D_NET *755 0.00119835
*CONN
*I *4469:D I *D sky130_fd_sc_hd__dfrtp_2
*I *3953:Y O *D sky130_fd_sc_hd__nor2_2
*CAP
1 *4469:D 0
2 *3953:Y 0.000215478
3 *755:10 0.000215478
4 *147:12 *755:10 0.000384805
5 *494:32 *755:10 0.000382583
*RES
1 *3953:Y *755:10 44.6493 
2 *755:10 *4469:D 38 
*END

*D_NET *756 0.000882444
*CONN
*I *4470:D I *D sky130_fd_sc_hd__dfrtp_2
*I *3954:Y O *D sky130_fd_sc_hd__nor2_2
*CAP
1 *4470:D 0
2 *3954:Y 0.000176841
3 *756:10 0.000176841
4 *4046:A *756:10 5.50049e-05
5 *4470:CLK *756:10 4.23714e-05
6 *148:12 *756:10 0.000354778
7 *494:32 *756:10 7.66085e-05
*RES
1 *3954:Y *756:10 43.3443 
2 *756:10 *4470:D 38 
*END

*D_NET *757 0.00498032
*CONN
*I *4692:A I *D sky130_fd_sc_hd__clkdlybuf4s25_1
*I *4693:A I *D sky130_fd_sc_hd__clkdlybuf4s25_1
*I *4469:Q O *D sky130_fd_sc_hd__dfrtp_2
*CAP
1 *4692:A 0.000194775
2 *4693:A 0
3 *4469:Q 0.00127031
4 *757:26 0.000476459
5 *757:12 0.000187296
6 *757:6 0.00117592
7 *757:26 *758:27 7.56417e-05
8 *4353:A2 *757:6 0.000569793
9 *4353:A3 *757:6 1.5769e-05
10 *4469:RESET_B *757:26 0
11 *4740:A *757:6 5.50049e-05
12 *53:10 *757:12 3.56433e-05
13 *259:8 *757:26 0
14 *261:12 *757:26 0.000203837
15 *261:22 *4692:A 0.000395895
16 *264:8 *757:12 0.000177904
17 *269:10 *757:12 0
18 *560:10 *757:12 0
19 *666:8 *4692:A 1.05235e-05
20 *671:8 *757:26 0.000135547
*RES
1 *4469:Q *757:6 36.9614 
2 *757:6 *757:12 34.7229 
3 *757:12 *4693:A 23 
4 *4469:Q *757:26 45.1879 
5 *757:26 *4692:A 42.93 
*END

*D_NET *758 0.00191361
*CONN
*I *4690:A I *D sky130_fd_sc_hd__clkdlybuf4s25_1
*I *4691:A I *D sky130_fd_sc_hd__clkdlybuf4s25_1
*I *4470:Q O *D sky130_fd_sc_hd__dfrtp_2
*CAP
1 *4690:A 0
2 *4691:A 7.41296e-05
3 *4470:Q 9.67411e-05
4 *758:27 0.000282535
5 *758:12 0.000500325
6 *758:8 0.000240402
7 *3895:D *4691:A 0.000103637
8 *3895:D *758:12 0.000141327
9 *4420:CLK *758:8 0
10 *145:6 *758:27 2.93747e-05
11 *259:8 *758:27 0
12 *261:12 *758:8 8.51329e-05
13 *469:10 *758:8 0
14 *668:70 *758:27 0.000249821
15 *670:104 *758:27 2.95423e-05
16 *671:8 *758:27 4.99753e-06
17 *757:26 *758:27 7.56417e-05
*RES
1 *4470:Q *758:8 40.2579 
2 *758:8 *758:12 18.0036 
3 *758:12 *4691:A 25.0507 
4 *758:12 *758:27 36.4007 
5 *758:27 *4690:A 23 
*END

*D_NET *759 0.000957213
*CONN
*I *4597:A I *D sky130_fd_sc_hd__buf_2
*I *4044:Y O *D sky130_fd_sc_hd__inv_2
*CAP
1 *4597:A 0
2 *4044:Y 0.000316654
3 *759:10 0.000316654
4 *4557:RESET_B *759:10 0.000323904
*RES
1 *4044:Y *759:10 43.3857 
2 *759:10 *4597:A 38 
*END

*D_NET *760 0.000506999
*CONN
*I *4553:D I *D sky130_fd_sc_hd__dfrtp_2
*I *4095:Y O *D sky130_fd_sc_hd__o21ai_2
*CAP
1 *4553:D 0.000192632
2 *4095:Y 0.000192632
3 *657:98 *4553:D 0.000121735
*RES
1 *4095:Y *4553:D 48.9052 
*END

*D_NET *761 0.00116259
*CONN
*I *4563:D I *D sky130_fd_sc_hd__dfrtp_2
*I *4122:Y O *D sky130_fd_sc_hd__o21ai_2
*CAP
1 *4563:D 0
2 *4122:Y 0.000275447
3 *761:12 0.000275447
4 *298:8 *761:12 1.64402e-05
5 *452:14 *761:12 8.4047e-05
6 *481:20 *761:12 2.72055e-05
7 *481:24 *761:12 6.63698e-05
8 *659:74 *761:12 0.000417631
*RES
1 *4122:Y *761:12 44.7943 
2 *761:12 *4563:D 38 
*END

*D_NET *762 0.00089792
*CONN
*I *4564:D I *D sky130_fd_sc_hd__dfrtp_2
*I *4124:Y O *D sky130_fd_sc_hd__o21ai_2
*CAP
1 *4564:D 5.145e-05
2 *4124:Y 0.000144059
3 *762:8 0.000195509
4 *299:10 *762:8 0.000127498
5 *659:74 *762:8 0.000379403
*RES
1 *4124:Y *762:8 43.075 
2 *762:8 *4564:D 38.6214 
*END

*D_NET *763 0.000843692
*CONN
*I *4565:D I *D sky130_fd_sc_hd__dfrtp_2
*I *4127:Y O *D sky130_fd_sc_hd__o21ai_2
*CAP
1 *4565:D 0
2 *4127:Y 0.000194172
3 *763:8 0.000194172
4 *301:10 *763:8 0.000406269
5 *481:10 *763:8 4.90787e-05
6 *701:37 *763:8 0
*RES
1 *4127:Y *763:8 43.4271 
2 *763:8 *4565:D 38 
*END

*D_NET *764 0.000288274
*CONN
*I *4566:D I *D sky130_fd_sc_hd__dfrtp_2
*I *4130:Y O *D sky130_fd_sc_hd__o21ai_2
*CAP
1 *4566:D 0
2 *4130:Y 8.55803e-05
3 *764:8 8.55803e-05
4 *659:27 *764:8 4.6318e-06
5 *702:12 *764:8 4.31366e-05
6 *702:27 *764:8 6.93449e-05
*RES
1 *4130:Y *764:8 39.9057 
2 *764:8 *4566:D 38 
*END

*D_NET *765 0.000760247
*CONN
*I *4567:D I *D sky130_fd_sc_hd__dfrtp_2
*I *4132:Y O *D sky130_fd_sc_hd__o21ai_2
*CAP
1 *4567:D 0
2 *4132:Y 0.00017847
3 *765:8 0.00017847
4 *765:8 *767:8 0
5 *4680:A *765:8 0.000208818
6 *531:59 *765:8 5.26101e-05
7 *660:51 *765:8 0.000141879
*RES
1 *4132:Y *765:8 42.7229 
2 *765:8 *4567:D 38 
*END

*D_NET *766 0.00127611
*CONN
*I *4568:D I *D sky130_fd_sc_hd__dfrtp_2
*I *4135:Y O *D sky130_fd_sc_hd__o21ai_2
*CAP
1 *4568:D 4.11597e-05
2 *4135:Y 0.000186876
3 *766:10 0.000228036
4 *4568:D *4133:B1 2.64616e-05
5 *452:29 *766:10 0.000370869
6 *481:53 *766:10 0.000367707
7 *659:98 *766:10 5.50049e-05
*RES
1 *4135:Y *766:10 43.6964 
2 *766:10 *4568:D 38.6214 
*END

*D_NET *767 0.00148315
*CONN
*I *4569:D I *D sky130_fd_sc_hd__dfrtp_2
*I *4139:Y O *D sky130_fd_sc_hd__o21ai_2
*CAP
1 *4569:D 9.55744e-05
2 *4139:Y 0.000348997
3 *767:8 0.000444571
4 *4569:CLK *767:8 0
5 *309:10 *767:8 0.00059401
6 *480:31 *767:8 0
7 *765:8 *767:8 0
*RES
1 *4139:Y *767:8 46.5964 
2 *767:8 *4569:D 39.5743 
*END

*D_NET *768 0.000712663
*CONN
*I *4570:D I *D sky130_fd_sc_hd__dfrtp_2
*I *4141:Y O *D sky130_fd_sc_hd__o21ai_2
*CAP
1 *4570:D 0
2 *4141:Y 0.00023312
3 *768:10 0.00023312
4 *4143:B *768:10 0.00014411
5 *449:340 *768:10 0.000102313
6 *531:46 *768:10 0
*RES
1 *4141:Y *768:10 42.9093 
2 *768:10 *4570:D 38 
*END

*D_NET *769 0.000497763
*CONN
*I *4571:D I *D sky130_fd_sc_hd__dfrtp_2
*I *4144:Y O *D sky130_fd_sc_hd__o21ai_2
*CAP
1 *4571:D 4.01985e-05
2 *4144:Y 0.000178491
3 *769:8 0.00021869
4 *4143:B *769:8 0
5 *255:8 *769:8 6.03841e-05
6 *660:14 *769:8 0
*RES
1 *4144:Y *769:8 40.9621 
2 *769:8 *4571:D 38.6214 
*END

*D_NET *770 0.00151942
*CONN
*I *4572:D I *D sky130_fd_sc_hd__dfrtp_2
*I *4146:Y O *D sky130_fd_sc_hd__o21ai_2
*CAP
1 *4572:D 0
2 *4146:Y 0.000381486
3 *770:8 0.000381486
4 *4572:RESET_B *770:8 0
5 *531:32 *770:8 0.000166513
6 *702:27 *770:8 0.000318105
7 *720:26 *770:8 6.4393e-05
8 *720:43 *770:8 0.000207437
*RES
1 *4146:Y *770:8 48.7093 
2 *770:8 *4572:D 38 
*END

*D_NET *771 0.000416629
*CONN
*I *4554:D I *D sky130_fd_sc_hd__dfrtp_2
*I *4098:Y O *D sky130_fd_sc_hd__o21ai_2
*CAP
1 *4554:D 0
2 *4098:Y 9.88201e-05
3 *771:10 9.88201e-05
4 *4097:A *771:10 2.30292e-05
5 *282:12 *771:10 5.50106e-05
6 *697:22 *771:10 0
7 *711:23 *771:10 0.000140949
*RES
1 *4098:Y *771:10 40.5271 
2 *771:10 *4554:D 38 
*END

*D_NET *772 0.000429352
*CONN
*I *4573:D I *D sky130_fd_sc_hd__dfrtp_2
*I *4149:X O *D sky130_fd_sc_hd__or2_2
*CAP
1 *4573:D 0.000101979
2 *4149:X 0.000101979
3 *94:10 *4573:D 0.000225393
*RES
1 *4149:X *4573:D 48.5271 
*END

*D_NET *773 0.000603117
*CONN
*I *4574:D I *D sky130_fd_sc_hd__dfrtp_2
*I *4150:X O *D sky130_fd_sc_hd__a21bo_2
*CAP
1 *4574:D 0.000169352
2 *4150:X 4.62388e-05
3 *773:8 0.000215591
4 *478:10 *773:8 6.07611e-06
5 *478:54 *773:8 4.95442e-05
6 *658:20 *773:8 0.000116314
*RES
1 *4150:X *773:8 39.5536 
2 *773:8 *4574:D 40.5271 
*END

*D_NET *774 0.00088734
*CONN
*I *4555:D I *D sky130_fd_sc_hd__dfrtp_2
*I *4100:Y O *D sky130_fd_sc_hd__o21ai_2
*CAP
1 *4555:D 0
2 *4100:Y 0.000246104
3 *774:10 0.000246104
4 *4103:A2 *774:10 0.000170807
5 *478:28 *774:10 0.000168524
6 *711:29 *774:10 5.58003e-05
*RES
1 *4100:Y *774:10 43.6964 
2 *774:10 *4555:D 38 
*END

*D_NET *775 0.000442597
*CONN
*I *4556:D I *D sky130_fd_sc_hd__dfrtp_2
*I *4103:Y O *D sky130_fd_sc_hd__o21ai_2
*CAP
1 *4556:D 0.000150626
2 *4103:Y 0.000150626
3 *478:28 *4556:D 0.000141344
*RES
1 *4103:Y *4556:D 49.0036 
*END

*D_NET *776 0.000283178
*CONN
*I *4557:D I *D sky130_fd_sc_hd__dfrtp_2
*I *4106:Y O *D sky130_fd_sc_hd__o21ai_2
*CAP
1 *4557:D 1.48918e-05
2 *4106:Y 6.44249e-05
3 *776:8 7.93167e-05
4 *4557:CLK *4557:D 1.11466e-05
5 *4557:CLK *776:8 0.000113398
*RES
1 *4106:Y *776:8 39.5536 
2 *776:8 *4557:D 38.2123 
*END

*D_NET *777 0.000683809
*CONN
*I *4558:D I *D sky130_fd_sc_hd__dfrtp_2
*I *4108:Y O *D sky130_fd_sc_hd__o21ai_2
*CAP
1 *4558:D 3.70514e-05
2 *4108:Y 9.51818e-05
3 *777:10 0.000132233
4 *4105:B *4558:D 2.95526e-05
5 *4108:B1 *777:10 5.3304e-05
6 *289:10 *777:10 0.000167127
7 *711:95 *777:10 0.000169359
*RES
1 *4108:Y *777:10 40.8793 
2 *777:10 *4558:D 38.6214 
*END

*D_NET *778 0.00050568
*CONN
*I *4559:D I *D sky130_fd_sc_hd__dfrtp_2
*I *4111:Y O *D sky130_fd_sc_hd__o21ai_2
*CAP
1 *4559:D 4.01848e-05
2 *4111:Y 0.000162593
3 *778:10 0.000202778
4 *4111:A1 *778:10 5.67058e-05
5 *290:12 *778:10 4.34173e-05
6 *711:111 *778:10 0
*RES
1 *4111:Y *778:10 41.0036 
2 *778:10 *4559:D 38.6214 
*END

*D_NET *779 0.00169234
*CONN
*I *4560:D I *D sky130_fd_sc_hd__dfrtp_2
*I *4114:Y O *D sky130_fd_sc_hd__o21ai_2
*CAP
1 *4560:D 0
2 *4114:Y 0.00025146
3 *779:10 0.00025146
4 *779:10 *780:8 0.000249909
5 *4113:A *779:10 0
6 *4114:A1 *779:10 2.93845e-05
7 *4114:A2 *779:10 0.000139352
8 *4115:B *779:10 0
9 *4562:CLK *779:10 4.21352e-05
10 *293:10 *779:10 0.000410369
11 *531:95 *779:10 6.7177e-06
12 *658:36 *779:10 0.000311554
*RES
1 *4114:Y *779:10 47.2593 
2 *779:10 *4560:D 38 
*END

*D_NET *780 0.00126682
*CONN
*I *4561:D I *D sky130_fd_sc_hd__dfrtp_2
*I *4116:Y O *D sky130_fd_sc_hd__o21ai_2
*CAP
1 *4561:D 0
2 *4116:Y 0.000288804
3 *780:8 0.000288804
4 *780:8 *781:8 0.000140949
5 *4115:B *780:8 0
6 *4116:B1 *780:8 0.00010404
7 *294:10 *780:8 0.000194318
8 *531:95 *780:8 0
9 *779:10 *780:8 0.000249909
*RES
1 *4116:Y *780:8 45.8921 
2 *780:8 *4561:D 38 
*END

*D_NET *781 0.00070378
*CONN
*I *4562:D I *D sky130_fd_sc_hd__dfrtp_2
*I *4119:Y O *D sky130_fd_sc_hd__o21ai_2
*CAP
1 *4562:D 0.000117651
2 *4119:Y 5.88755e-05
3 *781:8 0.000176526
4 *4562:CLK *4562:D 4.06849e-05
5 *658:36 *4562:D 5.50106e-05
6 *658:36 *781:8 0.000114083
7 *780:8 *781:8 0.000140949
*RES
1 *4119:Y *781:8 39.9057 
2 *781:8 *4562:D 40.5271 
*END

*D_NET *782 0.00370094
*CONN
*I *4780:A I *D sky130_fd_sc_hd__dlygate4sd3_1
*I *4096:A I *D sky130_fd_sc_hd__and2_2
*I *4101:A1 I *D sky130_fd_sc_hd__o31ai_2
*I *4030:A I *D sky130_fd_sc_hd__nor2_2
*I *4031:A I *D sky130_fd_sc_hd__or4_2
*I *4553:Q O *D sky130_fd_sc_hd__dfrtp_2
*CAP
1 *4780:A 0
2 *4096:A 6.1801e-05
3 *4101:A1 0
4 *4030:A 7.86492e-05
5 *4031:A 0.000163182
6 *4553:Q 0.000302439
7 *782:29 0.000285733
8 *782:14 0.000499586
9 *782:12 0.000508413
10 *782:10 0.000619731
11 *4030:A *4030:B 0.00027408
12 *4031:A *4101:B1 4.61178e-05
13 *4031:A *797:10 3.50862e-06
14 *4096:A *793:12 0.000141954
15 *782:12 *793:8 0
16 *782:29 *4030:B 3.1326e-05
17 *4102:B *782:29 0.000104578
18 *286:8 *4030:A 8.89788e-05
19 *286:8 *782:29 0.000404318
20 *531:22 *782:10 0
21 *657:31 *782:14 0
22 *657:98 *782:10 8.65442e-05
23 *660:28 *782:10 0
24 *660:28 *782:12 0
25 *697:20 *782:10 0
26 *697:20 *782:12 0
27 *697:22 *782:12 0
28 *697:22 *782:14 0
*RES
1 *4553:Q *782:10 42.785 
2 *782:10 *782:12 5.77929 
3 *782:12 *782:14 2.25786 
4 *782:14 *4031:A 41.3143 
5 *782:14 *782:29 20.7586 
6 *782:29 *4030:A 26.0036 
7 *782:29 *4101:A1 23 
8 *782:12 *4096:A 39.5743 
9 *782:10 *4780:A 38 
*END

*D_NET *783 0.00213252
*CONN
*I *4036:A I *D sky130_fd_sc_hd__nor2_2
*I *4125:A1 I *D sky130_fd_sc_hd__o31ai_2
*I *4037:A I *D sky130_fd_sc_hd__or4_2
*I *4120:A I *D sky130_fd_sc_hd__and2_2
*I *4563:Q O *D sky130_fd_sc_hd__dfrtp_2
*CAP
1 *4036:A 4.03726e-05
2 *4125:A1 0
3 *4037:A 0
4 *4120:A 0.000169144
5 *4563:Q 0
6 *783:38 0.000127144
7 *783:32 0.000213688
8 *783:23 0.000263792
9 *783:6 0.000386764
10 *4036:A *4037:C 4.95081e-05
11 *783:23 *4037:B 0.000128401
12 *783:23 *784:24 2.64616e-05
13 *783:32 *4037:C 1.32314e-05
14 *4120:B *4120:A 5.50049e-05
15 *4123:B *783:38 0
16 *4125:A3 *783:38 5.26101e-05
17 *250:10 *4036:A 9.5877e-05
18 *250:10 *783:23 5.70419e-05
19 *250:10 *783:32 4.95081e-05
20 *250:10 *783:38 0
21 *251:8 *783:23 1.21972e-05
22 *251:10 *783:23 0
23 *297:10 *4120:A 0.000169674
24 *297:10 *783:23 0.000222104
25 *297:10 *783:38 0
*RES
1 *4563:Q *783:6 38 
2 *783:6 *4120:A 41.5836 
3 *783:6 *783:23 20.9657 
4 *783:23 *4037:A 23 
5 *783:23 *783:32 1.595 
6 *783:32 *783:38 32.2579 
7 *783:38 *4125:A1 23 
8 *783:32 *4036:A 24.595 
*END

*D_NET *784 0.00220333
*CONN
*I *4125:A2 I *D sky130_fd_sc_hd__o31ai_2
*I *4123:A I *D sky130_fd_sc_hd__xnor2_2
*I *4037:B I *D sky130_fd_sc_hd__or4_2
*I *4564:Q O *D sky130_fd_sc_hd__dfrtp_2
*CAP
1 *4125:A2 0.000292383
2 *4123:A 0
3 *4037:B 9.44549e-05
4 *4564:Q 0.000391333
5 *784:26 0.000292383
6 *784:24 0.000296878
7 *4123:B *4125:A2 0.000370742
8 *4564:RESET_B *784:24 4.48671e-05
9 *251:8 *4037:B 0.00014196
10 *251:8 *784:24 1.98182e-05
11 *297:10 *784:24 0
12 *298:8 *4125:A2 0.000103647
13 *783:23 *4037:B 0.000128401
14 *783:23 *784:24 2.64616e-05
*RES
1 *4564:Q *4037:B 49.0243 
2 *4564:Q *784:24 42.4329 
3 *784:24 *784:26 15 
4 *784:26 *4123:A 23 
5 *784:26 *4125:A2 30.3329 
*END

*D_NET *785 0.00105136
*CONN
*I *4125:B1 I *D sky130_fd_sc_hd__o31ai_2
*I *4037:C I *D sky130_fd_sc_hd__or4_2
*I *4565:Q O *D sky130_fd_sc_hd__dfrtp_2
*CAP
1 *4125:B1 0
2 *4037:C 0.000345696
3 *4565:Q 0.000115917
4 *785:8 0.000461613
5 *4036:A *4037:C 4.95081e-05
6 *4036:B *4037:C 5.50106e-05
7 *4125:A3 *4037:C 0
8 *249:41 *4037:C 0
9 *250:10 *4037:C 1.03836e-05
10 *300:12 *785:8 0
11 *783:32 *4037:C 1.32314e-05
*RES
1 *4565:Q *785:8 40.2579 
2 *785:8 *4037:C 44.4421 
3 *785:8 *4125:B1 38 
*END

*D_NET *786 0.00330269
*CONN
*I *4039:A I *D sky130_fd_sc_hd__or4_2
*I *4133:A1 I *D sky130_fd_sc_hd__o31ai_2
*I *4128:A I *D sky130_fd_sc_hd__and2_2
*I *4038:A I *D sky130_fd_sc_hd__nor2_2
*I *4566:Q O *D sky130_fd_sc_hd__dfrtp_2
*CAP
1 *4039:A 0.000116742
2 *4133:A1 0.00017704
3 *4128:A 0
4 *4038:A 0.000178891
5 *4566:Q 0
6 *786:10 0.000264985
7 *786:8 0.000492452
8 *786:4 0.000346059
9 *4039:A *4039:B 7.00164e-05
10 *4133:A1 *4039:B 5.31444e-05
11 *4133:A1 *4131:A 1.83564e-05
12 *4133:A1 *787:8 3.7122e-06
13 *4133:A1 *787:21 3.3123e-05
14 *786:8 *4039:B 0.000226933
15 *4038:B *4038:A 4.37033e-05
16 *4130:A2 *4038:A 4.21594e-06
17 *4130:A2 *4133:A1 1.62615e-05
18 *4130:A2 *786:10 6.78359e-05
19 *4568:CLK *4133:A1 9.67842e-05
20 *4568:RESET_B *4039:A 0.000221084
21 *4568:RESET_B *786:8 6.44747e-05
22 *252:10 *4038:A 0.000193388
23 *252:10 *4133:A1 0.000247678
24 *252:10 *786:10 0.000222113
25 *253:12 *4038:A 7.88926e-05
26 *253:46 *4038:A 6.48049e-05
27 *481:53 *4038:A 0
28 *702:27 *4038:A 0
*RES
1 *4566:Q *786:4 23 
2 *786:4 *786:8 19.9093 
3 *786:8 *786:10 2.96214 
4 *786:10 *4038:A 43.0336 
5 *786:10 *4128:A 38 
6 *786:8 *4133:A1 42.9093 
7 *786:4 *4039:A 26.0243 
*END

*D_NET *787 0.00354687
*CONN
*I *4133:A2 I *D sky130_fd_sc_hd__o31ai_2
*I *4131:A I *D sky130_fd_sc_hd__xnor2_2
*I *4039:B I *D sky130_fd_sc_hd__or4_2
*I *4567:Q O *D sky130_fd_sc_hd__dfrtp_2
*CAP
1 *4133:A2 4.41665e-05
2 *4131:A 0.000250854
3 *4039:B 0.000701575
4 *4567:Q 0.00017629
5 *787:21 0.000310986
6 *787:8 0.00089383
7 *4039:A *4039:B 7.00164e-05
8 *4130:A2 *4039:B 0.000114083
9 *4130:A2 *4131:A 0.000364816
10 *4130:A2 *787:21 5.46706e-05
11 *4133:A1 *4039:B 5.31444e-05
12 *4133:A1 *4131:A 1.83564e-05
13 *4133:A1 *787:8 3.7122e-06
14 *4133:A1 *787:21 3.3123e-05
15 *4568:CLK *787:8 2.35663e-05
16 *252:10 *4131:A 0.000121943
17 *303:8 *4131:A 2.64616e-05
18 *699:92 *787:8 5.83407e-05
19 *786:8 *4039:B 0.000226933
*RES
1 *4567:Q *787:8 41.0036 
2 *787:8 *4039:B 47.7979 
3 *787:8 *787:21 0.849286 
4 *787:21 *4131:A 44.4007 
5 *787:21 *4133:A2 38.6214 
*END

*D_NET *788 0.00228172
*CONN
*I *4039:C I *D sky130_fd_sc_hd__or4_2
*I *4133:B1 I *D sky130_fd_sc_hd__o31ai_2
*I *4568:Q O *D sky130_fd_sc_hd__dfrtp_2
*CAP
1 *4039:C 0
2 *4133:B1 0.000551212
3 *4568:Q 0.00038025
4 *788:23 5.42639e-05
5 *788:6 0.000985725
6 *788:23 *988:8 7.03663e-05
7 *4568:CLK *4133:B1 1.65629e-05
8 *4568:D *4133:B1 2.64616e-05
9 *4568:RESET_B *788:23 0.000141869
10 *305:10 *4133:B1 5.50106e-05
*RES
1 *4568:Q *788:6 27.4329 
2 *788:6 *4133:B1 30.2086 
3 *788:6 *788:23 31.9057 
4 *788:23 *4039:C 23 
*END

*D_NET *789 0.00295746
*CONN
*I *4137:A I *D sky130_fd_sc_hd__nand2_2
*I *4040:A I *D sky130_fd_sc_hd__or3_2
*I *4136:A I *D sky130_fd_sc_hd__nor2_2
*I *4142:A1 I *D sky130_fd_sc_hd__o31a_2
*I *4569:Q O *D sky130_fd_sc_hd__dfrtp_2
*CAP
1 *4137:A 0.000245343
2 *4040:A 0
3 *4136:A 0.000220235
4 *4142:A1 8.92106e-05
5 *4569:Q 0.000209185
6 *789:27 0.000260351
7 *789:25 0.000326974
8 *789:10 0.000339911
9 *4137:A *791:31 7.49745e-06
10 *4142:A1 *4040:B 5.97612e-05
11 *4142:A1 *4140:A 5.50106e-05
12 *4142:A1 *790:12 4.6318e-06
13 *789:10 *4040:B 6.68793e-05
14 *4136:B *4136:A 0.000154038
15 *4136:B *4137:A 6.33767e-05
16 *4137:B *4137:A 0
17 *4138:A_N *4136:A 9.91798e-05
18 *4569:RESET_B *789:10 1.39317e-05
19 *254:8 *4142:A1 0.000140958
20 *307:6 *4136:A 7.88828e-05
21 *308:8 *4136:A 0.000484551
22 *308:8 *4137:A 3.75544e-05
23 *660:12 *789:10 0
24 *699:22 *789:10 0
*RES
1 *4569:Q *789:10 41.5836 
2 *789:10 *4142:A1 40.5271 
3 *789:10 *789:25 15.6214 
4 *789:25 *789:27 0.849286 
5 *789:27 *4136:A 30.2914 
6 *789:27 *4040:A 23 
7 *789:25 *4137:A 27.9507 
*END

*D_NET *790 0.00211144
*CONN
*I *4040:B I *D sky130_fd_sc_hd__or3_2
*I *4140:A I *D sky130_fd_sc_hd__xnor2_2
*I *4142:A2 I *D sky130_fd_sc_hd__o31a_2
*I *4570:Q O *D sky130_fd_sc_hd__dfrtp_2
*CAP
1 *4040:B 0.000201359
2 *4140:A 0.000266814
3 *4142:A2 0
4 *4570:Q 0.000245584
5 *790:14 0.000266814
6 *790:12 0.000446943
7 *4040:B *791:10 0
8 *4040:B *791:31 0.000166522
9 *4140:A *791:31 2.02517e-05
10 *790:12 *791:10 0
11 *4142:A1 *4040:B 5.97612e-05
12 *4142:A1 *4140:A 5.50106e-05
13 *4142:A1 *790:12 4.6318e-06
14 *254:8 *790:12 0.000157455
15 *311:8 *4140:A 8.65442e-05
16 *449:362 *790:12 6.6869e-05
17 *699:22 *4040:B 0
18 *789:10 *4040:B 6.68793e-05
*RES
1 *4570:Q *790:12 43.8414 
2 *790:12 *790:14 15 
3 *790:14 *4142:A2 23 
4 *790:14 *4140:A 27.9507 
5 *790:12 *4040:B 41.6664 
*END

*D_NET *791 0.00282884
*CONN
*I *4040:C I *D sky130_fd_sc_hd__or3_2
*I *4142:B1 I *D sky130_fd_sc_hd__o31a_2
*I *4571:Q O *D sky130_fd_sc_hd__dfrtp_2
*CAP
1 *4040:C 0
2 *4142:B1 0
3 *4571:Q 0.000346901
4 *791:31 0.000157662
5 *791:14 0.00019999
6 *791:10 0.000389229
7 *4040:B *791:10 0
8 *4040:B *791:31 0.000166522
9 *4137:A *791:31 7.49745e-06
10 *4140:A *791:31 2.02517e-05
11 *4142:A3 *791:14 9.84794e-05
12 *4142:A3 *791:31 2.4754e-05
13 *4571:RESET_B *791:10 5.50106e-05
14 *4572:RESET_B *791:10 1.01436e-05
15 *308:8 *791:31 1.51028e-05
16 *449:362 *791:10 7.75329e-06
17 *451:8 *791:10 0.000536721
18 *699:22 *791:10 0.000450424
19 *699:22 *791:31 0
20 *699:24 *791:10 0.000238464
21 *699:26 *791:10 0.00010394
22 *790:12 *791:10 0
*RES
1 *4571:Q *791:10 49.3307 
2 *791:10 *791:14 16.0979 
3 *791:14 *4142:B1 23 
4 *791:14 *791:31 33.5525 
5 *791:31 *4040:C 23 
*END

*D_NET *792 0.00299993
*CONN
*I *4145:A I *D sky130_fd_sc_hd__xnor2_2
*I *4042:A I *D sky130_fd_sc_hd__or4_2
*I *4147:A1 I *D sky130_fd_sc_hd__o31a_2
*I *4572:Q O *D sky130_fd_sc_hd__dfrtp_2
*CAP
1 *4145:A 0.000228835
2 *4042:A 0.000413419
3 *4147:A1 2.0995e-05
4 *4572:Q 0
5 *792:12 0.000636478
6 *792:6 0.000430899
7 *4042:D *4042:A 0.000108568
8 *4144:A1 *4145:A 9.67842e-05
9 *4145:B *4145:A 5.50106e-05
10 *4147:A2 *4042:A 0.000283668
11 *4147:A2 *4147:A1 1.14154e-05
12 *254:8 *4145:A 0.000211578
13 *254:14 *4042:A 1.22822e-05
14 *254:14 *4145:A 3.31127e-05
15 *254:14 *792:12 0.000128079
16 *314:10 *792:12 2.65879e-05
17 *659:37 *4145:A 1.01436e-05
18 *660:14 *4145:A 0.000233983
19 *660:14 *792:12 5.80963e-05
*RES
1 *4572:Q *792:6 38 
2 *792:6 *792:12 19.5571 
3 *792:12 *4147:A1 23.4971 
4 *792:12 *4042:A 31.265 
5 *792:6 *4145:A 45.5814 
*END

*D_NET *793 0.00428429
*CONN
*I *4096:B I *D sky130_fd_sc_hd__and2_2
*I *4101:A2 I *D sky130_fd_sc_hd__o31ai_2
*I *4030:B I *D sky130_fd_sc_hd__nor2_2
*I *4031:B I *D sky130_fd_sc_hd__or4_2
*I *4554:Q O *D sky130_fd_sc_hd__dfrtp_2
*CAP
1 *4096:B 0
2 *4101:A2 0
3 *4030:B 0.00018642
4 *4031:B 0.000331963
5 *4554:Q 0.000112331
6 *793:31 0.00018642
7 *793:18 0.000516235
8 *793:12 0.000324084
9 *793:8 0.000252143
10 *4031:B *796:22 0.000191878
11 *793:18 *796:22 1.13812e-05
12 *4030:A *4030:B 0.00027408
13 *4096:A *793:12 0.000141954
14 *4097:A *4031:B 6.12484e-05
15 *4097:A *793:18 0.000179304
16 *4098:B1 *793:12 0.000441978
17 *4098:B1 *793:18 0.000140259
18 *4099:B *4031:B 0.000162254
19 *244:8 *4030:B 0.000360958
20 *286:8 *4030:B 2.19667e-05
21 *657:10 *793:8 0
22 *657:31 *793:8 3.47781e-05
23 *697:22 *4031:B 2.07509e-05
24 *697:22 *793:18 7.23468e-05
25 *711:23 *793:18 0
26 *711:27 *793:18 0
27 *711:55 *4031:B 0.000228233
28 *782:12 *793:8 0
29 *782:29 *4030:B 3.1326e-05
*RES
1 *4554:Q *793:8 39.9057 
2 *793:8 *793:12 19.9093 
3 *793:12 *793:18 19.8886 
4 *793:18 *4031:B 44.1936 
5 *793:18 *793:31 15 
6 *793:31 *4030:B 28.9036 
7 *793:31 *4101:A2 23 
8 *793:12 *4096:B 23 
*END

*D_NET *794 0.000785778
*CONN
*I *4821:A I *D sky130_fd_sc_hd__dlygate4sd3_1
*I *4042:B I *D sky130_fd_sc_hd__or4_2
*I *4573:Q O *D sky130_fd_sc_hd__dfrtp_2
*CAP
1 *4821:A 0.000110536
2 *4042:B 0
3 *4573:Q 3.98703e-05
4 *794:12 9.22307e-05
5 *794:6 0.000242637
6 *94:10 *4821:A 0.000119313
7 *94:10 *794:6 7.82468e-05
8 *256:8 *794:12 4.59027e-05
9 *531:32 *794:12 0
10 *626:10 *794:6 5.70419e-05
*RES
1 *4573:Q *794:6 24.5743 
2 *794:6 *794:12 31.9057 
3 *794:12 *4042:B 23 
4 *794:6 *4821:A 25.5271 
*END

*D_NET *795 0.00237874
*CONN
*I *3845:A I *D sky130_fd_sc_hd__inv_2
*I *4043:A I *D sky130_fd_sc_hd__nor2_2
*I *4792:A I *D sky130_fd_sc_hd__dlygate4sd3_1
*I *4574:Q O *D sky130_fd_sc_hd__dfrtp_2
*CAP
1 *3845:A 0.000298816
2 *4043:A 0.000244745
3 *4792:A 0
4 *4574:Q 0.000295355
5 *795:19 0.000575418
6 *795:10 0.000327212
7 *4043:B *4043:A 5.67058e-05
8 *4114:B1 *3845:A 0.000233453
9 *4114:B1 *4043:A 0.000195248
10 *256:8 *3845:A 0
11 *293:10 *3845:A 0
12 *479:23 *795:10 9.84794e-05
13 *479:23 *795:19 5.3304e-05
14 *479:27 *4043:A 0
15 *531:95 *3845:A 0
*RES
1 *4574:Q *795:10 28.075 
2 *795:10 *4792:A 23 
3 *795:10 *795:19 15.6214 
4 *795:19 *4043:A 43.1371 
5 *795:19 *3845:A 43.7793 
*END

*D_NET *796 0.00173175
*CONN
*I *4031:C I *D sky130_fd_sc_hd__or4_2
*I *4099:A I *D sky130_fd_sc_hd__xnor2_2
*I *4101:A3 I *D sky130_fd_sc_hd__o31ai_2
*I *4555:Q O *D sky130_fd_sc_hd__dfrtp_2
*CAP
1 *4031:C 0
2 *4099:A 0
3 *4101:A3 0
4 *4555:Q 0.000267584
5 *796:22 7.97388e-05
6 *796:16 0.000174165
7 *796:12 9.44263e-05
8 *796:10 0.000267584
9 *796:10 *797:10 0.000132638
10 *4031:B *796:22 0.000191878
11 *4555:RESET_B *796:10 3.19287e-05
12 *657:31 *796:16 0.000125707
13 *697:22 *796:10 3.40838e-05
14 *697:22 *796:22 9.37325e-05
15 *711:55 *796:16 0.000226899
16 *793:18 *796:22 1.13812e-05
*RES
1 *4555:Q *796:10 43.3443 
2 *796:10 *796:12 15 
3 *796:12 *796:16 3.02429 
4 *796:16 *796:22 32.61 
5 *796:22 *4101:A3 23 
6 *796:16 *4099:A 23 
7 *796:12 *4031:C 23 
*END

*D_NET *797 0.00131621
*CONN
*I *4101:B1 I *D sky130_fd_sc_hd__o31ai_2
*I *4031:D I *D sky130_fd_sc_hd__or4_2
*I *4556:Q O *D sky130_fd_sc_hd__dfrtp_2
*CAP
1 *4101:B1 7.90216e-05
2 *4031:D 0
3 *4556:Q 0.000397934
4 *797:10 0.000476956
5 *4031:A *4101:B1 4.61178e-05
6 *4031:A *797:10 3.50862e-06
7 *4557:RESET_B *797:10 3.27252e-05
8 *697:22 *4101:B1 7.39923e-05
9 *697:22 *797:10 7.33172e-05
10 *796:10 *797:10 0.000132638
*RES
1 *4556:Q *797:10 44.2143 
2 *797:10 *4031:D 38 
3 *797:10 *4101:B1 40.2579 
*END

*D_NET *798 0.00471759
*CONN
*I *4033:A I *D sky130_fd_sc_hd__or4_2
*I *4109:A1 I *D sky130_fd_sc_hd__o31ai_2
*I *4032:A I *D sky130_fd_sc_hd__nor2_2
*I *4104:A I *D sky130_fd_sc_hd__and2_2
*I *4557:Q O *D sky130_fd_sc_hd__dfrtp_2
*CAP
1 *4033:A 0.000293716
2 *4109:A1 2.93548e-05
3 *4032:A 0
4 *4104:A 0.000287115
5 *4557:Q 0.000125597
6 *798:40 0.00035547
7 *798:33 0.00057266
8 *798:21 0.000685075
9 *798:8 0.000492728
10 *4033:A *4033:B 6.3195e-05
11 *4033:A *4033:C 5.82853e-05
12 *4033:A *799:6 1.59094e-05
13 *4109:A1 *4107:A 5.5792e-05
14 *798:33 *4107:A 0.000279219
15 *4033:D *4033:A 0.000145171
16 *4106:A1 *798:33 0.000102971
17 *4107:B *798:33 0.000171093
18 *245:27 *4104:A 0.000450127
19 *245:27 *798:21 2.56091e-05
20 *246:8 *798:33 0.000102971
21 *290:12 *4033:A 0.000193873
22 *290:12 *798:21 1.0092e-05
23 *290:12 *798:40 5.91105e-05
24 *711:95 *798:33 0.000142454
*RES
1 *4557:Q *798:8 39.5743 
2 *798:8 *4104:A 45.6229 
3 *798:8 *798:21 1.55357 
4 *798:21 *798:33 27.8636 
5 *798:33 *4032:A 23 
6 *798:21 *798:40 0.849286 
7 *798:40 *4109:A1 38.6214 
8 *798:40 *4033:A 45.0429 
*END

*D_NET *799 0.00187528
*CONN
*I *4033:B I *D sky130_fd_sc_hd__or4_2
*I *4109:A2 I *D sky130_fd_sc_hd__o31ai_2
*I *4107:A I *D sky130_fd_sc_hd__xnor2_2
*I *4558:Q O *D sky130_fd_sc_hd__dfrtp_2
*CAP
1 *4033:B 0.000131473
2 *4109:A2 0
3 *4107:A 0.000182149
4 *4558:Q 5.67095e-05
5 *799:12 0.000291117
6 *799:6 0.00029715
7 *4033:A *4033:B 6.3195e-05
8 *4033:A *799:6 1.59094e-05
9 *4033:D *799:12 0.000159425
10 *4109:A1 *4107:A 5.5792e-05
11 *245:27 *799:12 1.13812e-05
12 *290:8 *4107:A 5.58003e-05
13 *290:12 *799:12 0.000275961
14 *798:33 *4107:A 0.000279219
*RES
1 *4558:Q *799:6 23.6214 
2 *799:6 *799:12 33.6664 
3 *799:12 *4107:A 27.9507 
4 *799:12 *4109:A2 23 
5 *799:6 *4033:B 25.0507 
*END

*D_NET *800 0.00138068
*CONN
*I *4033:C I *D sky130_fd_sc_hd__or4_2
*I *4109:B1 I *D sky130_fd_sc_hd__o31ai_2
*I *4559:Q O *D sky130_fd_sc_hd__dfrtp_2
*CAP
1 *4033:C 0.000178019
2 *4109:B1 0.000373652
3 *4559:Q 0.000109527
4 *800:8 0.000661199
5 *4033:A *4033:C 5.82853e-05
6 *247:8 *800:8 0
*RES
1 *4559:Q *800:8 39.9057 
2 *800:8 *4109:B1 44.5664 
3 *800:8 *4033:C 41.48 
*END

*D_NET *801 0.00393023
*CONN
*I *4034:A I *D sky130_fd_sc_hd__nor2_2
*I *4117:A1 I *D sky130_fd_sc_hd__o31ai_2
*I *4035:A I *D sky130_fd_sc_hd__or4_2
*I *4112:A I *D sky130_fd_sc_hd__and2_2
*I *4560:Q O *D sky130_fd_sc_hd__dfrtp_2
*CAP
1 *4034:A 0.000165975
2 *4117:A1 0
3 *4035:A 0.000212019
4 *4112:A 0.000139285
5 *4560:Q 0
6 *801:38 0.000492393
7 *801:19 0.000829481
8 *801:6 0.000264355
9 *801:4 0.000165975
10 *4035:A *4035:C 2.30292e-05
11 *801:38 *4035:C 0
12 *801:38 *4117:A2 2.45899e-05
13 *801:38 *4117:B1 0
14 *4035:D *4035:A 4.2573e-05
15 *4112:B *4112:A 0.00010018
16 *4113:A *4112:A 0
17 *4113:A *801:19 0
18 *4115:B *801:19 0
19 *4115:B *801:38 0
20 *4559:RESET_B *801:19 1.22803e-05
21 *4560:RESET_B *4034:A 2.02872e-05
22 *247:31 *4034:A 9.5877e-05
23 *247:31 *4112:A 0.000195248
24 *247:31 *801:19 3.70187e-05
25 *247:45 *4035:A 0.000137651
26 *247:45 *801:38 0.000674154
27 *295:8 *801:38 8.41115e-05
28 *698:23 *801:38 0.000121273
29 *698:25 *801:19 5.97612e-05
30 *698:25 *801:38 2.71291e-05
31 *702:46 *801:38 5.58152e-06
*RES
1 *4560:Q *801:4 23 
2 *801:4 *801:6 15 
3 *801:6 *4112:A 41.7079 
4 *801:6 *801:19 2.61 
5 *801:19 *4035:A 41.9771 
6 *801:19 *801:38 27.6771 
7 *801:38 *4117:A1 23 
8 *801:4 *4034:A 26.0243 
*END

*D_NET *802 0.00203532
*CONN
*I *4035:B I *D sky130_fd_sc_hd__or4_2
*I *4117:A2 I *D sky130_fd_sc_hd__o31ai_2
*I *4115:A I *D sky130_fd_sc_hd__xnor2_2
*I *4561:Q O *D sky130_fd_sc_hd__dfrtp_2
*CAP
1 *4035:B 0.000121164
2 *4117:A2 0.000191556
3 *4115:A 2.95294e-05
4 *4561:Q 0
5 *802:10 0.000519612
6 *802:4 0.00041969
7 *4035:D *4035:B 1.94812e-05
8 *4115:B *802:10 0
9 *4561:RESET_B *4035:B 2.18409e-05
10 *4561:RESET_B *802:10 7.28721e-05
11 *247:45 *4035:B 1.21972e-05
12 *247:45 *4117:A2 0.000192087
13 *247:45 *802:10 0.000355699
14 *296:8 *4115:A 5.50049e-05
15 *801:38 *4117:A2 2.45899e-05
*RES
1 *4561:Q *802:4 23 
2 *802:4 *802:10 21.2971 
3 *802:10 *4115:A 38.6214 
4 *802:10 *4117:A2 42.0807 
5 *802:4 *4035:B 24.5743 
*END

*D_NET *803 0.00152236
*CONN
*I *4117:B1 I *D sky130_fd_sc_hd__o31ai_2
*I *4035:C I *D sky130_fd_sc_hd__or4_2
*I *4562:Q O *D sky130_fd_sc_hd__dfrtp_2
*CAP
1 *4117:B1 0.000389234
2 *4035:C 0.000199899
3 *4562:Q 0
4 *803:6 0.000589133
5 *4035:A *4035:C 2.30292e-05
6 *249:8 *4035:C 0.000113624
7 *249:8 *4117:B1 7.03766e-05
8 *249:17 *4117:B1 0.000137061
9 *295:8 *4117:B1 0
10 *698:23 *4035:C 0
11 *801:38 *4035:C 0
12 *801:38 *4117:B1 0
*RES
1 *4562:Q *803:6 38 
2 *803:6 *4035:C 42.4329 
3 *803:6 *4117:B1 45.9543 
*END

*D_NET *804 0.000751557
*CONN
*I *4598:A I *D sky130_fd_sc_hd__buf_2
*I *4029:Y O *D sky130_fd_sc_hd__inv_2
*CAP
1 *4598:A 0
2 *4029:Y 0.000183438
3 *804:8 0.000183438
4 *542:8 *804:8 8.78864e-05
5 *564:30 *804:8 1.39826e-05
6 *564:38 *804:8 0.000222802
7 *656:8 *804:8 6.00097e-05
*RES
1 *4029:Y *804:8 43.075 
2 *804:8 *4598:A 38 
*END

*D_NET *805 0.00153112
*CONN
*I *4531:D I *D sky130_fd_sc_hd__dfrtp_2
*I *4152:Y O *D sky130_fd_sc_hd__o21ai_2
*CAP
1 *4531:D 0
2 *4152:Y 0.000368473
3 *805:10 0.000368473
4 *805:10 *4153:B 0.000446281
5 *805:10 *838:8 5.21127e-05
6 *4532:RESET_B *805:10 5.31444e-05
7 *4552:RESET_B *805:10 1.37349e-05
8 *4660:A *805:10 0
9 *553:10 *805:10 0
10 *564:110 *805:10 0.000228903
11 *696:16 *805:10 0
*RES
1 *4152:Y *805:10 47.6321 
2 *805:10 *4531:D 38 
*END

*D_NET *806 0.000329553
*CONN
*I *4541:D I *D sky130_fd_sc_hd__dfrtp_2
*I *4179:Y O *D sky130_fd_sc_hd__o21ai_2
*CAP
1 *4541:D 3.92478e-05
2 *4179:Y 8.59359e-05
3 *806:8 0.000125184
4 *4541:D *828:6 1.24298e-05
5 *652:56 *806:8 6.67555e-05
*RES
1 *4179:Y *806:8 39.9057 
2 *806:8 *4541:D 38.6214 
*END

*D_NET *807 0.00109581
*CONN
*I *4542:D I *D sky130_fd_sc_hd__dfrtp_2
*I *4181:Y O *D sky130_fd_sc_hd__o21ai_2
*CAP
1 *4542:D 0.00015575
2 *4181:Y 0.000206029
3 *807:8 0.000361779
4 *234:40 *4542:D 0.000170182
5 *334:10 *807:8 0.000101032
6 *542:35 *807:8 0.000101032
*RES
1 *4181:Y *807:8 43.075 
2 *807:8 *4542:D 41.48 
*END

*D_NET *808 0.000908678
*CONN
*I *4543:D I *D sky130_fd_sc_hd__dfrtp_2
*I *4184:Y O *D sky130_fd_sc_hd__o21ai_2
*CAP
1 *4543:D 0
2 *4184:Y 0.000267597
3 *808:10 0.000267597
4 *234:62 *808:10 0
5 *473:24 *808:10 0
6 *542:43 *808:10 4.96717e-05
7 *652:56 *808:10 0.000323812
*RES
1 *4184:Y *808:10 43.4686 
2 *808:10 *4543:D 38 
*END

*D_NET *809 0.00137878
*CONN
*I *4544:D I *D sky130_fd_sc_hd__dfrtp_2
*I *4187:Y O *D sky130_fd_sc_hd__o21ai_2
*CAP
1 *4544:D 0.000156163
2 *4187:Y 0.000342183
3 *809:10 0.000498346
4 *4544:D *831:10 6.17437e-06
5 *809:10 *832:10 0.000167113
6 *4187:A2 *809:10 8.15864e-05
7 *4544:RESET_B *4544:D 0.00012721
*RES
1 *4187:Y *809:10 45.0014 
2 *809:10 *4544:D 41.48 
*END

*D_NET *810 0.001542
*CONN
*I *4545:D I *D sky130_fd_sc_hd__dfrtp_2
*I *4189:Y O *D sky130_fd_sc_hd__o21ai_2
*CAP
1 *4545:D 7.84406e-05
2 *4189:Y 0.000323864
3 *810:10 0.000402305
4 *4545:CLK *4545:D 0.000102093
5 *4545:CLK *810:10 0.000167522
6 *236:10 *810:10 0.000140927
7 *474:31 *810:10 0.000168515
8 *564:61 *810:10 3.52031e-05
9 *652:79 *4545:D 0.000123129
*RES
1 *4189:Y *810:10 45.0014 
2 *810:10 *4545:D 40.5271 
*END

*D_NET *811 0.000499663
*CONN
*I *4546:D I *D sky130_fd_sc_hd__dfrtp_2
*I *4192:Y O *D sky130_fd_sc_hd__o21ai_2
*CAP
1 *4546:D 0
2 *4192:Y 0.000197605
3 *811:10 0.000197605
4 *341:8 *811:10 4.77393e-05
5 *474:25 *811:10 5.32058e-05
6 *474:31 *811:10 3.50862e-06
*RES
1 *4192:Y *811:10 41.8321 
2 *811:10 *4546:D 38 
*END

*D_NET *812 0.000453713
*CONN
*I *4547:D I *D sky130_fd_sc_hd__dfrtp_2
*I *4196:Y O *D sky130_fd_sc_hd__o21ai_2
*CAP
1 *4547:D 0
2 *4196:Y 0.000137752
3 *812:8 0.000137752
4 *812:8 *834:23 2.29192e-05
5 *812:8 *834:27 1.4471e-05
6 *4196:A1 *812:8 2.33476e-05
7 *344:14 *812:8 6.10781e-05
8 *474:82 *812:8 5.6393e-05
9 *696:81 *812:8 0
*RES
1 *4196:Y *812:8 40.9621 
2 *812:8 *4547:D 38 
*END

*D_NET *813 0.000636878
*CONN
*I *4548:D I *D sky130_fd_sc_hd__dfrtp_2
*I *4199:Y O *D sky130_fd_sc_hd__o21ai_2
*CAP
1 *4548:D 0.000112892
2 *4199:Y 0.000112892
3 *4195:B *4548:D 0.000229653
4 *344:6 *4548:D 4.05142e-05
5 *473:88 *4548:D 0.000140927
*RES
1 *4199:Y *4548:D 49.6457 
*END

*D_NET *814 0.000522521
*CONN
*I *4549:D I *D sky130_fd_sc_hd__dfrtp_2
*I *4201:Y O *D sky130_fd_sc_hd__o21ai_2
*CAP
1 *4549:D 0.000121208
2 *4201:Y 9.74854e-05
3 *814:8 0.000218694
4 *464:31 *814:8 8.51329e-05
*RES
1 *4201:Y *814:8 40.2579 
2 *814:8 *4549:D 40.0507 
*END

*D_NET *815 0.00121953
*CONN
*I *4550:D I *D sky130_fd_sc_hd__dfrtp_2
*I *4203:Y O *D sky130_fd_sc_hd__o21ai_2
*CAP
1 *4550:D 4.50142e-05
2 *4203:Y 0.000391409
3 *815:12 0.000436423
4 *243:12 *815:12 1.73041e-05
5 *348:8 *815:12 0.000138727
6 *348:22 *815:12 9.41704e-05
7 *464:10 *815:12 9.03054e-05
8 *564:10 *815:12 6.17437e-06
*RES
1 *4203:Y *815:12 44.9186 
2 *815:12 *4550:D 38.6214 
*END

*D_NET *816 0.00121958
*CONN
*I *4532:D I *D sky130_fd_sc_hd__dfrtp_2
*I *4155:Y O *D sky130_fd_sc_hd__o21ai_2
*CAP
1 *4532:D 0
2 *4155:Y 0.000330195
3 *816:10 0.000330195
4 *816:10 *4158:A1 0.000114074
5 *816:10 *827:10 0.000224345
6 *816:10 *827:12 0.000141879
7 *4155:A2 *816:10 7.88926e-05
8 *229:27 *816:10 0
9 *553:10 *816:10 0
10 *553:16 *816:10 0
*RES
1 *4155:Y *816:10 45.7057 
2 *816:10 *4532:D 38 
*END

*D_NET *817 0.00163406
*CONN
*I *4551:D I *D sky130_fd_sc_hd__dfrtp_2
*I *4205:Y O *D sky130_fd_sc_hd__o211ai_2
*CAP
1 *4551:D 0.000177531
2 *4205:Y 0.00025616
3 *817:8 0.000433691
4 *4551:D *840:8 6.17437e-06
5 *817:8 *4791:A 6.48142e-05
6 *817:8 *840:12 0.000459657
7 *242:18 *817:8 1.14452e-05
8 *464:10 *817:8 0
9 *475:27 *4551:D 2.93431e-05
10 *475:27 *817:8 0.000195248
*RES
1 *4205:Y *817:8 44.8357 
2 *817:8 *4551:D 40.5271 
*END

*D_NET *818 0.0013361
*CONN
*I *4552:D I *D sky130_fd_sc_hd__dfrtp_2
*I *4206:X O *D sky130_fd_sc_hd__a21bo_2
*CAP
1 *4552:D 0.000119016
2 *4206:X 0.000137741
3 *818:8 0.000256757
4 *4532:RESET_B *818:8 5.31444e-05
5 *4552:RESET_B *4552:D 4.36616e-05
6 *4552:RESET_B *818:8 4.18032e-05
7 *475:8 *818:8 6.25829e-05
8 *475:12 *818:8 0.000139647
9 *475:43 *4552:D 9.91701e-05
10 *696:16 *818:8 0.000382574
*RES
1 *4206:X *818:8 43.075 
2 *818:8 *4552:D 40.5271 
*END

*D_NET *819 0.000818022
*CONN
*I *4533:D I *D sky130_fd_sc_hd__dfrtp_2
*I *4157:Y O *D sky130_fd_sc_hd__o21ai_2
*CAP
1 *4533:D 3.08984e-05
2 *4157:Y 0.000214194
3 *819:8 0.000245092
4 *4160:A2 *4533:D 0.000141954
5 *319:10 *819:8 0.000107
6 *473:16 *4533:D 7.88828e-05
7 *473:22 *819:8 0
8 *473:24 *819:8 0
*RES
1 *4157:Y *819:8 42.3707 
2 *819:8 *4533:D 39.5743 
*END

*D_NET *820 0.000822805
*CONN
*I *4534:D I *D sky130_fd_sc_hd__dfrtp_2
*I *4160:Y O *D sky130_fd_sc_hd__o21ai_2
*CAP
1 *4534:D 0.000276676
2 *4160:Y 0.000107221
3 *820:8 0.000383897
4 *4157:B1 *820:8 0
5 *4534:CLK *4534:D 5.50106e-05
6 *230:47 *820:8 0
7 *232:8 *820:8 0
*RES
1 *4160:Y *820:8 39.9057 
2 *820:8 *4534:D 42.4329 
*END

*D_NET *821 0.00058637
*CONN
*I *4535:D I *D sky130_fd_sc_hd__dfrtp_2
*I *4163:Y O *D sky130_fd_sc_hd__o21ai_2
*CAP
1 *4535:D 0
2 *4163:Y 0.000151089
3 *821:10 0.000151089
4 *4163:B1 *821:10 5.50049e-05
5 *4165:B1 *821:10 0.000133316
6 *324:10 *821:10 0
7 *553:67 *821:10 9.58714e-05
*RES
1 *4163:Y *821:10 41.0036 
2 *821:10 *4535:D 38 
*END

*D_NET *822 0.00103327
*CONN
*I *4536:D I *D sky130_fd_sc_hd__dfrtp_2
*I *4165:Y O *D sky130_fd_sc_hd__o21ai_2
*CAP
1 *4536:D 0
2 *4165:Y 0.000370157
3 *822:10 0.000370157
4 *822:10 *843:52 0.000107
5 *4535:RESET_B *822:10 4.6595e-05
6 *324:10 *822:10 0
7 *679:83 *822:10 0.000139357
*RES
1 *4165:Y *822:10 44.8979 
2 *822:10 *4536:D 38 
*END

*D_NET *823 0.00086245
*CONN
*I *4537:D I *D sky130_fd_sc_hd__dfrtp_2
*I *4168:Y O *D sky130_fd_sc_hd__o21ai_2
*CAP
1 *4537:D 0.000223684
2 *4168:Y 8.71758e-05
3 *823:8 0.00031086
4 *4168:A1 *823:8 0
5 *4537:CLK *4537:D 7.44354e-05
6 *493:12 *823:8 4.59027e-05
7 *542:43 *4537:D 0.000120393
*RES
1 *4168:Y *823:8 39.9057 
2 *823:8 *4537:D 42.4329 
*END

*D_NET *824 0.000414477
*CONN
*I *4538:D I *D sky130_fd_sc_hd__dfrtp_2
*I *4171:Y O *D sky130_fd_sc_hd__o21ai_2
*CAP
1 *4538:D 0
2 *4171:Y 5.76073e-05
3 *824:8 5.76073e-05
4 *4176:A1 *824:8 0.000140036
5 *4176:B1 *824:8 1.0092e-05
6 *652:10 *824:8 1.13812e-05
7 *652:12 *824:8 0.000137754
*RES
1 *4171:Y *824:8 39.9057 
2 *824:8 *4538:D 38 
*END

*D_NET *825 0.00105212
*CONN
*I *4539:D I *D sky130_fd_sc_hd__dfrtp_2
*I *4173:Y O *D sky130_fd_sc_hd__o21ai_2
*CAP
1 *4539:D 0.000182969
2 *4173:Y 0.000235153
3 *825:8 0.000418122
4 *4173:A1 *825:8 0
5 *493:14 *825:8 2.70366e-05
6 *493:16 *825:8 0.00018884
7 *542:45 *825:8 0
*RES
1 *4173:Y *825:8 43.7793 
2 *825:8 *4539:D 40.5271 
*END

*D_NET *826 0.00043881
*CONN
*I *4540:D I *D sky130_fd_sc_hd__dfrtp_2
*I *4176:Y O *D sky130_fd_sc_hd__o21ai_2
*CAP
1 *4540:D 4.04151e-05
2 *4176:Y 0.00017899
3 *826:10 0.000219405
*RES
1 *4176:Y *826:10 41.0036 
2 *826:10 *4540:D 38.6214 
*END

*D_NET *827 0.00464252
*CONN
*I *4153:A I *D sky130_fd_sc_hd__and2_2
*I *4777:A I *D sky130_fd_sc_hd__dlygate4sd3_1
*I *4015:A I *D sky130_fd_sc_hd__or4_2
*I *4014:A I *D sky130_fd_sc_hd__nor2_2
*I *4158:A1 I *D sky130_fd_sc_hd__o31ai_2
*I *4531:Q O *D sky130_fd_sc_hd__dfrtp_2
*CAP
1 *4153:A 0
2 *4777:A 0
3 *4015:A 0.000101634
4 *4014:A 0
5 *4158:A1 0.000240726
6 *4531:Q 0.000244568
7 *827:55 0.000278293
8 *827:33 0.00016104
9 *827:27 0.000703949
10 *827:12 0.000655343
11 *827:10 0.000292935
12 *4015:A *4014:B 1.32314e-05
13 *4015:A *4015:C 0.000183733
14 *4015:A *838:21 1.41129e-05
15 *827:33 *4014:B 3.61695e-05
16 *827:55 *4153:B 0.000120857
17 *827:55 *838:12 0
18 *4152:A1 *827:55 5.50106e-05
19 *4152:B1 *827:55 0.000111852
20 *4155:B1 *827:27 2.18409e-05
21 *229:6 *827:27 9.84851e-05
22 *229:16 *827:27 0.000308946
23 *229:27 *4158:A1 0
24 *230:27 *4158:A1 0.000103647
25 *318:12 *4158:A1 6.16531e-05
26 *318:12 *827:12 0.000102638
27 *473:68 *4158:A1 0.000118786
28 *473:68 *827:10 0.000107548
29 *473:68 *827:12 1.37349e-05
30 *553:10 *827:10 0
31 *564:110 *827:55 1.14876e-05
32 *816:10 *4158:A1 0.000114074
33 *816:10 *827:10 0.000224345
34 *816:10 *827:12 0.000141879
*RES
1 *4531:Q *827:10 43.6964 
2 *827:10 *827:12 1.90571 
3 *827:12 *4158:A1 44.0693 
4 *827:12 *827:27 20.3857 
5 *827:27 *827:33 1.61571 
6 *827:33 *4014:A 23 
7 *827:33 *4015:A 25.5271 
8 *827:27 *827:55 35.5307 
9 *827:55 *4777:A 23 
10 *827:10 *4153:A 38 
*END

*D_NET *828 0.00489853
*CONN
*I *4021:A I *D sky130_fd_sc_hd__or4_2
*I *4182:A1 I *D sky130_fd_sc_hd__o31ai_2
*I *4177:A I *D sky130_fd_sc_hd__and2_2
*I *4020:A I *D sky130_fd_sc_hd__nor2_2
*I *4541:Q O *D sky130_fd_sc_hd__dfrtp_2
*CAP
1 *4021:A 0
2 *4182:A1 0.000412751
3 *4177:A 0
4 *4020:A 5.06723e-05
5 *4541:Q 0
6 *828:43 0.000317322
7 *828:17 0.00055977
8 *828:6 0.00101503
9 *828:4 0.00113466
10 *828:43 *830:10 1.97402e-05
11 *4020:B *4020:A 1.12796e-05
12 *4020:B *828:6 1.09834e-05
13 *4541:CLK *828:6 2.64616e-05
14 *4541:CLK *828:17 0.000165394
15 *4541:D *828:6 1.24298e-05
16 *4541:RESET_B *828:6 1.85944e-05
17 *4544:RESET_B *828:6 3.00511e-05
18 *4544:RESET_B *828:43 6.59001e-05
19 *232:16 *4182:A1 0
20 *234:62 *4182:A1 0.000268074
21 *235:8 *828:17 0.00015473
22 *473:24 *4182:A1 0.000186025
23 *473:26 *4182:A1 0.000254872
24 *473:26 *828:17 0.000183781
*RES
1 *4541:Q *828:4 23 
2 *828:4 *828:6 10.15 
3 *828:6 *4020:A 24.2014 
4 *828:6 *828:17 19.7229 
5 *828:17 *4177:A 38 
6 *828:17 *4182:A1 47.7357 
7 *828:4 *828:43 35.2614 
8 *828:43 *4021:A 23 
*END

*D_NET *829 0.0023194
*CONN
*I *4182:A2 I *D sky130_fd_sc_hd__o31ai_2
*I *4180:A I *D sky130_fd_sc_hd__xnor2_2
*I *4021:B I *D sky130_fd_sc_hd__or4_2
*I *4542:Q O *D sky130_fd_sc_hd__dfrtp_2
*CAP
1 *4182:A2 0.000318377
2 *4180:A 0.000102923
3 *4021:B 7.14179e-05
4 *4542:Q 0.000454673
5 *829:22 0.000804556
6 *4182:A2 *830:28 5.56203e-05
7 *4178:A *4180:A 5.5792e-05
8 *234:40 *4021:B 2.53095e-05
9 *234:40 *829:22 0.000117875
10 *234:62 *4182:A2 4.37033e-05
11 *332:8 *4180:A 7.50355e-05
12 *334:10 *829:22 8.57577e-05
13 *542:35 *4182:A2 0
14 *693:16 *4182:A2 6.02277e-06
15 *693:18 *4182:A2 8.44064e-05
16 *693:18 *829:22 1.79317e-05
*RES
1 *4542:Q *4021:B 47.0979 
2 *4542:Q *829:22 43.7379 
3 *829:22 *4180:A 40.5479 
4 *829:22 *4182:A2 45.1464 
*END

*D_NET *830 0.00148924
*CONN
*I *4182:B1 I *D sky130_fd_sc_hd__o31ai_2
*I *4021:C I *D sky130_fd_sc_hd__or4_2
*I *4543:Q O *D sky130_fd_sc_hd__dfrtp_2
*CAP
1 *4182:B1 0
2 *4021:C 0
3 *4543:Q 0.000649896
4 *830:28 0.000286258
5 *830:10 0.000363638
6 *4182:A2 *830:28 5.56203e-05
7 *655:54 *830:10 0
8 *693:16 *830:28 0.000114083
9 *693:18 *830:10 0
10 *828:43 *830:10 1.97402e-05
*RES
1 *4543:Q *830:10 44.1729 
2 *830:10 *4021:C 38 
3 *4543:Q *830:28 42.5571 
4 *830:28 *4182:B1 38 
*END

*D_NET *831 0.00459461
*CONN
*I *4022:A I *D sky130_fd_sc_hd__nor2_2
*I *4185:A I *D sky130_fd_sc_hd__and2_2
*I *4024:A I *D sky130_fd_sc_hd__or3_2
*I *4026:A I *D sky130_fd_sc_hd__or4_2
*I *4190:A1 I *D sky130_fd_sc_hd__o31ai_2
*I *4544:Q O *D sky130_fd_sc_hd__dfrtp_2
*CAP
1 *4022:A 2.68847e-05
2 *4185:A 0
3 *4024:A 0.000478172
4 *4026:A 0
5 *4190:A1 0.000137987
6 *4544:Q 0
7 *831:55 0.000172417
8 *831:25 0.000620079
9 *831:10 0.000960939
10 *831:4 0.000826577
11 *831:10 *832:10 0.0001619
12 *831:10 *832:21 0.000367761
13 *831:25 *4023:A 0.000102447
14 *831:25 *832:21 0.000110184
15 *831:25 *832:31 2.58153e-05
16 *4022:B *4022:A 5.2938e-05
17 *4026:B *4024:A 2.3164e-05
18 *4026:B *831:25 8.16757e-06
19 *4185:B *4022:A 1.34966e-05
20 *4188:B *4022:A 7.03623e-07
21 *4190:A3 *4190:A1 6.17437e-06
22 *4200:A1 *4024:A 1.46205e-05
23 *4200:A2 *4024:A 1.24376e-05
24 *4200:B1_N *4024:A 8.19612e-05
25 *4544:D *831:10 6.17437e-06
26 *237:8 *4022:A 6.07413e-05
27 *237:25 *831:55 0.000135616
28 *239:14 *4024:A 3.96299e-05
29 *241:8 *4024:A 4.80733e-05
30 *341:8 *4190:A1 9.95494e-05
31 *474:25 *4024:A 0
32 *474:25 *831:25 0
*RES
1 *4544:Q *831:4 23 
2 *831:4 *831:10 26.6207 
3 *831:10 *4190:A1 41.045 
4 *831:10 *831:25 3.31429 
5 *831:25 *4026:A 38 
6 *831:25 *4024:A 45.685 
7 *831:4 *831:55 32.5271 
8 *831:55 *4185:A 23 
9 *831:55 *4022:A 24.3257 
*END

*D_NET *832 0.00339873
*CONN
*I *4023:A I *D sky130_fd_sc_hd__or2_2
*I *4190:A2 I *D sky130_fd_sc_hd__o31ai_2
*I *4188:A I *D sky130_fd_sc_hd__xnor2_2
*I *4545:Q O *D sky130_fd_sc_hd__dfrtp_2
*CAP
1 *4023:A 0.000181438
2 *4190:A2 0
3 *4188:A 3.80122e-05
4 *4545:Q 0.000261077
5 *832:31 0.00016361
6 *832:21 0.000570852
7 *832:10 0.000524894
8 *4026:B *4023:A 4.89774e-05
9 *4026:B *832:21 4.46962e-05
10 *4026:D *4023:A 0.00014196
11 *4545:RESET_B *832:10 5.81185e-05
12 *236:10 *4188:A 5.3304e-05
13 *236:14 *832:10 1.46784e-05
14 *236:14 *832:21 0.000178232
15 *238:6 *4023:A 3.88766e-05
16 *238:14 *4023:A 6.17437e-06
17 *341:8 *832:31 0.000138607
18 *474:25 *832:31 0
19 *809:10 *832:10 0.000167113
20 *831:10 *832:10 0.0001619
21 *831:10 *832:21 0.000367761
22 *831:25 *4023:A 0.000102447
23 *831:25 *832:21 0.000110184
24 *831:25 *832:31 2.58153e-05
*RES
1 *4545:Q *832:10 43.6964 
2 *832:10 *4188:A 38.6214 
3 *832:10 *832:21 6.48357 
4 *832:21 *832:31 47.4236 
5 *832:31 *4190:A2 23 
6 *832:21 *4023:A 42.0807 
*END

*D_NET *833 0.00127783
*CONN
*I *4023:B I *D sky130_fd_sc_hd__or2_2
*I *4190:B1 I *D sky130_fd_sc_hd__o31ai_2
*I *4546:Q O *D sky130_fd_sc_hd__dfrtp_2
*CAP
1 *4023:B 8.80933e-05
2 *4190:B1 9.97148e-05
3 *4546:Q 0.000240569
4 *833:10 0.000428377
5 *4026:B *4023:B 0
6 *4191:A *4023:B 8.02307e-05
7 *4191:A *833:10 1.34542e-05
8 *4191:B *4190:B1 0.000185434
9 *236:14 *833:10 0
10 *341:8 *4190:B1 0.00014196
*RES
1 *4546:Q *833:10 41.5318 
2 *833:10 *4190:B1 40.9932 
3 *833:10 *4023:B 40.0818 
*END

*D_NET *834 0.00569332
*CONN
*I *4193:A I *D sky130_fd_sc_hd__nor2_2
*I *4197:A I *D sky130_fd_sc_hd__or3_2
*I *4025:A I *D sky130_fd_sc_hd__or3_2
*I *4194:A I *D sky130_fd_sc_hd__nand2_2
*I *4547:Q O *D sky130_fd_sc_hd__dfrtp_2
*CAP
1 *4193:A 3.81433e-05
2 *4197:A 0
3 *4025:A 0
4 *4194:A 0
5 *4547:Q 0.000325086
6 *834:44 0.000145529
7 *834:38 0.000508648
8 *834:27 0.000367171
9 *834:23 0.000972717
10 *834:12 9.74389e-05
11 *834:6 0.000703096
12 *834:27 *4025:B 0.000646974
13 *834:27 *4198:A 0.000182282
14 *834:27 *836:12 0.000404047
15 *4194:B *834:44 1.14452e-05
16 *4202:B *834:12 0.000304171
17 *4547:RESET_B *834:6 9.83705e-05
18 *4549:RESET_B *834:27 0
19 *239:46 *834:44 0.000199701
20 *342:12 *834:38 0.00026808
21 *343:8 *834:12 0.000221942
22 *344:14 *834:27 1.2878e-05
23 *474:82 *834:44 2.35393e-05
24 *696:81 *834:23 2.11887e-05
25 *696:81 *834:27 0.000103481
26 *812:8 *834:23 2.29192e-05
27 *812:8 *834:27 1.4471e-05
*RES
1 *4547:Q *834:6 26.9564 
2 *834:6 *834:12 34.0186 
3 *834:12 *4194:A 23 
4 *834:6 *834:23 18.7286 
5 *834:23 *834:27 27.1179 
6 *834:27 *4025:A 23 
7 *834:23 *834:38 19.8057 
8 *834:38 *834:44 33.3143 
9 *834:44 *4197:A 23 
10 *834:38 *4193:A 23.6214 
*END

*D_NET *835 0.00313765
*CONN
*I *4197:B I *D sky130_fd_sc_hd__or3_2
*I *4198:A I *D sky130_fd_sc_hd__xnor2_2
*I *4025:B I *D sky130_fd_sc_hd__or3_2
*I *4548:Q O *D sky130_fd_sc_hd__dfrtp_2
*CAP
1 *4197:B 7.43603e-05
2 *4198:A 0.000270991
3 *4025:B 0.000306636
4 *4548:Q 0.000169388
5 *835:8 0.000672655
6 *4191:A *4025:B 4.41722e-05
7 *4196:B1 *4198:A 0.000215605
8 *239:31 *4025:B 0.000161147
9 *239:31 *4197:B 2.80394e-05
10 *239:31 *835:8 1.32314e-05
11 *239:46 *4197:B 6.17437e-06
12 *240:8 *4025:B 6.07611e-06
13 *342:12 *4198:A 4.21281e-05
14 *344:6 *835:8 1.59094e-05
15 *344:14 *4025:B 9.03784e-05
16 *344:14 *4198:A 0.000191505
17 *834:27 *4025:B 0.000646974
18 *834:27 *4198:A 0.000182282
*RES
1 *4548:Q *835:8 39.5743 
2 *835:8 *4025:B 47.6529 
3 *835:8 *4198:A 44.5871 
4 *4548:Q *4197:B 47.0979 
*END

*D_NET *836 0.00152797
*CONN
*I *4789:A I *D sky130_fd_sc_hd__dlygate4sd3_1
*I *4025:C I *D sky130_fd_sc_hd__or3_2
*I *4549:Q O *D sky130_fd_sc_hd__dfrtp_2
*CAP
1 *4789:A 0.000205865
2 *4025:C 0
3 *4549:Q 7.78829e-05
4 *836:12 0.000162869
5 *836:6 0.000446617
6 *4549:RESET_B *836:6 7.53384e-06
7 *591:10 *836:6 5.12254e-05
8 *591:10 *836:12 0.000171931
9 *834:27 *836:12 0.000404047
*RES
1 *4549:Q *836:6 24.5743 
2 *836:6 *836:12 35.4271 
3 *836:12 *4025:C 23 
4 *836:6 *4789:A 26.0036 
*END

*D_NET *837 0.00335897
*CONN
*I *4027:A I *D sky130_fd_sc_hd__or3_2
*I *4204:A1 I *D sky130_fd_sc_hd__o21ai_2
*I *4202:A I *D sky130_fd_sc_hd__xor2_2
*I *4550:Q O *D sky130_fd_sc_hd__dfrtp_2
*CAP
1 *4027:A 7.12836e-05
2 *4204:A1 0
3 *4202:A 0.000180408
4 *4550:Q 0
5 *837:25 0.000477011
6 *837:6 0.000657419
7 *837:4 7.12836e-05
8 *837:25 *4027:B 4.58924e-05
9 *837:25 *4742:A 4.99753e-06
10 *4027:C *4027:A 9.84851e-05
11 *241:40 *4202:A 0.000354581
12 *241:57 *4202:A 3.70187e-05
13 *241:57 *837:25 0.000952877
14 *242:8 *4202:A 0
15 *242:12 *4202:A 0.000131304
16 *349:10 *837:25 5.56279e-05
17 *465:25 *837:25 2.81043e-05
18 *476:42 *837:25 0.000192681
*RES
1 *4550:Q *837:4 23 
2 *837:4 *837:6 15 
3 *837:6 *4202:A 43.4893 
4 *837:6 *837:25 28.2986 
5 *837:25 *4204:A1 23 
6 *837:4 *4027:A 24.5743 
*END

*D_NET *838 0.0041238
*CONN
*I *4153:B I *D sky130_fd_sc_hd__and2_2
*I *4014:B I *D sky130_fd_sc_hd__nor2_2
*I *4158:A2 I *D sky130_fd_sc_hd__o31ai_2
*I *4015:B I *D sky130_fd_sc_hd__or4_2
*I *4532:Q O *D sky130_fd_sc_hd__dfrtp_2
*CAP
1 *4153:B 0.000306456
2 *4014:B 6.04189e-05
3 *4158:A2 0
4 *4015:B 0
5 *4532:Q 8.73966e-05
6 *838:31 0.000188165
7 *838:21 0.000400548
8 *838:12 0.000394706
9 *838:8 0.000636594
10 *838:12 *4015:C 0
11 *838:12 *4015:D 0.000113153
12 *838:21 *4015:C 0.000183733
13 *838:31 *4015:C 0.000150977
14 *838:31 *4158:A3 9.84851e-05
15 *838:31 *841:21 1.01436e-05
16 *4015:A *4014:B 1.32314e-05
17 *4015:A *838:21 1.41129e-05
18 *4152:A1 *4153:B 0.000230604
19 *4152:B1 *4153:B 0.000141164
20 *4152:B1 *838:12 0
21 *4154:B *4153:B 0
22 *230:8 *838:12 6.07611e-06
23 *230:27 *838:31 0.000180218
24 *318:12 *4153:B 2.64616e-05
25 *564:110 *4153:B 4.6595e-05
26 *653:70 *838:12 0
27 *653:70 *838:31 7.81176e-05
28 *696:16 *838:8 4.23817e-05
29 *696:16 *838:12 5.86432e-05
30 *805:10 *4153:B 0.000446281
31 *805:10 *838:8 5.21127e-05
32 *827:33 *4014:B 3.61695e-05
33 *827:55 *4153:B 0.000120857
34 *827:55 *838:12 0
*RES
1 *4532:Q *838:8 39.9057 
2 *838:8 *838:12 19.0186 
3 *838:12 *4015:B 23 
4 *838:12 *838:21 3.02429 
5 *838:21 *838:31 34.8057 
6 *838:31 *4158:A2 23 
7 *838:21 *4014:B 24.6157 
8 *838:8 *4153:B 47.6943 
*END

*D_NET *839 0.00122432
*CONN
*I *4742:A I *D sky130_fd_sc_hd__dlygate4sd3_1
*I *4027:B I *D sky130_fd_sc_hd__or3_2
*I *4551:Q O *D sky130_fd_sc_hd__dfrtp_2
*CAP
1 *4742:A 0.000114509
2 *4027:B 9.07631e-05
3 *4551:Q 0.000240512
4 *839:8 0.000445784
5 *4551:RESET_B *839:8 2.93747e-05
6 *476:42 *4742:A 0.000197479
7 *476:42 *839:8 5.50049e-05
8 *837:25 *4027:B 4.58924e-05
9 *837:25 *4742:A 4.99753e-06
*RES
1 *4551:Q *839:8 41.9564 
2 *839:8 *4027:B 39.9057 
3 *839:8 *4742:A 40.9621 
*END

*D_NET *840 0.00440562
*CONN
*I *4791:A I *D sky130_fd_sc_hd__dlygate4sd3_1
*I *3844:A I *D sky130_fd_sc_hd__inv_2
*I *4028:A I *D sky130_fd_sc_hd__nor2_2
*I *4552:Q O *D sky130_fd_sc_hd__dfrtp_2
*CAP
1 *4791:A 0.000349203
2 *3844:A 0
3 *4028:A 0
4 *4552:Q 4.93533e-05
5 *840:33 0.000384745
6 *840:12 0.000642447
7 *840:8 0.000656257
8 *4203:B1 *840:33 7.41766e-05
9 *4551:D *840:8 6.17437e-06
10 *93:10 *840:12 0.000248979
11 *242:18 *840:12 8.92841e-05
12 *243:12 *840:33 0.000240372
13 *348:22 *840:33 0.000107211
14 *449:296 *4791:A 0.000145784
15 *449:300 *4791:A 0
16 *449:322 *4791:A 0.000119313
17 *464:10 *840:33 7.07734e-05
18 *564:95 *840:33 7.28927e-05
19 *564:110 *840:33 0.000182019
20 *593:14 *4791:A 5.12254e-05
21 *655:76 *4791:A 0.000190597
22 *655:76 *840:12 0.00020034
23 *817:8 *4791:A 6.48142e-05
24 *817:8 *840:12 0.000459657
*RES
1 *4552:Q *840:8 38.6214 
2 *840:8 *840:12 23.5964 
3 *840:12 *4028:A 23 
4 *840:12 *840:33 38.5757 
5 *840:33 *3844:A 23 
6 *840:8 *4791:A 46.3479 
*END

*D_NET *841 0.00281699
*CONN
*I *4015:C I *D sky130_fd_sc_hd__or4_2
*I *4158:A3 I *D sky130_fd_sc_hd__o31ai_2
*I *4156:A I *D sky130_fd_sc_hd__xnor2_2
*I *4533:Q O *D sky130_fd_sc_hd__dfrtp_2
*CAP
1 *4015:C 0.000185413
2 *4158:A3 9.96319e-05
3 *4156:A 3.80122e-05
4 *4533:Q 0.000322892
5 *841:21 0.000390335
6 *841:10 0.000466194
7 *4015:C *4015:D 6.17437e-06
8 *4158:A3 *4158:B1 1.24376e-05
9 *4015:A *4015:C 0.000183733
10 *4160:A2 *841:10 8.91468e-07
11 *4533:RESET_B *841:10 9.29579e-06
12 *230:8 *4015:C 4.74809e-05
13 *230:12 *4015:C 1.83564e-05
14 *230:12 *841:10 6.95156e-05
15 *230:12 *841:21 0.000107651
16 *230:27 *4158:A3 2.18409e-05
17 *320:8 *841:10 0.000159008
18 *320:8 *841:21 0.00015954
19 *653:70 *4015:C 1.02387e-05
20 *653:70 *841:21 1.17049e-05
21 *653:96 *4156:A 5.3304e-05
22 *838:12 *4015:C 0
23 *838:21 *4015:C 0.000183733
24 *838:31 *4015:C 0.000150977
25 *838:31 *4158:A3 9.84851e-05
26 *838:31 *841:21 1.01436e-05
*RES
1 *4533:Q *841:10 42.785 
2 *841:10 *4156:A 38.6214 
3 *841:10 *841:21 2.96214 
4 *841:21 *4158:A3 40.0714 
5 *841:21 *4015:C 43.1371 
*END

*D_NET *842 0.0020887
*CONN
*I *4015:D I *D sky130_fd_sc_hd__or4_2
*I *4158:B1 I *D sky130_fd_sc_hd__o31ai_2
*I *4534:Q O *D sky130_fd_sc_hd__dfrtp_2
*CAP
1 *4015:D 0.000223718
2 *4158:B1 0.000154282
3 *4534:Q 0.00034323
4 *842:8 0.000721229
5 *4015:C *4015:D 6.17437e-06
6 *4158:A3 *4158:B1 1.24376e-05
7 *230:8 *4015:D 2.79167e-05
8 *230:12 *4015:D 2.72055e-05
9 *230:12 *842:8 7.75329e-06
10 *230:27 *4158:B1 2.98648e-05
11 *654:16 *4015:D 0
12 *654:16 *842:8 0
13 *655:32 *4158:B1 3.46673e-05
14 *655:46 *842:8 0
15 *693:8 *842:8 0.000194296
16 *693:10 *842:8 5.56203e-05
17 *696:16 *4015:D 0.000137153
18 *838:12 *4015:D 0.000113153
*RES
1 *4534:Q *842:8 45.1879 
2 *842:8 *4158:B1 40.5271 
3 *842:8 *4015:D 43.1164 
*END

*D_NET *843 0.00595105
*CONN
*I *4161:A I *D sky130_fd_sc_hd__and2_2
*I *4166:A1 I *D sky130_fd_sc_hd__o31ai_2
*I *4017:A I *D sky130_fd_sc_hd__or4_2
*I *4016:A I *D sky130_fd_sc_hd__nor2_2
*I *4535:Q O *D sky130_fd_sc_hd__dfrtp_2
*CAP
1 *4161:A 0
2 *4166:A1 0
3 *4017:A 0
4 *4016:A 2.0995e-05
5 *4535:Q 0.000301423
6 *843:52 0.000740182
7 *843:42 0.000959774
8 *843:29 0.000290287
9 *843:14 0.000469636
10 *843:10 0.00067937
11 *843:52 *844:18 0
12 *4160:A1 *843:29 0
13 *4161:B *843:42 0.000173442
14 *4165:B1 *843:52 7.56417e-05
15 *4168:B1 *843:52 5.67058e-05
16 *4535:CLK *843:52 0.000134667
17 *4535:RESET_B *843:10 2.30292e-05
18 *4699:A *843:10 7.63857e-05
19 *4699:A *843:42 7.06021e-05
20 *3:14 *843:52 0
21 *230:27 *4016:A 1.14154e-05
22 *230:27 *843:14 2.4754e-05
23 *230:27 *843:29 2.93747e-05
24 *230:31 *843:14 5.50106e-05
25 *230:33 *843:29 0.000123663
26 *230:47 *843:29 4.21594e-06
27 *231:8 *843:14 2.93845e-05
28 *316:8 *843:42 9.63712e-05
29 *323:10 *843:52 0
30 *324:10 *843:52 0
31 *493:10 *843:52 8.26569e-05
32 *493:12 *843:52 0.000108319
33 *553:59 *843:14 0.000392386
34 *553:59 *843:29 4.17736e-05
35 *553:67 *843:52 4.2361e-05
36 *653:10 *843:42 0.000274078
37 *653:10 *843:52 0.000147413
38 *653:36 *843:42 0.000139352
39 *655:8 *843:14 8.06804e-06
40 *655:32 *843:14 7.43025e-06
41 *682:27 *843:42 2.9938e-05
42 *682:27 *843:52 0.000123944
43 *822:10 *843:52 0.000107
*RES
1 *4535:Q *843:10 42.0807 
2 *843:10 *843:14 19.4329 
3 *843:14 *4016:A 23.4971 
4 *843:14 *843:29 36.0486 
5 *843:29 *4017:A 23 
6 *843:10 *843:42 22.8921 
7 *843:42 *843:52 47.3793 
8 *843:52 *4166:A1 23 
9 *843:42 *4161:A 23 
*END

*D_NET *844 0.00318778
*CONN
*I *4017:B I *D sky130_fd_sc_hd__or4_2
*I *4164:A I *D sky130_fd_sc_hd__xnor2_2
*I *4166:A2 I *D sky130_fd_sc_hd__o31ai_2
*I *4536:Q O *D sky130_fd_sc_hd__dfrtp_2
*CAP
1 *4017:B 0.000273982
2 *4164:A 0
3 *4166:A2 0
4 *4536:Q 0.000115159
5 *844:27 0.000393008
6 *844:18 0.000657471
7 *844:6 0.000891656
8 *4017:B *4017:C 2.64616e-05
9 *4168:B1 *844:18 1.14154e-05
10 *4536:RESET_B *844:6 6.8403e-06
11 *4536:RESET_B *844:18 1.22775e-06
12 *230:47 *844:18 9.84794e-05
13 *324:10 *4017:B 0
14 *326:10 *844:6 9.5877e-05
15 *326:10 *844:27 3.70187e-05
16 *493:12 *844:18 0
17 *652:6 *844:18 0.000187129
18 *655:14 *844:27 3.71611e-05
19 *680:10 *4017:B 9.26005e-05
20 *680:10 *844:27 0.000169683
21 *680:25 *844:18 0
22 *680:25 *844:27 9.26098e-05
23 *843:52 *844:18 0
*RES
1 *4536:Q *844:6 24.5743 
2 *844:6 *844:18 40.5436 
3 *844:18 *4166:A2 23 
4 *844:6 *844:27 18.6664 
5 *844:27 *4164:A 38 
6 *844:27 *4017:B 41.7286 
*END

*D_NET *845 0.00279201
*CONN
*I *4017:C I *D sky130_fd_sc_hd__or4_2
*I *4166:B1 I *D sky130_fd_sc_hd__o31ai_2
*I *4537:Q O *D sky130_fd_sc_hd__dfrtp_2
*CAP
1 *4017:C 0.000270614
2 *4166:B1 0.000106591
3 *4537:Q 0.000105518
4 *845:8 0.000482723
5 *4017:B *4017:C 2.64616e-05
6 *4164:B *4017:C 3.92407e-05
7 *230:33 *4017:C 2.55642e-05
8 *230:47 *4017:C 0.000379413
9 *230:47 *4166:B1 0.000462783
10 *232:16 *4017:C 0
11 *232:16 *845:8 0
12 *652:6 *4166:B1 0.000274078
13 *652:52 *4166:B1 0.000356724
14 *655:14 *4017:C 0.000205594
15 *655:14 *4166:B1 5.67058e-05
16 *680:25 *845:8 0
*RES
1 *4537:Q *845:8 39.5536 
2 *845:8 *4166:B1 44.815 
3 *845:8 *4017:C 45.5814 
*END

*D_NET *846 0.00285649
*CONN
*I *4169:A I *D sky130_fd_sc_hd__and2_2
*I *4019:A I *D sky130_fd_sc_hd__or4_2
*I *4018:A I *D sky130_fd_sc_hd__nor2_2
*I *4174:A1 I *D sky130_fd_sc_hd__o31ai_2
*I *4538:Q O *D sky130_fd_sc_hd__dfrtp_2
*CAP
1 *4169:A 0
2 *4019:A 3.73824e-05
3 *4018:A 0.00016289
4 *4174:A1 0
5 *4538:Q 0
6 *846:43 8.97896e-05
7 *846:30 0.000308512
8 *846:12 0.000630685
9 *846:4 0.000649136
10 *846:12 *4019:B 1.24362e-05
11 *846:12 *847:16 2.98162e-05
12 *846:30 *4019:B 1.86239e-05
13 *4018:B *4018:A 0.000423375
14 *4170:A *846:12 1.61983e-05
15 *4171:A2 *4018:A 5.5792e-05
16 *4172:B *846:12 1.94812e-05
17 *4173:A2 *846:12 8.91468e-07
18 *4538:RESET_B *846:12 4.89921e-05
19 *232:24 *846:30 9.66585e-05
20 *232:24 *846:43 0.000138747
21 *233:8 *4018:A 0.000114732
22 *328:10 *846:12 2.35118e-06
*RES
1 *4538:Q *846:4 23 
2 *846:4 *846:12 36.3386 
3 *846:12 *4174:A1 23 
4 *846:12 *4018:A 28.4271 
5 *846:4 *846:30 2.52714 
6 *846:30 *4019:A 23.8493 
7 *846:30 *846:43 31.9057 
8 *846:43 *4169:A 23 
*END

*D_NET *847 0.00225245
*CONN
*I *4174:A2 I *D sky130_fd_sc_hd__o31ai_2
*I *4019:B I *D sky130_fd_sc_hd__or4_2
*I *4172:A I *D sky130_fd_sc_hd__xnor2_2
*I *4539:Q O *D sky130_fd_sc_hd__dfrtp_2
*CAP
1 *4174:A2 0
2 *4019:B 9.90322e-05
3 *4172:A 0
4 *4539:Q 0.000287843
5 *847:22 0.000106054
6 *847:16 0.000432011
7 *847:10 0.000514768
8 *4170:A *847:10 0.00015374
9 *4170:A *847:16 6.43792e-05
10 *4172:B *847:16 0.000193178
11 *4538:RESET_B *847:16 1.60273e-05
12 *4539:RESET_B *847:10 1.19087e-05
13 *4540:RESET_B *847:16 2.70705e-05
14 *4540:RESET_B *847:22 0.000192871
15 *232:24 *4019:B 4.91172e-06
16 *680:29 *847:10 4.5129e-05
17 *680:29 *847:16 4.2651e-05
18 *846:12 *4019:B 1.24362e-05
19 *846:12 *847:16 2.98162e-05
20 *846:30 *4019:B 1.86239e-05
*RES
1 *4539:Q *847:10 42.785 
2 *847:10 *847:16 20.365 
3 *847:16 *847:22 32.61 
4 *847:22 *4172:A 23 
5 *847:16 *4019:B 25.0714 
6 *847:10 *4174:A2 38 
*END

*D_NET *848 0.00122772
*CONN
*I *4174:B1 I *D sky130_fd_sc_hd__o31ai_2
*I *4019:C I *D sky130_fd_sc_hd__or4_2
*I *4540:Q O *D sky130_fd_sc_hd__dfrtp_2
*CAP
1 *4174:B1 0.000202929
2 *4019:C 0
3 *4540:Q 0.000270543
4 *848:8 0.000473472
5 *232:24 *4174:B1 0.000135616
6 *232:31 *4174:B1 0.000145163
*RES
1 *4540:Q *848:8 42.7229 
2 *848:8 *4019:C 38 
3 *848:8 *4174:B1 42.1843 
*END

*D_NET *849 0.000641448
*CONN
*I *4599:A I *D sky130_fd_sc_hd__buf_2
*I *4013:Y O *D sky130_fd_sc_hd__inv_2
*CAP
1 *4599:A 0
2 *4013:Y 0.000312208
3 *849:10 0.000312208
4 *215:10 *849:10 1.70326e-05
*RES
1 *4013:Y *849:10 42.785 
2 *849:10 *4599:A 38 
*END

*D_NET *850 0.000736596
*CONN
*I *4509:D I *D sky130_fd_sc_hd__dfrtp_2
*I *4208:Y O *D sky130_fd_sc_hd__o21ai_2
*CAP
1 *4509:D 0
2 *4208:Y 0.000246662
3 *850:8 0.000246662
4 *492:16 *850:8 7.45175e-05
5 *662:53 *850:8 0.000168754
*RES
1 *4208:Y *850:8 42.3707 
2 *850:8 *4509:D 38 
*END

*D_NET *851 0.0012558
*CONN
*I *4519:D I *D sky130_fd_sc_hd__dfrtp_2
*I *4235:Y O *D sky130_fd_sc_hd__o21ai_2
*CAP
1 *4519:D 1.47919e-05
2 *4235:Y 0.000214097
3 *851:8 0.000228889
4 *4235:A1 *851:8 0.000249918
5 *220:38 *851:8 0.00020394
6 *477:20 *4519:D 1.10317e-05
7 *477:20 *851:8 3.71198e-05
8 *575:14 *851:8 0.000296017
*RES
1 *4235:Y *851:8 45.1879 
2 *851:8 *4519:D 38.2123 
*END

*D_NET *852 0.000853134
*CONN
*I *4520:D I *D sky130_fd_sc_hd__dfrtp_2
*I *4237:Y O *D sky130_fd_sc_hd__o21ai_2
*CAP
1 *4520:D 0
2 *4237:Y 0.000287939
3 *852:10 0.000287939
4 *852:10 *873:8 0
5 *852:10 *873:23 0
6 *4237:A1 *852:10 2.93747e-05
7 *4519:RESET_B *852:10 0
8 *218:25 *852:10 0.000111852
9 *368:12 *852:10 0
10 *661:12 *852:10 0.000136029
*RES
1 *4237:Y *852:10 44.1729 
2 *852:10 *4520:D 38 
*END

*D_NET *853 0.000729652
*CONN
*I *4521:D I *D sky130_fd_sc_hd__dfrtp_2
*I *4240:Y O *D sky130_fd_sc_hd__o21ai_2
*CAP
1 *4521:D 0
2 *4240:Y 0.00010964
3 *853:10 0.00010964
4 *4240:A2 *853:10 0.000137651
5 *4520:CLK *853:10 4.66047e-05
6 *661:12 *853:10 0.000135557
7 *663:26 *853:10 0.000190561
*RES
1 *4240:Y *853:10 41.48 
2 *853:10 *4521:D 38 
*END

*D_NET *854 0.000303977
*CONN
*I *4522:D I *D sky130_fd_sc_hd__dfrtp_2
*I *4243:Y O *D sky130_fd_sc_hd__o21ai_2
*CAP
1 *4522:D 0
2 *4243:Y 6.96356e-05
3 *854:8 6.96356e-05
4 *223:26 *854:8 8.41012e-05
5 *488:67 *854:8 1.02387e-05
6 *586:18 *854:8 7.03663e-05
*RES
1 *4243:Y *854:8 40.2579 
2 *854:8 *4522:D 38 
*END

*D_NET *855 0.000564371
*CONN
*I *4523:D I *D sky130_fd_sc_hd__dfrtp_2
*I *4245:Y O *D sky130_fd_sc_hd__o21ai_2
*CAP
1 *4523:D 0
2 *4245:Y 0.000109035
3 *855:10 0.000109035
4 *855:10 *4241:A 5.41288e-05
5 *855:10 *876:20 6.17437e-06
6 *373:12 *855:10 0.00014411
7 *586:18 *855:10 0.000141888
*RES
1 *4245:Y *855:10 41.0036 
2 *855:10 *4523:D 38 
*END

*D_NET *856 0.00119185
*CONN
*I *4524:D I *D sky130_fd_sc_hd__dfrtp_2
*I *4248:Y O *D sky130_fd_sc_hd__o21ai_2
*CAP
1 *4524:D 0
2 *4248:Y 0.000303689
3 *856:8 0.000303689
4 *856:8 *876:16 0.000192681
5 *856:8 *877:27 0.000275473
6 *4245:B1 *856:8 0
7 *375:10 *856:8 0.000116314
8 *450:10 *856:8 0
*RES
1 *4248:Y *856:8 45.8921 
2 *856:8 *4524:D 38 
*END

*D_NET *857 0.000352288
*CONN
*I *4525:D I *D sky130_fd_sc_hd__dfrtp_2
*I *4252:Y O *D sky130_fd_sc_hd__o21ai_2
*CAP
1 *4525:D 0
2 *4252:Y 9.01913e-05
3 *857:8 9.01913e-05
4 *378:10 *857:8 0.000171906
5 *492:58 *857:8 0
*RES
1 *4252:Y *857:8 40.2579 
2 *857:8 *4525:D 38 
*END

*D_NET *858 0.00157677
*CONN
*I *4526:D I *D sky130_fd_sc_hd__dfrtp_2
*I *4254:Y O *D sky130_fd_sc_hd__o21ai_2
*CAP
1 *4526:D 5.39135e-05
2 *4254:Y 0.000301097
3 *858:10 0.00035501
4 *4210:B *858:10 3.52383e-05
5 *4254:A2 *858:10 0.000568589
6 *597:20 *858:10 0
7 *597:31 *858:10 0.000164282
8 *608:28 *858:10 2.76611e-06
9 *662:8 *858:10 9.58714e-05
*RES
1 *4254:Y *858:10 46.6379 
2 *858:10 *4526:D 38.6214 
*END

*D_NET *859 0.000542629
*CONN
*I *4527:D I *D sky130_fd_sc_hd__dfrtp_2
*I *4257:Y O *D sky130_fd_sc_hd__o21ai_2
*CAP
1 *4527:D 2.77218e-05
2 *4257:Y 6.97008e-05
3 *859:8 9.74226e-05
4 *4527:D *879:25 5.3304e-05
5 *494:66 *4527:D 2.64616e-05
6 *597:10 *859:8 0.000134009
7 *608:28 *859:8 0.000134009
*RES
1 *4257:Y *859:8 39.9057 
2 *859:8 *4527:D 38.6214 
*END

*D_NET *860 0.000810925
*CONN
*I *4528:D I *D sky130_fd_sc_hd__dfrtp_2
*I *4259:Y O *D sky130_fd_sc_hd__o21ai_2
*CAP
1 *4528:D 0
2 *4259:Y 0.000215614
3 *860:10 0.000215614
4 *4259:A2 *860:10 6.99589e-05
5 *383:12 *860:10 0.000114656
6 *608:14 *860:10 0.000176715
7 *608:16 *860:10 1.83667e-05
*RES
1 *4259:Y *860:10 43.0129 
2 *860:10 *4528:D 38 
*END

*D_NET *861 0.000494514
*CONN
*I *4510:D I *D sky130_fd_sc_hd__dfrtp_2
*I *4211:Y O *D sky130_fd_sc_hd__o21ai_2
*CAP
1 *4510:D 0.000110149
2 *4211:Y 0.000110149
3 *4211:A1 *4510:D 8.7817e-05
4 *4211:A2 *4510:D 0.000180224
5 *597:52 *4510:D 6.17437e-06
*RES
1 *4211:Y *4510:D 48.5271 
*END

*D_NET *862 0.00184261
*CONN
*I *4529:D I *D sky130_fd_sc_hd__dfrtp_2
*I *4262:X O *D sky130_fd_sc_hd__or2_2
*CAP
1 *4529:D 0.000510211
2 *4262:X 9.71033e-05
3 *862:8 0.000607314
4 *4529:D *3843:A 0
5 *4529:D *885:8 0
6 *4529:D *885:19 0
7 *862:8 *3843:A 5.50049e-05
8 *107:24 *862:8 0.000120189
9 *383:12 *4529:D 0
10 *681:75 *4529:D 0.000108681
11 *682:14 *4529:D 0.00034411
*RES
1 *4262:X *862:8 40.5271 
2 *862:8 *4529:D 48.7093 
*END

*D_NET *863 0.000309821
*CONN
*I *4530:D I *D sky130_fd_sc_hd__dfrtp_2
*I *4263:X O *D sky130_fd_sc_hd__a21bo_2
*CAP
1 *4530:D 0
2 *4263:X 7.08091e-05
3 *863:8 7.08091e-05
4 *4261:B1 *863:8 8.41012e-05
5 *227:21 *863:8 8.41012e-05
*RES
1 *4263:X *863:8 40.2579 
2 *863:8 *4530:D 38 
*END

*D_NET *864 0.00039101
*CONN
*I *4511:D I *D sky130_fd_sc_hd__dfrtp_2
*I *4213:Y O *D sky130_fd_sc_hd__o21ai_2
*CAP
1 *4511:D 0.000118609
2 *4213:Y 0.000118609
3 *4213:A1 *4511:D 5.58003e-05
4 *4511:CLK *4511:D 9.79925e-05
*RES
1 *4213:Y *4511:D 48.5271 
*END

*D_NET *865 0.000480325
*CONN
*I *4512:D I *D sky130_fd_sc_hd__dfrtp_2
*I *4216:Y O *D sky130_fd_sc_hd__o21ai_2
*CAP
1 *4512:D 5.145e-05
2 *4216:Y 4.75118e-05
3 *865:8 9.89618e-05
4 *4216:A1 *865:8 0.000141201
5 *4216:B1 *865:8 0.000141201
*RES
1 *4216:Y *865:8 39.9057 
2 *865:8 *4512:D 38.6214 
*END

*D_NET *866 0.00162261
*CONN
*I *4513:D I *D sky130_fd_sc_hd__dfrtp_2
*I *4219:Y O *D sky130_fd_sc_hd__o21ai_2
*CAP
1 *4513:D 0
2 *4219:Y 0.000528277
3 *866:18 0.000528277
4 *4219:A1 *866:18 8.48502e-06
5 *4219:A2 *866:18 0.000200559
6 *4515:CLK *866:18 0.000138859
7 *575:24 *866:18 0.000110267
8 *575:97 *866:18 5.82853e-05
9 *661:22 *866:18 4.96024e-05
*RES
1 *4219:Y *866:18 47.6529 
2 *866:18 *4513:D 38 
*END

*D_NET *867 0.000493548
*CONN
*I *4514:D I *D sky130_fd_sc_hd__dfrtp_2
*I *4221:Y O *D sky130_fd_sc_hd__o21ai_2
*CAP
1 *4514:D 5.39135e-05
2 *4221:Y 5.39704e-05
3 *867:8 0.000107884
4 *4221:A1 *867:8 0.000137744
5 *4221:B1 *867:8 0.000140036
*RES
1 *4221:Y *867:8 39.9057 
2 *867:8 *4514:D 38.6214 
*END

*D_NET *868 0.00114785
*CONN
*I *4515:D I *D sky130_fd_sc_hd__dfrtp_2
*I *4224:Y O *D sky130_fd_sc_hd__o21ai_2
*CAP
1 *4515:D 0
2 *4224:Y 0.000366981
3 *868:10 0.000366981
4 *868:10 *4002:B 0
5 *868:10 *4002:C 0.000137651
6 *868:10 *888:46 3.56537e-05
7 *359:12 *868:10 0.000171863
8 *661:18 *868:10 6.87243e-05
*RES
1 *4224:Y *868:10 46.2029 
2 *868:10 *4515:D 38 
*END

*D_NET *869 0.00154159
*CONN
*I *4516:D I *D sky130_fd_sc_hd__dfrtp_2
*I *4227:Y O *D sky130_fd_sc_hd__o21ai_2
*CAP
1 *4516:D 0.000402641
2 *4227:Y 0.000184979
3 *869:10 0.00058762
4 *869:10 *894:12 0.000189005
5 *4227:B1 *869:10 0.000102389
6 *4516:RESET_B *4516:D 5.02669e-05
7 *575:97 *869:10 2.46906e-05
*RES
1 *4227:Y *869:10 42.1843 
2 *869:10 *4516:D 45.2914 
*END

*D_NET *870 0.00140215
*CONN
*I *4517:D I *D sky130_fd_sc_hd__dfrtp_2
*I *4229:Y O *D sky130_fd_sc_hd__o21ai_2
*CAP
1 *4517:D 0.000195414
2 *4229:Y 0.000303665
3 *870:10 0.000499079
4 *870:10 *4003:A 5.59219e-05
5 *4226:A *870:10 1.00084e-05
6 *4228:B *870:10 0.000189157
7 *218:56 *870:10 8.97377e-05
8 *363:10 *870:10 5.9166e-05
*RES
1 *4229:Y *870:10 44.525 
2 *870:10 *4517:D 41.48 
*END

*D_NET *871 0.000677872
*CONN
*I *4518:D I *D sky130_fd_sc_hd__dfrtp_2
*I *4232:Y O *D sky130_fd_sc_hd__o21ai_2
*CAP
1 *4518:D 0
2 *4232:Y 0.000320797
3 *871:12 0.000320797
4 *661:78 *871:12 3.62784e-05
*RES
1 *4232:Y *871:12 42.5779 
2 *871:12 *4518:D 38 
*END

*D_NET *872 0.00364097
*CONN
*I *4209:A I *D sky130_fd_sc_hd__and2_2
*I *3999:A I *D sky130_fd_sc_hd__nor2_2
*I *4776:A I *D sky130_fd_sc_hd__dlygate4sd3_1
*I *4214:A1 I *D sky130_fd_sc_hd__o31ai_2
*I *4000:A I *D sky130_fd_sc_hd__or4_2
*I *4509:Q O *D sky130_fd_sc_hd__dfrtp_2
*CAP
1 *4209:A 0
2 *3999:A 0
3 *4776:A 0
4 *4214:A1 1.86912e-05
5 *4000:A 0
6 *4509:Q 0.000249165
7 *872:53 0.000149429
8 *872:47 0.000212423
9 *872:40 0.000303696
10 *872:24 0.000186557
11 *872:14 0.000603587
12 *872:10 0.000639041
13 *872:8 0.000249165
14 *872:8 *4214:B1 8.0612e-06
15 *872:8 *883:34 0
16 *872:14 *4214:B1 5.5792e-05
17 *872:24 *4000:C 5.58003e-05
18 *872:40 *4214:B1 0.000142678
19 *872:53 *3999:B 9.14681e-05
20 *215:32 *872:24 4.49603e-05
21 *353:12 *872:24 2.02872e-05
22 *354:8 *872:14 9.79925e-05
23 *577:6 *872:14 8.46544e-05
24 *577:6 *872:24 2.95526e-05
25 *597:75 *872:24 0.000168524
26 *662:40 *872:14 1.1258e-05
27 *679:25 *872:8 5.80963e-05
28 *679:34 *872:8 0.000160095
*RES
1 *4509:Q *872:8 43.7793 
2 *872:8 *872:10 15 
3 *872:10 *872:14 5.40643 
4 *872:14 *872:24 33.9771 
5 *872:24 *4000:A 23 
6 *872:14 *4214:A1 23.4971 
7 *872:10 *872:40 3.85286 
8 *872:40 *4776:A 23 
9 *872:40 *872:47 1.09786 
10 *872:47 *872:53 32.61 
11 *872:53 *3999:A 23 
12 *872:47 *4209:A 23 
*END

*D_NET *873 0.00653763
*CONN
*I *4006:A I *D sky130_fd_sc_hd__or4_2
*I *4238:A1 I *D sky130_fd_sc_hd__o31ai_2
*I *4005:A I *D sky130_fd_sc_hd__nor2_2
*I *4233:A I *D sky130_fd_sc_hd__and2_2
*I *4519:Q O *D sky130_fd_sc_hd__dfrtp_2
*CAP
1 *4006:A 0.000206606
2 *4238:A1 0
3 *4005:A 0.000308586
4 *4233:A 0.000826355
5 *4519:Q 6.55472e-05
6 *873:44 0.000277414
7 *873:25 0.000670765
8 *873:23 0.000565508
9 *873:8 0.00116604
10 *4005:A *4236:A 5.67058e-05
11 *4005:A *874:32 4.17736e-05
12 *4006:A *4006:B 4.04598e-06
13 *873:25 *874:32 9.5877e-05
14 *873:44 *874:49 0.00027229
15 *4006:D *4005:A 1.72202e-05
16 *4006:D *4006:A 7.84283e-05
17 *4006:D *873:25 2.18409e-05
18 *4007:B *873:44 4.75087e-05
19 *4236:B *4005:A 0.000139352
20 *4240:A2 *4233:A 4.841e-05
21 *4520:CLK *4233:A 7.88926e-05
22 *4520:RESET_B *873:23 6.58373e-05
23 *220:21 *4233:A 5.90675e-06
24 *220:38 *4233:A 0.000168445
25 *220:47 *4005:A 0.000130729
26 *220:55 *873:44 1.37349e-05
27 *221:8 *4005:A 1.32314e-05
28 *368:12 *873:8 4.08537e-05
29 *368:12 *873:23 7.02841e-05
30 *370:8 *873:23 0.000530119
31 *661:12 *873:23 0
32 *663:26 *873:44 0
33 *677:33 *873:23 0.000212369
34 *677:33 *873:44 0.000296956
35 *852:10 *873:8 0
36 *852:10 *873:23 0
*RES
1 *4519:Q *873:8 39.2014 
2 *873:8 *4233:A 49.4757 
3 *873:8 *873:23 23.9486 
4 *873:23 *873:25 1.57429 
5 *873:25 *4005:A 29.3593 
6 *873:25 *873:44 37.0429 
7 *873:44 *4238:A1 23 
8 *873:23 *4006:A 26.5007 
*END

*D_NET *874 0.00321496
*CONN
*I *4238:A2 I *D sky130_fd_sc_hd__o31ai_2
*I *4236:A I *D sky130_fd_sc_hd__xnor2_2
*I *4006:B I *D sky130_fd_sc_hd__or4_2
*I *4520:Q O *D sky130_fd_sc_hd__dfrtp_2
*CAP
1 *4238:A2 0
2 *4236:A 1.08768e-05
3 *4006:B 0.000310932
4 *4520:Q 0.000474165
5 *874:49 0.000150787
6 *874:32 0.000214267
7 *874:28 0.000234551
8 *874:8 0.00060315
9 *874:8 *4238:B1 0
10 *874:8 *875:10 0
11 *4005:A *4236:A 5.67058e-05
12 *4005:A *874:32 4.17736e-05
13 *4006:A *4006:B 4.04598e-06
14 *4006:D *4236:A 5.50049e-05
15 *4006:D *874:28 9.91895e-05
16 *4006:D *874:32 0.000135037
17 *4007:B *874:49 9.58714e-05
18 *220:55 *874:49 0.000192087
19 *222:8 *874:8 3.70094e-05
20 *368:12 *874:8 0
21 *370:8 *874:28 4.18957e-05
22 *663:65 *874:8 0
23 *677:33 *874:28 8.94487e-05
24 *873:25 *874:32 9.5877e-05
25 *873:44 *874:49 0.00027229
*RES
1 *4520:Q *874:8 46.5964 
2 *874:8 *4006:B 39.5743 
3 *4006:B *874:28 41.2521 
4 *874:28 *874:32 16.5743 
5 *874:32 *4236:A 23.6214 
6 *874:32 *874:49 34.5571 
7 *874:49 *4238:A2 23 
*END

*D_NET *875 0.00166926
*CONN
*I *4238:B1 I *D sky130_fd_sc_hd__o31ai_2
*I *4006:C I *D sky130_fd_sc_hd__or4_2
*I *4521:Q O *D sky130_fd_sc_hd__dfrtp_2
*CAP
1 *4238:B1 0.000342389
2 *4006:C 0
3 *4521:Q 0.000294909
4 *875:10 0.000637298
5 *4007:B *4238:B1 1.22822e-05
6 *4239:B *4238:B1 0.00010655
7 *222:8 *4238:B1 5.61311e-05
8 *222:12 *4238:B1 6.17437e-06
9 *222:14 *4238:B1 2.64616e-05
10 *222:33 *4238:B1 6.25829e-05
11 *368:12 *875:10 9.21934e-05
12 *370:8 *4238:B1 0
13 *370:8 *875:10 0
14 *661:8 *875:10 3.22879e-05
15 *677:33 *4238:B1 0
16 *874:8 *4238:B1 0
17 *874:8 *875:10 0
*RES
1 *4521:Q *875:10 43.3443 
2 *875:10 *4006:C 38 
3 *875:10 *4238:B1 44.67 
*END

*D_NET *876 0.00488491
*CONN
*I *4008:A I *D sky130_fd_sc_hd__or4_2
*I *4246:A1 I *D sky130_fd_sc_hd__o31ai_2
*I *4007:A I *D sky130_fd_sc_hd__nor2_2
*I *4241:A I *D sky130_fd_sc_hd__and2_2
*I *4522:Q O *D sky130_fd_sc_hd__dfrtp_2
*CAP
1 *4008:A 0
2 *4246:A1 0
3 *4007:A 0
4 *4241:A 0.000134681
5 *4522:Q 0
6 *876:55 0.000414196
7 *876:37 0.000237724
8 *876:20 0.000473993
9 *876:16 0.000718741
10 *876:4 0.00103135
11 *876:16 *877:27 9.5877e-05
12 *876:16 *878:20 0
13 *876:55 *878:8 4.59027e-05
14 *876:55 *878:20 0
15 *4241:B *4241:A 0.000227221
16 *4241:B *876:16 2.9938e-05
17 *4241:B *876:20 0.00016778
18 *4245:B1 *876:20 5.3304e-05
19 *4522:RESET_B *876:16 0.000137039
20 *4522:RESET_B *876:55 0.000228903
21 *4523:RESET_B *876:16 8.05601e-05
22 *4523:RESET_B *876:55 0
23 *4524:CLK *876:16 0.000111852
24 *4524:CLK *876:55 0
25 *4530:CLK *876:16 3.44502e-05
26 *4630:A *876:37 0.000194309
27 *223:10 *876:37 0
28 *371:8 *4241:A 7.53384e-06
29 *450:10 *876:16 0
30 *450:10 *876:37 0.000206577
31 *586:43 *876:37 0
32 *663:10 *876:55 0
33 *855:10 *4241:A 5.41288e-05
34 *855:10 *876:20 6.17437e-06
35 *856:8 *876:16 0.000192681
*RES
1 *4522:Q *876:4 23 
2 *876:4 *876:16 42.7393 
3 *876:16 *876:20 2.54786 
4 *876:20 *4241:A 26.6457 
5 *876:20 *876:37 35.4271 
6 *876:37 *4007:A 23 
7 *876:16 *4246:A1 23 
8 *876:4 *876:55 37.6021 
9 *876:55 *4008:A 23 
*END

*D_NET *877 0.00278529
*CONN
*I *4008:B I *D sky130_fd_sc_hd__or4_2
*I *4246:A2 I *D sky130_fd_sc_hd__o31ai_2
*I *4244:A I *D sky130_fd_sc_hd__xnor2_2
*I *4523:Q O *D sky130_fd_sc_hd__dfrtp_2
*CAP
1 *4008:B 6.37251e-05
2 *4246:A2 0
3 *4244:A 0
4 *4523:Q 0
5 *877:27 0.000194243
6 *877:14 0.000355523
7 *877:6 0.000907571
8 *877:4 0.00042153
9 *4008:B *878:20 4.95081e-05
10 *877:6 *878:20 2.93845e-05
11 *4241:B *877:27 5.25848e-05
12 *4245:B1 *877:27 2.76611e-06
13 *4523:CLK *877:14 1.02387e-05
14 *4523:RESET_B *877:6 2.93747e-05
15 *223:10 *877:14 1.37349e-05
16 *373:12 *877:14 0.000114083
17 *450:10 *877:27 0
18 *586:18 *877:14 0.000169674
19 *856:8 *877:27 0.000275473
20 *876:16 *877:27 9.5877e-05
*RES
1 *4523:Q *877:4 23 
2 *877:4 *877:6 4.43286 
3 *877:6 *877:14 35.7379 
4 *877:14 *4244:A 23 
5 *877:6 *877:27 34.7643 
6 *877:27 *4246:A2 23 
7 *877:4 *4008:B 24.0979 
*END

*D_NET *878 0.0010921
*CONN
*I *4008:C I *D sky130_fd_sc_hd__or4_2
*I *4246:B1 I *D sky130_fd_sc_hd__o31ai_2
*I *4524:Q O *D sky130_fd_sc_hd__dfrtp_2
*CAP
1 *4008:C 0
2 *4246:B1 0
3 *4524:Q 7.06841e-05
4 *878:20 0.000253395
5 *878:12 0.000361497
6 *878:8 0.000178785
7 *4008:B *878:20 4.95081e-05
8 *4008:D *878:20 2.93747e-05
9 *4523:RESET_B *878:20 4.6318e-06
10 *224:6 *878:12 2.30292e-05
11 *663:10 *878:8 4.59027e-05
12 *876:16 *878:20 0
13 *876:55 *878:8 4.59027e-05
14 *876:55 *878:20 0
15 *877:6 *878:20 2.93845e-05
*RES
1 *4524:Q *878:8 39.9057 
2 *878:8 *878:12 17.0507 
3 *878:12 *878:20 35.1371 
4 *878:20 *4246:B1 23 
5 *878:12 *4008:C 23 
*END

*D_NET *879 0.00436816
*CONN
*I *4255:A1 I *D sky130_fd_sc_hd__o31a_2
*I *4249:A I *D sky130_fd_sc_hd__nor2_2
*I *4250:A I *D sky130_fd_sc_hd__nand2_2
*I *4009:A I *D sky130_fd_sc_hd__or3_2
*I *4525:Q O *D sky130_fd_sc_hd__dfrtp_2
*CAP
1 *4255:A1 0.000134995
2 *4249:A 3.12782e-05
3 *4250:A 6.20769e-05
4 *4009:A 0
5 *4525:Q 0.000380771
6 *879:25 0.00105813
7 *879:21 0.00117867
8 *879:10 0.000459668
9 *4255:A1 *881:8 4.00259e-06
10 *4255:A1 *881:16 1.32314e-05
11 *879:10 *4255:A2 3.85353e-05
12 *879:10 *880:10 4.334e-05
13 *879:10 *881:16 1.05441e-05
14 *879:21 *4255:A2 6.14637e-05
15 *879:21 *881:16 0.000124437
16 *879:25 *881:8 3.34129e-05
17 *879:25 *881:16 2.02872e-05
18 *4255:A3 *4255:A1 1.32939e-05
19 *4255:A3 *879:25 4.32626e-05
20 *4527:D *879:25 5.3304e-05
21 *224:49 *879:25 4.58535e-05
22 *224:59 *4249:A 2.55642e-05
23 *224:59 *4250:A 0.000140383
24 *224:59 *879:25 9.67842e-05
25 *458:8 *879:10 0
26 *458:18 *879:10 5.01247e-05
27 *494:66 *879:25 4.56219e-05
28 *663:57 *4249:A 2.96154e-05
29 *663:57 *4250:A 6.49713e-05
30 *663:87 *879:10 0.000104536
31 *679:83 *879:10 0
*RES
1 *4525:Q *879:10 45.1257 
2 *879:10 *4009:A 38 
3 *879:10 *879:21 16.9057 
4 *879:21 *879:25 27.5321 
5 *879:25 *4250:A 39.9057 
6 *879:25 *4249:A 38.8493 
7 *879:21 *4255:A1 25.5686 
*END

*D_NET *880 0.00166577
*CONN
*I *4255:A2 I *D sky130_fd_sc_hd__o31a_2
*I *4253:A I *D sky130_fd_sc_hd__xnor2_2
*I *4009:B I *D sky130_fd_sc_hd__or3_2
*I *4526:Q O *D sky130_fd_sc_hd__dfrtp_2
*CAP
1 *4255:A2 0.000208553
2 *4253:A 0.00020964
3 *4009:B 0
4 *4526:Q 0.000103009
5 *880:14 0.000259871
6 *880:10 0.000361793
7 *4255:A2 *881:16 1.69668e-05
8 *4646:A *880:10 6.17437e-06
9 *3:14 *4255:A2 0
10 *225:14 *4253:A 0.000167421
11 *225:14 *880:14 3.70071e-06
12 *458:12 *880:10 2.93747e-05
13 *663:87 *4253:A 9.91798e-05
14 *679:83 *4255:A2 1.83667e-05
15 *679:83 *880:10 3.83778e-05
16 *879:10 *4255:A2 3.85353e-05
17 *879:10 *880:10 4.334e-05
18 *879:21 *4255:A2 6.14637e-05
*RES
1 *4526:Q *880:10 39.8229 
2 *880:10 *880:14 15.6214 
3 *880:14 *4009:B 23 
4 *880:14 *4253:A 28.4479 
5 *880:10 *4255:A2 41.6664 
*END

*D_NET *881 0.000754565
*CONN
*I *4255:B1 I *D sky130_fd_sc_hd__o31a_2
*I *4009:C I *D sky130_fd_sc_hd__or3_2
*I *4527:Q O *D sky130_fd_sc_hd__dfrtp_2
*CAP
1 *4255:B1 0
2 *4009:C 0
3 *4527:Q 5.00228e-05
4 *881:16 0.000174921
5 *881:8 0.000224943
6 *4255:A1 *881:8 4.00259e-06
7 *4255:A1 *881:16 1.32314e-05
8 *4255:A2 *881:16 1.69668e-05
9 *4255:A3 *881:8 8.1796e-05
10 *458:8 *881:16 0
11 *879:10 *881:16 1.05441e-05
12 *879:21 *881:16 0.000124437
13 *879:25 *881:8 3.34129e-05
14 *879:25 *881:16 2.02872e-05
*RES
1 *4527:Q *881:8 25.0714 
2 *881:8 *881:16 33.2314 
3 *881:16 *4009:C 23 
4 *881:8 *4255:B1 23 
*END

*D_NET *882 0.00252051
*CONN
*I *4258:A I *D sky130_fd_sc_hd__xnor2_2
*I *4260:A1 I *D sky130_fd_sc_hd__o31a_2
*I *4011:A I *D sky130_fd_sc_hd__or4_2
*I *4528:Q O *D sky130_fd_sc_hd__dfrtp_2
*CAP
1 *4258:A 0
2 *4260:A1 0.000284835
3 *4011:A 0.00049933
4 *4528:Q 0.000236539
5 *882:19 0.000405409
6 *882:6 0.000856442
7 *224:23 *4011:A 3.7122e-06
8 *225:20 *4260:A1 5.50049e-05
9 *226:26 *4260:A1 0
10 *383:8 *4260:A1 1.5769e-05
11 *383:12 *882:19 0
12 *682:14 *4260:A1 8.68575e-05
13 *682:14 *882:19 7.66085e-05
*RES
1 *4528:Q *882:6 26.9564 
2 *882:6 *4011:A 30.7886 
3 *882:6 *882:19 17.9621 
4 *882:19 *4260:A1 43.8414 
5 *882:19 *4258:A 38 
*END

*D_NET *883 0.0033822
*CONN
*I *4209:B I *D sky130_fd_sc_hd__and2_2
*I *3999:B I *D sky130_fd_sc_hd__nor2_2
*I *4214:A2 I *D sky130_fd_sc_hd__o31ai_2
*I *4000:B I *D sky130_fd_sc_hd__or4_2
*I *4510:Q O *D sky130_fd_sc_hd__dfrtp_2
*CAP
1 *4209:B 0
2 *3999:B 0.000108829
3 *4214:A2 0
4 *4000:B 0.000228304
5 *4510:Q 0
6 *883:34 0.000409981
7 *883:10 0.000759819
8 *883:4 0.000832668
9 *4000:B *4000:C 1.12268e-05
10 *4173:A1 *883:34 0
11 *4215:B *4000:B 6.51997e-06
12 *215:26 *4000:B 2.95423e-05
13 *215:32 *4000:B 0.000214412
14 *215:32 *883:10 0.00015682
15 *351:8 *883:34 4.08537e-05
16 *353:12 *4000:B 5.82853e-05
17 *597:43 *4000:B 0.00024105
18 *597:43 *883:10 0.00016596
19 *597:52 *883:10 2.64616e-05
20 *872:8 *883:34 0
21 *872:53 *3999:B 9.14681e-05
*RES
1 *4510:Q *883:4 23 
2 *883:4 *883:10 23.12 
3 *883:10 *4000:B 43.2407 
4 *883:10 *4214:A2 38 
5 *883:4 *883:34 19.785 
6 *883:34 *3999:B 40.61 
7 *883:34 *4209:B 38 
*END

*D_NET *884 0.00192588
*CONN
*I *4011:B I *D sky130_fd_sc_hd__or4_2
*I *4260:B1 I *D sky130_fd_sc_hd__o31a_2
*I *4529:Q O *D sky130_fd_sc_hd__dfrtp_2
*CAP
1 *4011:B 0
2 *4260:B1 0.000289089
3 *4529:Q 0.000136618
4 *884:10 0.000425707
5 *4011:C *4260:B1 4.50117e-05
6 *92:14 *884:10 3.71251e-05
7 *224:29 *4260:B1 0.000181412
8 *224:39 *4260:B1 2.4754e-05
9 *225:26 *4260:B1 0.000111393
10 *225:34 *4260:B1 0.000439039
11 *226:26 *4260:B1 0.000139352
12 *227:10 *884:10 0
13 *494:60 *4260:B1 4.07715e-05
14 *494:60 *884:10 4.08537e-05
15 *494:66 *4260:B1 1.47563e-05
*RES
1 *4529:Q *884:10 40.2993 
2 *884:10 *4260:B1 47.5079 
3 *884:10 *4011:B 38 
*END

*D_NET *885 0.00360663
*CONN
*I *3843:A I *D sky130_fd_sc_hd__inv_2
*I *4012:A I *D sky130_fd_sc_hd__nor2_2
*I *4788:A I *D sky130_fd_sc_hd__dlygate4sd3_1
*I *4530:Q O *D sky130_fd_sc_hd__dfrtp_2
*CAP
1 *3843:A 0.00030377
2 *4012:A 0.000232929
3 *4788:A 2.79296e-05
4 *4530:Q 0.000109312
5 *885:19 0.000663253
6 *885:8 0.000263796
7 *4529:D *3843:A 0
8 *4529:D *885:8 0
9 *4529:D *885:19 0
10 *61:10 *4012:A 0.000187129
11 *107:24 *3843:A 0.000267173
12 *228:6 *4012:A 0.000914085
13 *350:12 *4788:A 5.50049e-05
14 *383:12 *3843:A 6.43253e-05
15 *383:12 *885:8 4.13358e-05
16 *383:12 *885:19 5.86225e-05
17 *449:266 *4012:A 0.000221907
18 *494:6 *4012:A 4.2573e-05
19 *494:12 *4012:A 9.84794e-05
20 *862:8 *3843:A 5.50049e-05
*RES
1 *4530:Q *885:8 39.9057 
2 *885:8 *4788:A 38.6214 
3 *885:8 *885:19 2.61 
4 *885:19 *4012:A 48.6471 
5 *885:19 *3843:A 44.815 
*END

*D_NET *886 0.00276099
*CONN
*I *4212:A I *D sky130_fd_sc_hd__xnor2_2
*I *4214:A3 I *D sky130_fd_sc_hd__o31ai_2
*I *4000:C I *D sky130_fd_sc_hd__or4_2
*I *4511:Q O *D sky130_fd_sc_hd__dfrtp_2
*CAP
1 *4212:A 0
2 *4214:A3 0
3 *4000:C 0.000116338
4 *4511:Q 0.000403242
5 *886:31 7.66584e-05
6 *886:14 0.000265284
7 *886:12 7.22882e-05
8 *886:10 0.000403242
9 *4000:C *4000:D 0.000223077
10 *886:10 *887:8 3.97982e-05
11 *886:14 *4000:D 0.000224414
12 *4000:B *4000:C 1.12268e-05
13 *4215:B *886:31 0.000162263
14 *215:10 *886:10 4.41821e-06
15 *215:26 *4000:C 0.000137533
16 *215:26 *886:14 8.55549e-05
17 *353:12 *4000:C 0.000136777
18 *597:43 *886:14 6.72382e-05
19 *597:43 *886:31 0.000189903
20 *679:34 *886:10 7.74127e-05
21 *679:34 *886:31 8.52094e-06
22 *872:24 *4000:C 5.58003e-05
*RES
1 *4511:Q *886:10 44.2143 
2 *886:10 *886:12 15 
3 *886:12 *886:14 2.52714 
4 *886:14 *4000:C 27.1221 
5 *886:14 *886:31 32.61 
6 *886:31 *4214:A3 23 
7 *886:12 *4212:A 23 
*END

*D_NET *887 0.00262792
*CONN
*I *4214:B1 I *D sky130_fd_sc_hd__o31ai_2
*I *4000:D I *D sky130_fd_sc_hd__or4_2
*I *4512:Q O *D sky130_fd_sc_hd__dfrtp_2
*CAP
1 *4214:B1 0.00019512
2 *4000:D 0.000342533
3 *4512:Q 0.000330749
4 *887:8 0.000868402
5 *4000:C *4000:D 0.000223077
6 *215:10 *4000:D 5.3304e-05
7 *215:10 *4214:B1 2.45092e-05
8 *215:10 *887:8 3.673e-05
9 *577:6 *4214:B1 2.95423e-05
10 *597:43 *4000:D 5.32148e-05
11 *872:8 *4214:B1 8.0612e-06
12 *872:14 *4214:B1 5.5792e-05
13 *872:40 *4214:B1 0.000142678
14 *886:10 *887:8 3.97982e-05
15 *886:14 *4000:D 0.000224414
*RES
1 *4512:Q *887:8 43.4271 
2 *887:8 *4000:D 44.3386 
3 *887:8 *4214:B1 41.9564 
*END

*D_NET *888 0.00234059
*CONN
*I *4002:A I *D sky130_fd_sc_hd__or4_2
*I *4001:A I *D sky130_fd_sc_hd__nor2_2
*I *4217:A I *D sky130_fd_sc_hd__and2_2
*I *4222:A1 I *D sky130_fd_sc_hd__o31ai_2
*I *4513:Q O *D sky130_fd_sc_hd__dfrtp_2
*CAP
1 *4002:A 5.56923e-05
2 *4001:A 0
3 *4217:A 0
4 *4222:A1 0.000188227
5 *4513:Q 0.000320623
6 *888:46 0.00030985
7 *888:12 0.000438733
8 *888:8 0.000316971
9 *4002:A *4002:C 5.67058e-05
10 *888:46 *4002:B 8.62876e-05
11 *4222:A3 *4222:A1 0.000225911
12 *4519:RESET_B *888:46 4.17929e-05
13 *216:42 *4222:A1 1.39826e-05
14 *216:42 *888:12 0.000195836
15 *217:10 *888:8 3.46216e-05
16 *217:10 *888:46 1.04049e-05
17 *359:12 *888:46 0
18 *674:79 *888:46 9.29579e-06
19 *868:10 *888:46 3.56537e-05
*RES
1 *4513:Q *888:8 24.595 
2 *888:8 *888:12 20.4271 
3 *888:12 *4222:A1 42.5364 
4 *888:12 *4217:A 38 
5 *888:8 *4001:A 23 
6 *4513:Q *888:46 42.3086 
7 *888:46 *4002:A 39.0979 
*END

*D_NET *889 0.00280345
*CONN
*I *4002:B I *D sky130_fd_sc_hd__or4_2
*I *4220:A I *D sky130_fd_sc_hd__xnor2_2
*I *4222:A2 I *D sky130_fd_sc_hd__o31ai_2
*I *4514:Q O *D sky130_fd_sc_hd__dfrtp_2
*CAP
1 *4002:B 0.000175067
2 *4220:A 0.000278912
3 *4222:A2 0.000188402
4 *4514:Q 0.000131185
5 *889:21 0.000541664
6 *889:8 0.000407271
7 *4220:A *890:8 0.000171817
8 *4222:A3 *4222:A2 5.5792e-05
9 *4514:RESET_B *4002:B 6.43792e-05
10 *4514:RESET_B *4222:A2 0.00011965
11 *4514:RESET_B *889:8 9.29579e-06
12 *4514:RESET_B *889:21 0.000135616
13 *4515:CLK *4220:A 0.000124874
14 *4519:RESET_B *4002:B 0.000184583
15 *674:81 *4002:B 0.000128654
16 *868:10 *4002:B 0
17 *888:46 *4002:B 8.62876e-05
*RES
1 *4514:Q *889:8 39.5743 
2 *889:8 *4222:A2 42.2879 
3 *889:8 *889:21 1.90571 
4 *889:21 *4220:A 44.3593 
5 *889:21 *4002:B 43.075 
*END

*D_NET *890 0.00375047
*CONN
*I *4002:C I *D sky130_fd_sc_hd__or4_2
*I *4222:B1 I *D sky130_fd_sc_hd__o31ai_2
*I *4515:Q O *D sky130_fd_sc_hd__dfrtp_2
*CAP
1 *4002:C 0.000378797
2 *4222:B1 0.000120086
3 *4515:Q 0.000709903
4 *890:8 0.00120879
5 *4002:A *4002:C 5.67058e-05
6 *4220:A *890:8 0.000171817
7 *217:10 *4002:C 3.56295e-05
8 *217:18 *4002:C 2.271e-05
9 *217:18 *4222:B1 9.44325e-05
10 *359:12 *4002:C 0.000479688
11 *359:12 *4222:B1 0.000328094
12 *575:18 *4002:C 0
13 *575:24 *4002:C 0
14 *661:18 *4002:C 6.17437e-06
15 *868:10 *4002:C 0.000137651
*RES
1 *4515:Q *890:8 47.1971 
2 *890:8 *4222:B1 42.3707 
3 *890:8 *4002:C 47.0107 
*END

*D_NET *891 0.00415789
*CONN
*I *4230:A1 I *D sky130_fd_sc_hd__o31ai_2
*I *4004:A I *D sky130_fd_sc_hd__or4_2
*I *4003:A I *D sky130_fd_sc_hd__nor2_2
*I *4225:A I *D sky130_fd_sc_hd__and2_2
*I *4516:Q O *D sky130_fd_sc_hd__dfrtp_2
*CAP
1 *4230:A1 6.69528e-05
2 *4004:A 0
3 *4003:A 0.000527567
4 *4225:A 0.000151203
5 *4516:Q 0.000251951
6 *891:42 0.000221724
7 *891:21 0.000765236
8 *891:10 0.000486053
9 *4230:A1 *4004:C 0.000168744
10 *4230:A1 *893:8 2.77955e-05
11 *4230:A1 *894:12 0
12 *891:42 *4004:C 3.70187e-05
13 *4003:B *4003:A 7.62249e-05
14 *4225:B *4225:A 0.000186108
15 *4229:B1 *4003:A 0.000101795
16 *4513:RESET_B *891:10 3.95707e-06
17 *4516:RESET_B *891:10 3.25066e-05
18 *218:56 *4003:A 5.97265e-06
19 *219:8 *4003:A 1.24376e-05
20 *575:53 *4003:A 2.94787e-05
21 *661:59 *4003:A 0.000208184
22 *674:53 *4230:A1 0.000155059
23 *674:53 *891:10 0.000167443
24 *674:53 *891:21 0.000129504
25 *674:53 *891:42 0.000289053
26 *870:10 *4003:A 5.59219e-05
*RES
1 *4516:Q *891:10 42.3086 
2 *891:10 *4225:A 41.0036 
3 *891:10 *891:21 1.90571 
4 *891:21 *4003:A 46.9486 
5 *891:21 *891:42 4.01857 
6 *891:42 *4004:A 38 
7 *891:42 *4230:A1 40.61 
*END

*D_NET *892 0.0016802
*CONN
*I *4230:A2 I *D sky130_fd_sc_hd__o31ai_2
*I *4228:A I *D sky130_fd_sc_hd__xnor2_2
*I *4004:B I *D sky130_fd_sc_hd__or4_2
*I *4517:Q O *D sky130_fd_sc_hd__dfrtp_2
*CAP
1 *4230:A2 0.000178122
2 *4228:A 0.000200044
3 *4004:B 0
4 *4517:Q 0.000326764
5 *892:12 0.000200044
6 *892:10 0.000148641
7 *4230:A2 *4230:B1 2.93845e-05
8 *892:10 *894:12 0.000222104
9 *4004:D *4228:A 6.17437e-06
10 *4230:A3 *4230:A2 0
11 *218:33 *4230:A2 2.06822e-05
12 *218:33 *892:10 0.000101708
13 *218:35 *892:10 0.000117244
14 *674:53 *4230:A2 7.59794e-05
15 *674:53 *892:10 5.3304e-05
*RES
1 *4517:Q *892:10 41.5836 
2 *892:10 *892:12 15 
3 *892:12 *4004:B 23 
4 *892:12 *4228:A 26.3971 
5 *4517:Q *4230:A2 49.5007 
*END

*D_NET *893 0.00159319
*CONN
*I *4230:B1 I *D sky130_fd_sc_hd__o31ai_2
*I *4004:C I *D sky130_fd_sc_hd__or4_2
*I *4518:Q O *D sky130_fd_sc_hd__dfrtp_2
*CAP
1 *4230:B1 8.1267e-05
2 *4004:C 0.000198669
3 *4518:Q 0.000157133
4 *893:8 0.000437069
5 *893:8 *894:12 0
6 *4230:A1 *4004:C 0.000168744
7 *4230:A1 *893:8 2.77955e-05
8 *4230:A2 *4230:B1 2.93845e-05
9 *4230:A3 *4230:B1 0.000141954
10 *218:33 *4230:B1 0.000314157
11 *220:10 *4004:C 0
12 *220:10 *893:8 0
13 *364:10 *893:8 0
14 *891:42 *4004:C 3.70187e-05
*RES
1 *4518:Q *893:8 40.61 
2 *893:8 *4004:C 41.7079 
3 *893:8 *4230:B1 41.48 
*END

*D_NET *894 0.00425487
*CONN
*I *4600:A I *D sky130_fd_sc_hd__buf_2
*I *3998:Y O *D sky130_fd_sc_hd__inv_2
*CAP
1 *4600:A 0
2 *3998:Y 0.000110665
3 *894:12 0.00102791
4 *894:8 0.00113858
5 *4225:B *894:12 0.000116424
6 *4230:A1 *894:12 0
7 *4518:RESET_B *894:12 0.000379422
8 *218:35 *894:12 3.01561e-05
9 *218:56 *894:12 0
10 *364:10 *894:12 0
11 *619:75 *894:8 9.91798e-05
12 *661:78 *894:12 0.000845553
13 *674:53 *894:12 9.58724e-05
14 *869:10 *894:12 0.000189005
15 *892:10 *894:12 0.000222104
16 *893:8 *894:12 0
*RES
1 *3998:Y *894:8 40.0507 
2 *894:8 *894:12 40.1471 
3 *894:12 *4600:A 23 
*END

*D_NET *895 0.000658729
*CONN
*I *4487:D I *D sky130_fd_sc_hd__dfrtp_2
*I *4264:Y O *D sky130_fd_sc_hd__nor2_2
*CAP
1 *4487:D 0.000153562
2 *4264:Y 9.22411e-05
3 *895:8 0.000245803
4 *619:75 *895:8 0.000167123
*RES
1 *4264:Y *895:8 40.2579 
2 *895:8 *4487:D 40.5271 
*END

*D_NET *896 0.000822497
*CONN
*I *4497:D I *D sky130_fd_sc_hd__dfrtp_2
*I *4284:Y O *D sky130_fd_sc_hd__a21oi_2
*CAP
1 *4497:D 0.000216569
2 *4284:Y 0.000123748
3 *896:8 0.000340317
4 *4497:D *918:35 7.43212e-05
5 *896:8 *918:35 8.16757e-06
6 *496:22 *896:8 5.93746e-05
*RES
1 *4284:Y *896:8 40.2579 
2 *896:8 *4497:D 41.9564 
*END

*D_NET *897 0.00248626
*CONN
*I *4498:D I *D sky130_fd_sc_hd__dfrtp_2
*I *4286:Y O *D sky130_fd_sc_hd__a21oi_2
*CAP
1 *4498:D 0.000224097
2 *4286:Y 0.000555108
3 *897:14 0.000779204
4 *897:14 *918:8 0.00018309
5 *4286:A1 *897:14 0.000187323
6 *4498:RESET_B *897:14 1.12919e-05
7 *203:38 *4498:D 3.7122e-06
8 *395:8 *897:14 0.000207408
9 *615:10 *897:14 1.63467e-05
10 *683:36 *897:14 0.00031868
*RES
1 *4286:Y *897:14 49.0614 
2 *897:14 *4498:D 41.9564 
*END

*D_NET *898 0.000832432
*CONN
*I *4499:D I *D sky130_fd_sc_hd__dfrtp_2
*I *4288:Y O *D sky130_fd_sc_hd__a21oi_2
*CAP
1 *4499:D 2.75294e-05
2 *4288:Y 0.000246682
3 *898:10 0.000274211
4 *4499:D *920:32 5.55391e-05
5 *898:10 *920:44 9.64495e-05
6 *4288:A1 *898:10 0.000117343
7 *4499:RESET_B *898:10 4.2812e-06
8 *496:72 *898:10 1.03972e-05
*RES
1 *4288:Y *898:10 42.0807 
2 *898:10 *4499:D 38.6214 
*END

*D_NET *899 0.000528812
*CONN
*I *4500:D I *D sky130_fd_sc_hd__dfrtp_2
*I *4290:Y O *D sky130_fd_sc_hd__a21oi_2
*CAP
1 *4500:D 0.000208661
2 *4290:Y 0.000208661
3 *4500:CLK *4500:D 9.97406e-05
4 *207:12 *4500:D 1.17505e-05
*RES
1 *4290:Y *4500:D 49.0243 
*END

*D_NET *900 0.00240908
*CONN
*I *4501:D I *D sky130_fd_sc_hd__dfrtp_2
*I *4292:Y O *D sky130_fd_sc_hd__a21oi_2
*CAP
1 *4501:D 0.000329337
2 *4292:Y 0.00076018
3 *900:8 0.00108952
4 *4456:CLK *900:8 5.25022e-05
5 *4456:RESET_B *900:8 9.3307e-05
6 *4501:RESET_B *4501:D 0
7 *4704:A *4501:D 0
8 *208:24 *900:8 3.2527e-05
9 *467:8 *4501:D 0
10 *685:8 *900:8 1.92678e-05
11 *685:21 *4501:D 0
12 *692:10 *4501:D 0
13 *731:10 *4501:D 3.24466e-05
*RES
1 *4292:Y *900:8 47.6736 
2 *900:8 *4501:D 44.1314 
*END

*D_NET *901 0.00162892
*CONN
*I *4502:D I *D sky130_fd_sc_hd__dfrtp_2
*I *4294:Y O *D sky130_fd_sc_hd__a21oi_2
*CAP
1 *4502:D 0.000153562
2 *4294:Y 0.000230442
3 *901:10 0.000384004
4 *901:10 *4297:A1 0.000186206
5 *4294:A2 *901:10 1.59071e-05
6 *4294:B1 *901:10 9.64943e-05
7 *209:8 *901:10 0.000216567
8 *209:32 *901:10 0.000154843
9 *401:10 *901:10 0.000137594
10 *620:10 *901:10 5.3304e-05
*RES
1 *4294:Y *901:10 44.6493 
2 *901:10 *4502:D 40.5271 
*END

*D_NET *902 0.000446204
*CONN
*I *4503:D I *D sky130_fd_sc_hd__dfrtp_2
*I *4296:Y O *D sky130_fd_sc_hd__a21oi_2
*CAP
1 *4503:D 0.000110691
2 *4296:Y 0.000110691
3 *4503:D *924:8 5.56356e-05
4 *4503:CLK *4503:D 0.000102389
5 *630:25 *4503:D 6.67968e-05
*RES
1 *4296:Y *4503:D 48.5271 
*END

*D_NET *903 0.00151752
*CONN
*I *4504:D I *D sky130_fd_sc_hd__dfrtp_2
*I *4298:Y O *D sky130_fd_sc_hd__a21oi_2
*CAP
1 *4504:D 0
2 *4298:Y 0.000485487
3 *903:10 0.000485487
4 *903:10 *3992:A 0.000144494
5 *4298:A1 *903:10 4.21281e-05
6 *208:30 *903:10 5.14746e-06
7 *399:8 *903:10 0.000354778
8 *635:8 *903:10 0
*RES
1 *4298:Y *903:10 46.6793 
2 *903:10 *4504:D 38 
*END

*D_NET *904 0.00175356
*CONN
*I *4505:D I *D sky130_fd_sc_hd__dfrtp_2
*I *4301:Y O *D sky130_fd_sc_hd__a21oi_2
*CAP
1 *4505:D 0
2 *4301:Y 0.00082643
3 *904:8 0.00082643
4 *4301:A1 *904:8 6.17437e-06
5 *4505:RESET_B *904:8 4.70852e-05
6 *642:84 *904:8 3.16665e-05
7 *642:90 *904:8 1.5769e-05
*RES
1 *4301:Y *904:8 33.1707 
2 *904:8 *4505:D 23 
*END

*D_NET *905 0.000900375
*CONN
*I *4506:D I *D sky130_fd_sc_hd__dfrtp_2
*I *4303:Y O *D sky130_fd_sc_hd__a21oi_2
*CAP
1 *4506:D 0
2 *4303:Y 0.000140621
3 *905:6 0.000140621
4 *905:6 *4300:A 0.000389772
5 *4303:A1 *905:6 5.67058e-05
6 *4303:B1 *905:6 5.50049e-05
7 *4506:CLK *905:6 7.28721e-05
8 *211:42 *905:6 2.44913e-05
9 *403:10 *905:6 2.02872e-05
*RES
1 *4303:Y *905:6 27.4329 
2 *905:6 *4506:D 23 
*END

*D_NET *906 0.000519191
*CONN
*I *4488:D I *D sky130_fd_sc_hd__dfrtp_2
*I *4266:Y O *D sky130_fd_sc_hd__a21oi_2
*CAP
1 *4488:D 9.52843e-05
2 *4266:Y 9.52843e-05
3 *4266:A1 *4488:D 0.000229797
4 *4488:CLK *4488:D 9.88259e-05
*RES
1 *4266:Y *4488:D 48.5271 
*END

*D_NET *907 0.000429774
*CONN
*I *4507:D I *D sky130_fd_sc_hd__dfrtp_2
*I *4305:X O *D sky130_fd_sc_hd__mux2_1
*CAP
1 *4507:D 0
2 *4305:X 0.000167831
3 *907:10 0.000167831
4 *907:10 *4299:A 5.82768e-05
5 *213:20 *907:10 3.7122e-06
6 *405:20 *907:10 3.21223e-05
*RES
1 *4305:X *907:10 40.6514 
2 *907:10 *4507:D 38 
*END

*D_NET *908 0.000572428
*CONN
*I *4508:D I *D sky130_fd_sc_hd__dfrtp_2
*I *4306:X O *D sky130_fd_sc_hd__and2_2
*CAP
1 *4508:D 0
2 *4306:X 0.000267145
3 *908:10 0.000267145
4 *468:69 *908:10 3.81391e-05
*RES
1 *4306:X *908:10 42.0807 
2 *908:10 *4508:D 38 
*END

*D_NET *909 0.00105651
*CONN
*I *4489:D I *D sky130_fd_sc_hd__dfrtp_2
*I *4268:Y O *D sky130_fd_sc_hd__a21oi_2
*CAP
1 *4489:D 9.80492e-05
2 *4268:Y 0.00025948
3 *909:8 0.000357529
4 *909:8 *928:10 0.000111462
5 *386:16 *909:8 0.000131083
6 *619:56 *909:8 3.5259e-05
7 *619:95 *4489:D 6.36464e-05
*RES
1 *4268:Y *909:8 43.4271 
2 *909:8 *4489:D 40.0507 
*END

*D_NET *910 0.000197669
*CONN
*I *4490:D I *D sky130_fd_sc_hd__dfrtp_2
*I *4270:Y O *D sky130_fd_sc_hd__a21oi_2
*CAP
1 *4490:D 0
2 *4270:Y 7.21025e-05
3 *910:8 7.21025e-05
4 *386:16 *910:8 5.34638e-05
*RES
1 *4270:Y *910:8 39.5536 
2 *910:8 *4490:D 38 
*END

*D_NET *911 0.00090188
*CONN
*I *4491:D I *D sky130_fd_sc_hd__dfrtp_2
*I *4272:Y O *D sky130_fd_sc_hd__a21oi_2
*CAP
1 *4491:D 0.00016515
2 *4272:Y 0.000153334
3 *911:10 0.000318484
4 *4272:B1 *911:10 0.000100061
5 *196:22 *911:10 0.000164851
*RES
1 *4272:Y *911:10 41.3557 
2 *911:10 *4491:D 41.0036 
*END

*D_NET *912 0.00122688
*CONN
*I *4492:D I *D sky130_fd_sc_hd__dfrtp_2
*I *4274:Y O *D sky130_fd_sc_hd__a21oi_2
*CAP
1 *4492:D 0
2 *4274:Y 0.000195865
3 *912:10 0.000195865
4 *196:22 *912:10 0.000348686
5 *619:25 *912:10 1.08287e-05
6 *619:29 *912:10 0.000100069
7 *619:44 *912:10 0.000375564
*RES
1 *4274:Y *912:10 44.2971 
2 *912:10 *4492:D 38 
*END

*D_NET *913 0.000514658
*CONN
*I *4493:D I *D sky130_fd_sc_hd__dfrtp_2
*I *4276:Y O *D sky130_fd_sc_hd__a21oi_2
*CAP
1 *4493:D 0
2 *4276:Y 0.000152145
3 *913:10 0.000152145
4 *3981:B *913:10 4.06849e-05
5 *4276:B1 *913:10 0.000169683
6 *488:10 *913:10 0
*RES
1 *4276:Y *913:10 41.3557 
2 *913:10 *4493:D 38 
*END

*D_NET *914 0.000407443
*CONN
*I *4494:D I *D sky130_fd_sc_hd__dfrtp_2
*I *4278:Y O *D sky130_fd_sc_hd__a21oi_2
*CAP
1 *4494:D 0
2 *4278:Y 0.000181724
3 *914:10 0.000181724
4 *4277:B *914:10 0
5 *4278:A2 *914:10 4.39949e-05
6 *200:8 *914:10 0
7 *619:10 *914:10 0
*RES
1 *4278:Y *914:10 41.3557 
2 *914:10 *4494:D 38 
*END

*D_NET *915 0.000580706
*CONN
*I *4495:D I *D sky130_fd_sc_hd__dfrtp_2
*I *4280:Y O *D sky130_fd_sc_hd__a21oi_2
*CAP
1 *4495:D 0
2 *4280:Y 0.000149256
3 *915:10 0.000149256
4 *642:57 *915:10 5.79559e-05
5 *642:65 *915:10 0.000224237
*RES
1 *4280:Y *915:10 41.3557 
2 *915:10 *4495:D 38 
*END

*D_NET *916 0.00141606
*CONN
*I *4496:D I *D sky130_fd_sc_hd__dfrtp_2
*I *4282:Y O *D sky130_fd_sc_hd__a21oi_2
*CAP
1 *4496:D 0.000314865
2 *4282:Y 8.8508e-05
3 *916:8 0.000403373
4 *4495:CLK *916:8 8.89816e-05
5 *4496:CLK *4496:D 0.000110065
6 *496:24 *916:8 0.000164019
7 *642:65 *916:8 0.000246248
*RES
1 *4282:Y *916:8 41.3143 
2 *916:8 *4496:D 42.4536 
*END

*D_NET *917 0.00478362
*CONN
*I *3978:A I *D sky130_fd_sc_hd__or4_2
*I *3976:A I *D sky130_fd_sc_hd__or2_2
*I *4265:A I *D sky130_fd_sc_hd__nand2_2
*I *4850:A I *D sky130_fd_sc_hd__dlygate4sd3_1
*I *4487:Q O *D sky130_fd_sc_hd__dfrtp_2
*CAP
1 *3978:A 0
2 *3976:A 0
3 *4265:A 0.000659912
4 *4850:A 4.24511e-05
5 *4487:Q 0.000283324
6 *917:55 0.000266568
7 *917:42 0.000526776
8 *917:21 0.00103725
9 *917:10 0.000442904
10 *4265:A *4265:B 0.000181778
11 *917:42 *928:10 6.17437e-06
12 *917:42 *928:28 1.22822e-05
13 *917:55 *928:28 5.70419e-05
14 *917:55 *928:43 6.8161e-05
15 *4269:B *917:42 6.16439e-05
16 *4488:RESET_B *917:42 2.4754e-05
17 *4694:A *4265:A 0.000141954
18 *193:10 *917:42 9.5877e-05
19 *194:10 *917:42 0.000163352
20 *386:16 *4265:A 0.000145986
21 *466:6 *4265:A 0.000118392
22 *613:10 *917:42 0.000215791
23 *674:10 *4265:A 0.000231251
24 *677:14 *917:55 0
*RES
1 *4487:Q *917:10 42.3086 
2 *917:10 *4850:A 38.6214 
3 *917:10 *917:21 1.90571 
4 *917:21 *4265:A 48.6679 
5 *917:21 *917:42 21.2143 
6 *917:42 *3976:A 23 
7 *917:42 *917:55 35.6136 
8 *917:55 *3978:A 23 
*END

*D_NET *918 0.00284482
*CONN
*I *4827:A I *D sky130_fd_sc_hd__dlygate4sd3_1
*I *3988:B I *D sky130_fd_sc_hd__or4_2
*I *3987:A I *D sky130_fd_sc_hd__or2_2
*I *4497:Q O *D sky130_fd_sc_hd__dfrtp_2
*CAP
1 *4827:A 0
2 *3988:B 0
3 *3987:A 0.000311281
4 *4497:Q 0.000616707
5 *918:35 0.000486431
6 *918:10 0.000311281
7 *918:8 0.000130275
8 *4497:D *918:35 7.43212e-05
9 *4497:RESET_B *918:35 1.06815e-05
10 *4498:RESET_B *918:8 0.000116314
11 *4498:RESET_B *918:35 2.20111e-05
12 *204:8 *3987:A 0.000279493
13 *204:16 *918:8 6.21538e-05
14 *394:10 *918:35 0.000141975
15 *496:22 *918:35 8.50457e-05
16 *630:64 *918:35 5.58975e-06
17 *896:8 *918:35 8.16757e-06
18 *897:14 *918:8 0.00018309
*RES
1 *4497:Q *918:8 42.0186 
2 *918:8 *918:10 15 
3 *918:10 *3987:A 28.1579 
4 *918:10 *3988:B 23 
5 *4497:Q *918:35 45.2914 
6 *918:35 *4827:A 38 
*END

*D_NET *919 0.00194153
*CONN
*I *4811:A I *D sky130_fd_sc_hd__dlygate4sd3_1
*I *3988:A I *D sky130_fd_sc_hd__or4_2
*I *4498:Q O *D sky130_fd_sc_hd__dfrtp_2
*CAP
1 *4811:A 0.000250058
2 *3988:A 0.000230564
3 *4498:Q 0
4 *919:6 0.000480622
5 *3988:C *3988:A 0.000270392
6 *52:8 *3988:A 0
7 *52:8 *4811:A 0
8 *204:8 *3988:A 0.000232185
9 *205:8 *3988:A 1.57104e-05
10 *205:10 *3988:A 0.000140671
11 *205:10 *4811:A 6.67764e-05
12 *615:10 *4811:A 3.7122e-06
13 *683:72 *3988:A 0.000250839
*RES
1 *4498:Q *919:6 38 
2 *919:6 *3988:A 46.12 
3 *919:6 *4811:A 42.9093 
*END

*D_NET *920 0.00456379
*CONN
*I *3989:A I *D sky130_fd_sc_hd__or2_2
*I *4287:A I *D sky130_fd_sc_hd__nand2_2
*I *3991:B I *D sky130_fd_sc_hd__or4_2
*I *4289:A1 I *D sky130_fd_sc_hd__o21ai_2
*I *4499:Q O *D sky130_fd_sc_hd__dfrtp_2
*CAP
1 *3989:A 0.000235772
2 *4287:A 0
3 *3991:B 0.000122511
4 *4289:A1 9.63308e-05
5 *4499:Q 0.000233916
6 *920:44 0.000113522
7 *920:32 0.000813344
8 *920:10 0.000512071
9 *920:6 0.000991194
10 *3991:B *921:24 5.52998e-05
11 *3989:B *3989:A 5.5792e-05
12 *4288:A1 *920:44 4.36497e-05
13 *4289:A2 *4289:A1 0.000233359
14 *4499:D *920:32 5.55391e-05
15 *4499:RESET_B *920:32 0.000182397
16 *496:72 *920:44 8.57485e-05
17 *630:50 *3991:B 0.000137594
18 *630:50 *920:10 0.000198232
19 *630:52 *920:10 0.000301067
20 *898:10 *920:44 9.64495e-05
*RES
1 *4499:Q *920:6 26.0036 
2 *920:6 *920:10 21.8357 
3 *920:10 *4289:A1 40.5271 
4 *920:10 *3991:B 40.5271 
5 *920:6 *920:32 5.86214 
6 *920:32 *920:44 32.8171 
7 *920:44 *4287:A 23 
8 *920:32 *3989:A 26.0243 
*END

*D_NET *921 0.00317663
*CONN
*I *3990:A I *D sky130_fd_sc_hd__or2_2
*I *4823:A I *D sky130_fd_sc_hd__dlygate4sd3_1
*I *3991:A I *D sky130_fd_sc_hd__or4_2
*I *4500:Q O *D sky130_fd_sc_hd__dfrtp_2
*CAP
1 *3990:A 0.000149701
2 *4823:A 0
3 *3991:A 0
4 *4500:Q 0
5 *921:24 0.000482398
6 *921:12 0.000919741
7 *921:4 0.000587044
8 *921:24 *3991:C 0.000144494
9 *921:24 *922:10 0.000203433
10 *3990:B *3990:A 5.00237e-05
11 *3990:B *921:12 8.26478e-05
12 *3991:B *921:24 5.52998e-05
13 *205:49 *921:24 0.000277792
14 *205:64 *921:24 2.02872e-05
15 *207:12 *3990:A 2.19667e-05
16 *207:12 *921:12 3.45411e-05
17 *467:16 *921:24 6.22284e-05
18 *683:10 *921:12 8.50366e-05
*RES
1 *4500:Q *921:4 23 
2 *921:4 *921:12 36.6907 
3 *921:12 *921:24 41.02 
4 *921:24 *3991:A 23 
5 *921:12 *4823:A 23 
6 *921:4 *3990:A 25.5479 
*END

*D_NET *922 0.000963156
*CONN
*I *3991:C I *D sky130_fd_sc_hd__or4_2
*I *4801:A I *D sky130_fd_sc_hd__dlygate4sd3_1
*I *4501:Q O *D sky130_fd_sc_hd__dfrtp_2
*CAP
1 *3991:C 3.03584e-05
2 *4801:A 0
3 *4501:Q 0.000217218
4 *922:10 0.000186859
5 *205:64 *3991:C 0.000100061
6 *205:64 *922:10 6.48263e-05
7 *467:16 *3991:C 1.59071e-05
8 *921:24 *3991:C 0.000144494
9 *921:24 *922:10 0.000203433
*RES
1 *4501:Q *922:10 41.48 
2 *922:10 *4801:A 38 
3 *4501:Q *3991:C 47.5743 
*END

*D_NET *923 0.00366895
*CONN
*I *3994:A I *D sky130_fd_sc_hd__or4_2
*I *3992:A I *D sky130_fd_sc_hd__or2_2
*I *4829:A I *D sky130_fd_sc_hd__dlygate4sd3_1
*I *4502:Q O *D sky130_fd_sc_hd__dfrtp_2
*CAP
1 *3994:A 0.000370597
2 *3992:A 0.000256102
3 *4829:A 0.000107916
4 *4502:Q 0.000107916
5 *923:18 0.0006267
6 *3994:A *3994:B 0.0004142
7 *3994:A *925:10 0.000243976
8 *3992:B *3992:A 0.000119565
9 *4298:A1 *3992:A 0.000146195
10 *4298:A2 *3992:A 4.93812e-05
11 *4502:RESET_B *4829:A 2.64616e-05
12 *4503:RESET_B *3994:A 0.000370208
13 *208:38 *3994:A 0.000103212
14 *211:10 *3994:A 6.07826e-05
15 *211:25 *4829:A 5.3304e-05
16 *685:21 *3992:A 0.000136486
17 *685:31 *3992:A 0.00010711
18 *685:31 *3994:A 0.000224345
19 *903:10 *3992:A 0.000144494
*RES
1 *4502:Q *4829:A 47.5743 
2 *4502:Q *923:18 38 
3 *923:18 *3992:A 45.2707 
4 *923:18 *3994:A 49.455 
*END

*D_NET *924 0.0037953
*CONN
*I *3994:C I *D sky130_fd_sc_hd__or4_2
*I *4295:A I *D sky130_fd_sc_hd__nand2_2
*I *3993:A I *D sky130_fd_sc_hd__or2_2
*I *4297:A1 I *D sky130_fd_sc_hd__o21ai_2
*I *4503:Q O *D sky130_fd_sc_hd__dfrtp_2
*CAP
1 *3994:C 9.14993e-05
2 *4295:A 1.72917e-05
3 *3993:A 2.35652e-05
4 *4297:A1 0.000325378
5 *4503:Q 0.000693688
6 *924:34 0.000232393
7 *924:23 0.000243601
8 *924:8 0.0011155
9 *3993:B *924:34 5.56279e-05
10 *4503:D *924:8 5.56356e-05
11 *208:38 *3994:C 3.22051e-05
12 *209:12 *4297:A1 0.000144494
13 *209:32 *4297:A1 5.17163e-05
14 *209:32 *924:23 4.587e-05
15 *400:12 *3993:A 5.56279e-05
16 *400:12 *3994:C 2.94787e-05
17 *400:12 *924:34 3.95652e-05
18 *401:10 *4297:A1 5.22448e-05
19 *620:10 *4297:A1 0.000112446
20 *630:25 *4297:A1 0.000191267
21 *901:10 *4297:A1 0.000186206
*RES
1 *4503:Q *924:8 46.2443 
2 *924:8 *4297:A1 46.41 
3 *924:8 *924:23 16.5536 
4 *924:23 *3993:A 23.6214 
5 *924:23 *924:34 2.9 
6 *924:34 *4295:A 23.4971 
7 *924:34 *3994:C 25.0507 
*END

*D_NET *925 0.00268972
*CONN
*I *3994:B I *D sky130_fd_sc_hd__or4_2
*I *4815:A I *D sky130_fd_sc_hd__dlygate4sd3_1
*I *4504:Q O *D sky130_fd_sc_hd__dfrtp_2
*CAP
1 *3994:B 0.000339147
2 *4815:A 3.38653e-05
3 *4504:Q 0.000427179
4 *925:10 0.000800191
5 *3994:A *3994:B 0.0004142
6 *3994:A *925:10 0.000243976
7 *4294:A2 *4815:A 0.000188927
8 *209:12 *925:10 5.3304e-05
9 *630:6 *4815:A 0.000188927
*RES
1 *4504:Q *925:10 46.2236 
2 *925:10 *4815:A 40.0507 
3 *925:10 *3994:B 45.105 
*END

*D_NET *926 0.00465065
*CONN
*I *4299:A I *D sky130_fd_sc_hd__or2_2
*I *3995:B I *D sky130_fd_sc_hd__or3_2
*I *4300:A I *D sky130_fd_sc_hd__nand2_2
*I *3996:B I *D sky130_fd_sc_hd__or4_2
*I *4505:Q O *D sky130_fd_sc_hd__dfrtp_2
*CAP
1 *4299:A 0.000235897
2 *3995:B 0.000134942
3 *4300:A 0.000498961
4 *3996:B 0.00014854
5 *4505:Q 0
6 *926:34 0.000496304
7 *926:17 0.000714182
8 *926:6 0.000238295
9 *926:17 *927:27 2.79064e-05
10 *926:34 *927:27 4.34173e-05
11 *4299:B *4299:A 0.000142562
12 *4303:B1 *4300:A 3.04516e-05
13 *4505:RESET_B *3996:B 9.27917e-05
14 *4505:RESET_B *926:17 6.51012e-05
15 *4506:CLK *4300:A 8.48502e-06
16 *211:42 *4300:A 2.16583e-05
17 *211:54 *4299:A 6.7177e-06
18 *211:54 *926:34 1.42006e-05
19 *212:26 *3995:B 2.92911e-06
20 *213:12 *4299:A 0
21 *402:10 *4299:A 0
22 *403:10 *4300:A 2.4754e-05
23 *405:20 *4299:A 0
24 *461:33 *3996:B 0.000245827
25 *468:50 *4299:A 5.15096e-05
26 *468:50 *926:34 0.000136486
27 *468:54 *3995:B 9.41704e-05
28 *468:69 *4299:A 0
29 *642:14 *4300:A 5.3304e-05
30 *642:18 *926:17 0.000164282
31 *642:18 *926:34 2.46345e-05
32 *642:26 *3996:B 0.000430932
33 *642:26 *926:17 5.33597e-05
34 *905:6 *4300:A 0.000389772
35 *907:10 *4299:A 5.82768e-05
*RES
1 *4505:Q *926:6 38 
2 *926:6 *3996:B 43.7793 
3 *926:6 *926:17 2.96214 
4 *926:17 *4300:A 45.9543 
5 *926:17 *926:34 2.96214 
6 *926:34 *3995:B 39.5743 
7 *926:34 *4299:A 43.2407 
*END

*D_NET *927 0.004758
*CONN
*I *4834:A I *D sky130_fd_sc_hd__dlygate4sd3_1
*I *3996:A I *D sky130_fd_sc_hd__or4_2
*I *3995:A I *D sky130_fd_sc_hd__or3_2
*I *4506:Q O *D sky130_fd_sc_hd__dfrtp_2
*CAP
1 *4834:A 0.000128846
2 *3996:A 0
3 *3995:A 0
4 *4506:Q 0.000368426
5 *927:27 0.000409021
6 *927:16 0.000307795
7 *927:6 0.000956396
8 *4834:A *3996:C 0.000429958
9 *4505:RESET_B *927:27 0.000435943
10 *4506:CLK *927:16 2.93747e-05
11 *4506:RESET_B *927:27 0.000162422
12 *4703:A *927:27 3.70094e-05
13 *211:42 *927:16 5.3304e-05
14 *211:54 *927:16 0.000135547
15 *212:26 *927:16 1.21972e-05
16 *405:16 *4834:A 0.000328697
17 *405:20 *927:27 0.000269179
18 *468:37 *927:6 0.000298807
19 *468:37 *927:16 9.62666e-05
20 *468:50 *927:16 0.000133316
21 *468:54 *927:16 9.41704e-05
22 *926:17 *927:27 2.79064e-05
23 *926:34 *927:27 4.34173e-05
*RES
1 *4506:Q *927:6 28.3857 
2 *927:6 *927:16 35.5307 
3 *927:16 *3995:A 23 
4 *927:6 *927:27 39.3007 
5 *927:27 *3996:A 23 
6 *927:27 *4834:A 28.5514 
*END

*D_NET *928 0.00330426
*CONN
*I *3978:B I *D sky130_fd_sc_hd__or4_2
*I *3976:B I *D sky130_fd_sc_hd__or2_2
*I *4265:B I *D sky130_fd_sc_hd__nand2_2
*I *4488:Q O *D sky130_fd_sc_hd__dfrtp_2
*CAP
1 *3978:B 0
2 *3976:B 2.34823e-05
3 *4265:B 5.90448e-05
4 *4488:Q 0.000862704
5 *928:43 0.000210847
6 *928:28 0.000428835
7 *928:10 0.000727243
8 *928:43 *932:10 2.96154e-05
9 *4265:A *4265:B 0.000181778
10 *4266:A1 *928:10 4.5849e-05
11 *4488:RESET_B *928:10 1.12709e-05
12 *4488:RESET_B *928:28 0.000139352
13 *4488:RESET_B *928:43 0
14 *193:10 *928:10 2.79543e-05
15 *386:16 *928:10 0.000186054
16 *466:6 *4265:B 7.43212e-05
17 *619:56 *928:10 2.39018e-05
18 *619:58 *928:10 1.6891e-05
19 *675:48 *928:43 0
20 *677:14 *928:43 0
21 *909:8 *928:10 0.000111462
22 *917:42 *928:10 6.17437e-06
23 *917:42 *928:28 1.22822e-05
24 *917:55 *928:28 5.70419e-05
25 *917:55 *928:43 6.8161e-05
*RES
1 *4488:Q *928:10 47.9014 
2 *928:10 *4265:B 40.0714 
3 *4488:Q *928:28 26.0036 
4 *928:28 *3976:B 23.4971 
5 *928:28 *928:43 33.5836 
6 *928:43 *3978:B 23 
*END

*D_NET *929 0.00342215
*CONN
*I *4304:A I *D sky130_fd_sc_hd__and2_2
*I *3996:C I *D sky130_fd_sc_hd__or4_2
*I *4507:Q O *D sky130_fd_sc_hd__dfrtp_2
*CAP
1 *4304:A 2.97706e-05
2 *3996:C 0.000412234
3 *4507:Q 0.000322128
4 *929:12 0.000442004
5 *929:10 0.000322128
6 *4834:A *3996:C 0.000429958
7 *212:32 *3996:C 3.22879e-05
8 *212:32 *929:10 0.000780577
9 *213:8 *3996:C 5.3304e-05
10 *260:41 *3996:C 0.0001082
11 *405:16 *3996:C 7.42621e-05
12 *468:14 *929:10 5.61414e-05
13 *468:25 *929:10 8.09007e-05
14 *468:37 *929:10 0.000274543
15 *471:51 *929:10 0
16 *685:73 *3996:C 3.7122e-06
*RES
1 *4507:Q *929:10 48.9786 
2 *929:10 *929:12 15 
3 *929:12 *3996:C 32.5907 
4 *929:12 *4304:A 23.6214 
*END

*D_NET *930 0.000881165
*CONN
*I *4778:A I *D sky130_fd_sc_hd__dlygate4sd3_1
*I *3997:A I *D sky130_fd_sc_hd__nor2_2
*I *4508:Q O *D sky130_fd_sc_hd__dfrtp_2
*CAP
1 *4778:A 9.37145e-05
2 *3997:A 0.000242823
3 *4508:Q 0.000104045
4 *930:8 0.000440582
5 *4309:A2 *930:8 0
6 *4508:RESET_B *3997:A 0
7 *4508:RESET_B *930:8 0
*RES
1 *4508:Q *930:8 39.9057 
2 *930:8 *3997:A 41.9357 
3 *930:8 *4778:A 39.5743 
*END

*D_NET *931 0.00239657
*CONN
*I *3977:A I *D sky130_fd_sc_hd__or2_2
*I *4828:A I *D sky130_fd_sc_hd__dlygate4sd3_1
*I *3978:D I *D sky130_fd_sc_hd__or4_2
*I *4489:Q O *D sky130_fd_sc_hd__dfrtp_2
*CAP
1 *3977:A 0.000170478
2 *4828:A 0
3 *3978:D 0.000220394
4 *4489:Q 0
5 *931:17 0.000305071
6 *931:4 0.000354987
7 *3978:D *3978:C 9.84794e-05
8 *4267:B *3977:A 5.56279e-05
9 *4489:RESET_B *3978:D 0.000310641
10 *193:27 *3977:A 0.000122397
11 *193:27 *931:17 0.00021341
12 *194:8 *3977:A 1.83327e-05
13 *195:10 *3978:D 0.000119313
14 *387:14 *931:17 0.000407441
*RES
1 *4489:Q *931:4 23 
2 *931:4 *3978:D 28.8829 
3 *931:4 *931:17 20.4271 
4 *931:17 *4828:A 38 
5 *931:17 *3977:A 41.9357 
*END

*D_NET *932 0.0010424
*CONN
*I *3978:C I *D sky130_fd_sc_hd__or4_2
*I *4809:A I *D sky130_fd_sc_hd__dlygate4sd3_1
*I *4490:Q O *D sky130_fd_sc_hd__dfrtp_2
*CAP
1 *3978:C 4.36322e-05
2 *4809:A 0
3 *4490:Q 0.000291846
4 *932:12 4.36322e-05
5 *932:10 0.000291846
6 *3978:D *3978:C 9.84794e-05
7 *4490:RESET_B *932:10 3.71228e-05
8 *195:10 *3978:C 0.000139357
9 *675:48 *932:10 6.6869e-05
10 *928:43 *932:10 2.96154e-05
*RES
1 *4490:Q *932:10 42.4329 
2 *932:10 *932:12 15 
3 *932:12 *4809:A 23 
4 *932:12 *3978:C 24.5743 
*END

*D_NET *933 0.0041499
*CONN
*I *4271:A I *D sky130_fd_sc_hd__nand2_2
*I *3983:B I *D sky130_fd_sc_hd__or4_2
*I *4273:A1 I *D sky130_fd_sc_hd__o21ai_2
*I *3979:A I *D sky130_fd_sc_hd__or2_2
*I *4491:Q O *D sky130_fd_sc_hd__dfrtp_2
*CAP
1 *4271:A 0.00037845
2 *3983:B 0.000128257
3 *4273:A1 0
4 *3979:A 0.000240225
5 *4491:Q 4.66065e-05
6 *933:36 0.000564461
7 *933:29 0.00014679
8 *933:12 0.000751148
9 *933:8 0.000468493
10 *3979:A *3980:A 6.17437e-06
11 *3983:B *3983:A 3.7122e-06
12 *933:12 *3980:A 1.98489e-05
13 *933:29 *3980:A 5.67483e-05
14 *3979:B *3979:A 0.000154998
15 *3980:B *3979:A 4.72245e-05
16 *4271:B *4271:A 0.000277792
17 *4274:A2 *3983:B 5.12254e-05
18 *4491:RESET_B *933:8 2.93335e-05
19 *195:23 *933:29 6.16531e-05
20 *197:12 *933:29 9.84794e-05
21 *197:33 *4271:A 2.45027e-05
22 *197:33 *933:12 3.13396e-05
23 *197:33 *933:36 1.90253e-05
24 *200:8 *4271:A 0.000267289
25 *388:10 *4271:A 2.93335e-05
26 *389:10 *4271:A 1.13013e-05
27 *389:10 *933:12 0.000197981
28 *389:10 *933:36 3.54728e-05
29 *619:25 *3983:B 2.03764e-06
*RES
1 *4491:Q *933:8 38.6214 
2 *933:8 *933:12 22.54 
3 *933:12 *3979:A 26.5007 
4 *933:12 *933:29 32.9 
5 *933:29 *4273:A1 23 
6 *933:8 *933:36 1.20143 
7 *933:36 *3983:B 39.5743 
8 *933:36 *4271:A 46.9486 
*END

*D_NET *934 0.00287736
*CONN
*I *3983:A I *D sky130_fd_sc_hd__or4_2
*I *4825:A I *D sky130_fd_sc_hd__dlygate4sd3_1
*I *3980:A I *D sky130_fd_sc_hd__or2_2
*I *4492:Q O *D sky130_fd_sc_hd__dfrtp_2
*CAP
1 *3983:A 9.66478e-05
2 *4825:A 5.06612e-05
3 *3980:A 0.000121394
4 *4492:Q 0.000163763
5 *934:21 0.00023138
6 *934:8 0.000369228
7 *3979:A *3980:A 6.17437e-06
8 *3979:B *3980:A 0.000140259
9 *3983:B *3983:A 3.7122e-06
10 *3983:D *3980:A 0.000110913
11 *3983:D *3983:A 0.000244517
12 *3983:D *934:21 0.000272312
13 *4491:RESET_B *4825:A 0.000136743
14 *4492:RESET_B *934:8 5.96753e-05
15 *195:47 *3980:A 1.89075e-05
16 *197:12 *3980:A 5.67058e-05
17 *197:33 *4825:A 0.000136743
18 *200:8 *3983:A 1.37349e-05
19 *389:10 *3980:A 8.62876e-05
20 *389:10 *3983:A 0.000207507
21 *389:10 *934:21 0.00026533
22 *488:32 *934:8 4.45734e-07
23 *619:25 *3983:A 7.71797e-06
24 *933:12 *3980:A 1.98489e-05
25 *933:29 *3980:A 5.67483e-05
*RES
1 *4492:Q *934:8 40.0507 
2 *934:8 *3980:A 41.8321 
3 *934:8 *934:21 3.66643 
4 *934:21 *4825:A 39.5743 
5 *934:21 *3983:A 41.4955 
*END

*D_NET *935 0.00306059
*CONN
*I *3981:A I *D sky130_fd_sc_hd__or2_2
*I *4822:A I *D sky130_fd_sc_hd__dlygate4sd3_1
*I *3982:B I *D sky130_fd_sc_hd__or2_2
*I *4493:Q O *D sky130_fd_sc_hd__dfrtp_2
*CAP
1 *3981:A 5.92463e-05
2 *4822:A 0
3 *3982:B 0.000385102
4 *4493:Q 0.000222144
5 *935:25 0.000102051
6 *935:10 0.00065005
7 *3982:B *936:14 0.000516954
8 *935:10 *936:14 0.000164282
9 *3981:B *3981:A 8.43466e-05
10 *3981:B *935:25 9.5877e-05
11 *4418:RESET_B *935:10 6.51338e-05
12 *198:8 *3981:A 1.57571e-05
13 *198:8 *935:25 3.16784e-05
14 *371:14 *3982:B 9.41704e-05
15 *457:10 *3982:B 1.34354e-05
16 *457:25 *3981:A 0.00014196
17 *488:67 *3982:B 0.000327903
18 *677:14 *3982:B 3.96156e-05
19 *677:14 *935:10 5.08795e-05
*RES
1 *4493:Q *935:10 42.3086 
2 *935:10 *3982:B 47.6114 
3 *935:10 *935:25 16.0979 
4 *935:25 *4822:A 23 
5 *935:25 *3981:A 25.0507 
*END

*D_NET *936 0.00305953
*CONN
*I *4806:A I *D sky130_fd_sc_hd__dlygate4sd3_1
*I *3982:A I *D sky130_fd_sc_hd__or2_2
*I *4494:Q O *D sky130_fd_sc_hd__dfrtp_2
*CAP
1 *4806:A 0.000251497
2 *3982:A 0
3 *4494:Q 0
4 *936:14 0.000683618
5 *936:6 0.000935115
6 *3982:B *936:14 0.000516954
7 *4418:RESET_B *936:14 0
8 *4666:A *4806:A 0
9 *4695:A *4806:A 0
10 *371:14 *936:14 0.000136743
11 *457:10 *936:14 0.000129412
12 *457:25 *936:14 8.92841e-05
13 *642:45 *4806:A 9.84851e-05
14 *677:14 *4806:A 0
15 *677:14 *936:14 0
16 *714:37 *4806:A 5.41385e-05
17 *935:10 *936:14 0.000164282
*RES
1 *4494:Q *936:6 38 
2 *936:6 *936:14 30.7636 
3 *936:14 *3982:A 23 
4 *936:6 *4806:A 42.7643 
*END

*D_NET *937 0.00243233
*CONN
*I *3985:A I *D sky130_fd_sc_hd__or2_2
*I *3984:A I *D sky130_fd_sc_hd__or2_2
*I *4820:A I *D sky130_fd_sc_hd__dlygate4sd3_1
*I *4495:Q O *D sky130_fd_sc_hd__dfrtp_2
*CAP
1 *3985:A 0
2 *3984:A 0
3 *4820:A 0.000205416
4 *4495:Q 8.34742e-05
5 *937:35 0.000183559
6 *937:25 0.000278062
7 *937:8 0.000383393
8 *4495:RESET_B *937:8 5.3304e-05
9 *200:21 *4820:A 0.000276784
10 *200:21 *937:25 0.000130433
11 *200:21 *937:35 0.000247678
12 *201:8 *937:35 6.53445e-05
13 *202:18 *937:35 5.50049e-05
14 *203:10 *937:35 5.50049e-05
15 *642:57 *4820:A 0.000185434
16 *683:72 *4820:A 3.47781e-05
17 *683:72 *937:25 0.000139647
18 *683:84 *937:8 5.50106e-05
*RES
1 *4495:Q *937:8 39.0979 
2 *937:8 *4820:A 43.7171 
3 *937:8 *937:25 17.5271 
4 *937:25 *937:35 34.5571 
5 *937:35 *3984:A 23 
6 *937:25 *3985:A 23 
*END

*D_NET *938 0.00060137
*CONN
*I *4807:A I *D sky130_fd_sc_hd__dlygate4sd3_1
*I *3985:B I *D sky130_fd_sc_hd__or2_2
*I *4496:Q O *D sky130_fd_sc_hd__dfrtp_2
*CAP
1 *4807:A 0
2 *3985:B 0.000171011
3 *4496:Q 0.00027074
4 *938:22 9.97291e-05
5 *4496:RESET_B *3985:B 2.93335e-05
6 *201:8 *938:22 3.0556e-05
*RES
1 *4496:Q *3985:B 49.0243 
2 *4496:Q *938:22 39.9057 
3 *938:22 *4807:A 38 
*END

*D_NET *939 0.0149645
*CONN
*I *4315:B1 I *D sky130_fd_sc_hd__o21a_2
*I *4601:A I *D sky130_fd_sc_hd__buf_2
*I *4343:B1 I *D sky130_fd_sc_hd__o21a_2
*I *4327:B1 I *D sky130_fd_sc_hd__o21a_2
*I *3975:Y O *D sky130_fd_sc_hd__inv_2
*CAP
1 *4315:B1 0.000427112
2 *4601:A 0
3 *4343:B1 0
4 *4327:B1 0
5 *3975:Y 0.000413718
6 *939:64 0.000627303
7 *939:50 0.000954684
8 *939:40 0.00337345
9 *939:27 0.00318096
10 *939:12 0.000235492
11 *939:6 0.00121122
12 *4315:B1 *4318:A1 0.000236749
13 *939:27 *4803:A 0.00014196
14 *939:27 *964:6 0.000269769
15 *939:40 *4594:D 1.27687e-05
16 *939:40 *972:8 0.000147975
17 *939:50 *1019:22 0.000138727
18 *939:64 *4318:A1 0
19 *939:64 *942:10 0.00014411
20 *939:64 *978:8 0
21 *3975:A *939:6 2.64616e-05
22 *4328:A *939:27 2.93747e-05
23 *4328:B *939:12 3.14274e-05
24 *4328:B *939:27 0
25 *4348:A *939:40 0.000397596
26 *4348:B *939:40 2.18506e-05
27 *4382:A1 *939:50 1.56762e-05
28 *4382:A3 *939:50 9.84794e-05
29 *4382:B1 *939:50 9.84794e-05
30 *4436:CLK *939:50 0
31 *4436:RESET_B *939:50 0.000105072
32 *4437:CLK *939:40 0.000267173
33 *4586:RESET_B *939:12 0.000463821
34 *4594:CLK *939:40 1.83408e-05
35 *74:10 *939:50 0.000183733
36 *75:10 *939:50 0
37 *176:35 *4315:B1 0.000164495
38 *423:8 *939:40 0.000649804
39 *433:42 *939:50 0.000228909
40 *484:12 *939:27 0
41 *489:55 *939:50 0
42 *554:10 *939:50 3.71369e-05
43 *606:10 *939:27 0.000187694
44 *648:41 *939:12 0.000178001
45 *648:56 *939:64 2.95125e-05
46 *715:89 *939:50 0.000215417
*RES
1 *3975:Y *939:6 25.5271 
2 *939:6 *939:12 37.54 
3 *939:12 *4327:B1 23 
4 *939:6 *939:27 44.1064 
5 *939:27 *4343:B1 23 
6 *939:27 *939:40 48.5364 
7 *939:40 *939:50 35.2793 
8 *939:50 *4601:A 23 
9 *3975:Y *939:64 42.3707 
10 *939:64 *4315:B1 46.41 
*END

*D_NET *940 0.000822948
*CONN
*I *4575:D I *D sky130_fd_sc_hd__dfrtp_2
*I *4307:Y O *D sky130_fd_sc_hd__nor2_2
*CAP
1 *4575:D 0.00011504
2 *4307:Y 0.000234806
3 *940:8 0.000349846
4 *471:45 *940:8 0
5 *471:51 *940:8 0
6 *690:29 *940:8 0
7 *690:73 *940:8 0.000123256
*RES
1 *4307:Y *940:8 43.4271 
2 *940:8 *4575:D 40.0507 
*END

*D_NET *941 0.000457175
*CONN
*I *4585:D I *D sky130_fd_sc_hd__dfrtp_2
*I *4327:X O *D sky130_fd_sc_hd__o21a_2
*CAP
1 *4585:D 0
2 *4327:X 0.000173126
3 *941:10 0.000173126
4 *472:28 *941:10 0
5 *648:41 *941:10 0.000110922
*RES
1 *4327:X *941:10 40.6514 
2 *941:10 *4585:D 38 
*END

*D_NET *942 0.00143217
*CONN
*I *4586:D I *D sky130_fd_sc_hd__dfrtp_2
*I *4329:Y O *D sky130_fd_sc_hd__nor2_2
*CAP
1 *4586:D 9.55744e-05
2 *4329:Y 0.000300473
3 *942:10 0.000396048
4 *942:10 *978:8 0
5 *942:10 *978:10 0
6 *4329:B *942:10 9.84851e-05
7 *648:41 *942:10 0.000164291
8 *648:56 *942:10 0.000233187
9 *939:64 *942:10 0.00014411
*RES
1 *4329:Y *942:10 45.1257 
2 *942:10 *4586:D 39.5743 
*END

*D_NET *943 0.000529203
*CONN
*I *4587:D I *D sky130_fd_sc_hd__dfrtp_2
*I *4331:Y O *D sky130_fd_sc_hd__a21oi_2
*CAP
1 *4587:D 4.56105e-05
2 *4331:Y 7.89401e-05
3 *943:8 0.000124551
4 *4587:RESET_B *4587:D 0.000141954
5 *470:64 *4587:D 2.72257e-05
6 *648:30 *943:8 0.000110922
*RES
1 *4331:Y *943:8 39.5536 
2 *943:8 *4587:D 39.5743 
*END

*D_NET *944 0.000414378
*CONN
*I *4588:D I *D sky130_fd_sc_hd__dfrtp_2
*I *4333:Y O *D sky130_fd_sc_hd__a21oi_2
*CAP
1 *4588:D 0
2 *4333:Y 0.000157099
3 *944:10 0.000157099
4 *944:10 *945:8 0
5 *944:10 *966:10 0
6 *648:24 *944:10 0.00010018
*RES
1 *4333:Y *944:10 40.6514 
2 *944:10 *4588:D 38 
*END

*D_NET *945 0.000421359
*CONN
*I *4589:D I *D sky130_fd_sc_hd__dfrtp_2
*I *4335:Y O *D sky130_fd_sc_hd__nor2_2
*CAP
1 *4589:D 7.58548e-05
2 *4335:Y 9.53785e-05
3 *945:8 0.000171233
4 *4588:CLK *4589:D 6.17437e-06
5 *420:8 *945:8 0
6 *484:42 *4589:D 7.27182e-05
7 *944:10 *945:8 0
*RES
1 *4335:Y *945:8 39.5536 
2 *945:8 *4589:D 39.5743 
*END

*D_NET *946 0.000584311
*CONN
*I *4590:D I *D sky130_fd_sc_hd__dfrtp_2
*I *4337:Y O *D sky130_fd_sc_hd__a21oi_2
*CAP
1 *4590:D 7.03466e-05
2 *4337:Y 0.000121218
3 *946:10 0.000191565
4 *4337:A1 *946:10 7.53384e-06
5 *4440:CLK *4590:D 8.1796e-05
6 *420:8 *946:10 0.000111852
7 *484:36 *946:10 0
*RES
1 *4337:Y *946:10 40.175 
2 *946:10 *4590:D 39.5743 
*END

*D_NET *947 0.00189078
*CONN
*I *4591:D I *D sky130_fd_sc_hd__dfrtp_2
*I *4339:Y O *D sky130_fd_sc_hd__a21oi_2
*CAP
1 *4591:D 0.000434011
2 *4339:Y 0.000203522
3 *947:10 0.000637533
4 *4339:B1 *947:10 0.000406031
5 *189:38 *947:10 0
6 *190:18 *947:10 0
7 *421:10 *947:10 0.000111207
8 *423:8 *947:10 9.84794e-05
9 *705:52 *947:10 0
*RES
1 *4339:Y *947:10 44.1729 
2 *947:10 *4591:D 43.4064 
*END

*D_NET *948 0.000990871
*CONN
*I *4592:D I *D sky130_fd_sc_hd__dfrtp_2
*I *4341:Y O *D sky130_fd_sc_hd__nor2_2
*CAP
1 *4592:D 0
2 *4341:Y 0.000369365
3 *948:10 0.000369365
4 *4593:CLK *948:10 0.000187335
5 *484:12 *948:10 6.48049e-05
6 *606:10 *948:10 0
7 *648:71 *948:10 0
*RES
1 *4341:Y *948:10 45.3536 
2 *948:10 *4592:D 38 
*END

*D_NET *949 0.000770674
*CONN
*I *4593:D I *D sky130_fd_sc_hd__dfrtp_2
*I *4343:X O *D sky130_fd_sc_hd__o21a_2
*CAP
1 *4593:D 0.000116878
2 *4343:X 0.000264693
3 *949:8 0.00038157
4 *4593:CLK *949:8 0
5 *4593:RESET_B *949:8 0
6 *484:12 *949:8 0
7 *648:71 *4593:D 7.53384e-06
8 *705:52 *949:8 0
*RES
1 *4343:X *949:8 42.7229 
2 *949:8 *4593:D 40.0507 
*END

*D_NET *950 0.000766447
*CONN
*I *4594:D I *D sky130_fd_sc_hd__dfrtp_2
*I *4345:Y O *D sky130_fd_sc_hd__nor2_2
*CAP
1 *4594:D 0.000207795
2 *4345:Y 3.94129e-05
3 *950:8 0.000247208
4 *4594:CLK *4594:D 2.88744e-05
5 *424:10 *950:8 0.000116314
6 *485:51 *950:8 0.000114074
7 *939:40 *4594:D 1.27687e-05
*RES
1 *4345:Y *950:8 39.5536 
2 *950:8 *4594:D 40.4287 
*END

*D_NET *951 0.000460707
*CONN
*I *4576:D I *D sky130_fd_sc_hd__dfrtp_2
*I *4309:Y O *D sky130_fd_sc_hd__a21oi_2
*CAP
1 *4576:D 0
2 *4309:Y 8.78507e-05
3 *951:10 8.78507e-05
4 *4313:B1 *951:10 0.000169683
5 *4576:CLK *951:10 5.86165e-05
6 *4578:CLK *951:10 5.67058e-05
*RES
1 *4309:Y *951:10 40.8793 
2 *951:10 *4576:D 38 
*END

*D_NET *952 0.00112578
*CONN
*I *4595:D I *D sky130_fd_sc_hd__dfrtp_2
*I *4347:X O *D sky130_fd_sc_hd__mux2_1
*CAP
1 *4595:D 0
2 *4347:X 0.000200607
3 *952:10 0.000200607
4 *952:10 *972:27 0.000171906
5 *4346:A2 *952:10 0.00019747
6 *173:19 *952:10 0.000169683
7 *189:77 *952:10 0.000185502
*RES
1 *4347:X *952:10 43.3443 
2 *952:10 *4595:D 38 
*END

*D_NET *953 0.000309713
*CONN
*I *4596:D I *D sky130_fd_sc_hd__dfrtp_2
*I *4348:X O *D sky130_fd_sc_hd__and2_2
*CAP
1 *4596:D 0
2 *4348:X 7.93102e-05
3 *953:8 7.93102e-05
4 *953:8 *3974:A 6.48049e-05
5 *953:8 *4781:A 8.62876e-05
6 *4384:A3 *953:8 0
7 *76:8 *953:8 0
*RES
1 *4348:X *953:8 39.9057 
2 *953:8 *4596:D 38 
*END

*D_NET *954 0.000579598
*CONN
*I *4577:D I *D sky130_fd_sc_hd__dfrtp_2
*I *4311:Y O *D sky130_fd_sc_hd__a21oi_2
*CAP
1 *4577:D 0.000156514
2 *4311:Y 6.55294e-05
3 *954:8 0.000222044
4 *174:10 *4577:D 2.14371e-05
5 *407:12 *954:8 0.000114074
6 *647:43 *954:8 0
*RES
1 *4311:Y *954:8 39.5536 
2 *954:8 *4577:D 40.118 
*END

*D_NET *955 0.000921578
*CONN
*I *4578:D I *D sky130_fd_sc_hd__dfrtp_2
*I *4313:Y O *D sky130_fd_sc_hd__a21oi_2
*CAP
1 *4578:D 0
2 *4313:Y 0.000307237
3 *955:10 0.000307237
4 *4313:B1 *955:10 2.81138e-05
5 *175:6 *955:10 9.75779e-05
6 *407:12 *955:10 0.000181412
*RES
1 *4313:Y *955:10 44.2971 
2 *955:10 *4578:D 38 
*END

*D_NET *956 0.00073595
*CONN
*I *4579:D I *D sky130_fd_sc_hd__dfrtp_2
*I *4315:X O *D sky130_fd_sc_hd__o21a_2
*CAP
1 *4579:D 0
2 *4315:X 0.000242726
3 *956:10 0.000242726
4 *956:10 *980:22 0
5 *4579:RESET_B *956:10 1.14452e-05
6 *4669:A *956:10 1.01436e-05
7 *176:35 *956:10 0.000228909
*RES
1 *4315:X *956:10 42.0807 
2 *956:10 *4579:D 38 
*END

*D_NET *957 0.000468409
*CONN
*I *4580:D I *D sky130_fd_sc_hd__dfrtp_2
*I *4317:Y O *D sky130_fd_sc_hd__nor2_2
*CAP
1 *4580:D 0.000103593
2 *4317:Y 6.91124e-05
3 *957:8 0.000172706
4 *178:25 *957:8 0.000114074
5 *472:50 *4580:D 8.9238e-06
6 *649:24 *957:8 0
*RES
1 *4317:Y *957:8 39.5536 
2 *957:8 *4580:D 39.1652 
*END

*D_NET *958 0.000462552
*CONN
*I *4581:D I *D sky130_fd_sc_hd__dfrtp_2
*I *4319:Y O *D sky130_fd_sc_hd__a21oi_2
*CAP
1 *4581:D 0.000172296
2 *4319:Y 0.000172296
3 *4319:A1 *4581:D 0.000117961
*RES
1 *4319:Y *4581:D 49.5007 
*END

*D_NET *959 0.00133534
*CONN
*I *4582:D I *D sky130_fd_sc_hd__dfrtp_2
*I *4321:Y O *D sky130_fd_sc_hd__a21oi_2
*CAP
1 *4582:D 0
2 *4321:Y 0.000347612
3 *959:10 0.000347612
4 *959:10 *982:25 0.000117239
5 *4321:A1 *959:10 5.41288e-05
6 *413:8 *959:10 0.00035476
7 *690:49 *959:10 0.000113989
*RES
1 *4321:Y *959:10 45.7264 
2 *959:10 *4582:D 38 
*END

*D_NET *960 0.000429213
*CONN
*I *4583:D I *D sky130_fd_sc_hd__dfrtp_2
*I *4323:Y O *D sky130_fd_sc_hd__a21oi_2
*CAP
1 *4583:D 0
2 *4323:Y 0.00012977
3 *960:10 0.00012977
4 *4841:A *960:10 0
5 *179:12 *960:10 0.000169674
*RES
1 *4323:Y *960:10 40.8793 
2 *960:10 *4583:D 38 
*END

*D_NET *961 0.00118063
*CONN
*I *4584:D I *D sky130_fd_sc_hd__dfrtp_2
*I *4325:Y O *D sky130_fd_sc_hd__a21oi_2
*CAP
1 *4584:D 0.00016755
2 *4325:Y 0.000181608
3 *961:8 0.000349157
4 *4583:RESET_B *961:8 0
5 *4587:RESET_B *4584:D 0.000127537
6 *181:16 *961:8 0.000354778
7 *649:24 *961:8 0
*RES
1 *4325:Y *961:8 42.7229 
2 *961:8 *4584:D 41.48 
*END

*D_NET *962 0.00334696
*CONN
*I *3956:A I *D sky130_fd_sc_hd__or2_2
*I *3958:A I *D sky130_fd_sc_hd__or4_2
*I *4849:A I *D sky130_fd_sc_hd__dlygate4sd3_1
*I *4308:A I *D sky130_fd_sc_hd__nand2_2
*I *4575:Q O *D sky130_fd_sc_hd__dfrtp_2
*CAP
1 *3956:A 0.000130876
2 *3958:A 0.000107919
3 *4849:A 6.19132e-05
4 *4308:A 0.000375583
5 *4575:Q 0.000228499
6 *962:28 0.000402548
7 *962:10 0.000437497
8 *962:8 0.000392252
9 *3956:A *3958:D 0.00025307
10 *3956:A *4308:B 0
11 *3958:A *3958:C 1.76557e-05
12 *3958:A *3958:D 0.000143655
13 *4308:A *4308:B 9.58354e-05
14 *962:28 *4308:B 0
15 *4307:A *4308:A 0.000228909
16 *4624:A *962:8 0
17 *647:14 *3956:A 0
18 *647:18 *3958:A 0.000314157
19 *647:26 *4308:A 5.67058e-05
20 *647:37 *3958:A 0
21 *690:49 *962:8 9.98891e-05
22 *690:73 *962:8 0
*RES
1 *4575:Q *962:8 42.7229 
2 *962:8 *962:10 15 
3 *962:10 *4308:A 31.265 
4 *962:10 *4849:A 24.0979 
5 *962:8 *962:28 2.61 
6 *962:28 *3958:A 41.9771 
7 *962:28 *3956:A 41.6664 
*END

*D_NET *963 0.00141795
*CONN
*I *3965:A I *D sky130_fd_sc_hd__or2_2
*I *4326:A I *D sky130_fd_sc_hd__and2_2
*I *3964:A I *D sky130_fd_sc_hd__nor2_2
*I *4585:Q O *D sky130_fd_sc_hd__dfrtp_2
*CAP
1 *3965:A 0.000162261
2 *4326:A 0
3 *3964:A 0.000187928
4 *4585:Q 0
5 *963:10 0.000478246
6 *963:4 0.000452579
7 *3965:A *964:14 5.3304e-05
8 *4326:B *3964:A 8.08615e-05
9 *4328:B *963:10 0
10 *181:40 *3964:A 2.76611e-06
11 *484:12 *3964:A 0
12 *484:12 *963:10 0
*RES
1 *4585:Q *963:4 23 
2 *963:4 *963:10 20.365 
3 *963:10 *3964:A 41.9357 
4 *963:10 *4326:A 38 
5 *963:4 *3965:A 26.045 
*END

*D_NET *964 0.00137325
*CONN
*I *4803:A I *D sky130_fd_sc_hd__dlygate4sd3_1
*I *3965:B I *D sky130_fd_sc_hd__or2_2
*I *4586:Q O *D sky130_fd_sc_hd__dfrtp_2
*CAP
1 *4803:A 5.56181e-05
2 *3965:B 0
3 *4586:Q 0.000123215
4 *964:14 0.000167204
5 *964:6 0.000346037
6 *3965:A *964:14 5.3304e-05
7 *484:12 *964:14 0.000216139
8 *939:27 *4803:A 0.00014196
9 *939:27 *964:6 0.000269769
*RES
1 *4586:Q *964:6 26.0036 
2 *964:6 *964:14 33.5836 
3 *964:14 *3965:B 23 
4 *964:6 *4803:A 24.5743 
*END

*D_NET *965 0.00193108
*CONN
*I *3967:A I *D sky130_fd_sc_hd__or2_2
*I *4819:A I *D sky130_fd_sc_hd__dlygate4sd3_1
*I *3966:A I *D sky130_fd_sc_hd__or3_2
*I *4587:Q O *D sky130_fd_sc_hd__dfrtp_2
*CAP
1 *3967:A 0.000123249
2 *4819:A 5.99042e-05
3 *3966:A 0.000143531
4 *4587:Q 0.000299335
5 *965:22 0.000338957
6 *3967:A *3967:B 0.000107548
7 *965:22 *3967:B 8.06039e-05
8 *3970:A *4819:A 0.000129522
9 *4330:A2 *4819:A 0.000294535
10 *181:49 *4819:A 0.000183733
11 *181:57 *3966:A 7.88926e-05
12 *184:10 *3966:A 5.2894e-05
13 *184:10 *965:22 3.83778e-05
14 *187:10 *3967:A 0
*RES
1 *4587:Q *3966:A 49.48 
2 *4587:Q *965:22 40.8793 
3 *965:22 *4819:A 41.48 
4 *965:22 *3967:A 40.9621 
*END

*D_NET *966 0.00294926
*CONN
*I *3967:B I *D sky130_fd_sc_hd__or2_2
*I *4833:A I *D sky130_fd_sc_hd__dlygate4sd3_1
*I *3968:A I *D sky130_fd_sc_hd__or2_2
*I *4588:Q O *D sky130_fd_sc_hd__dfrtp_2
*CAP
1 *3967:B 0.000350726
2 *4833:A 6.2588e-05
3 *3968:A 0.000220969
4 *4588:Q 0.000386325
5 *966:10 0.000453738
6 *966:8 0.000907232
7 *3967:A *3967:B 0.000107548
8 *4586:RESET_B *3967:B 0
9 *4586:RESET_B *3968:A 0
10 *4586:RESET_B *966:10 0
11 *181:40 *3967:B 0.000224345
12 *181:57 *3967:B 0
13 *648:24 *4833:A 9.84794e-05
14 *648:30 *4833:A 5.67058e-05
15 *944:10 *966:10 0
16 *965:22 *3967:B 8.06039e-05
*RES
1 *4588:Q *966:8 43.8621 
2 *966:8 *966:10 2.96214 
3 *966:10 *3968:A 41.3143 
4 *966:10 *4833:A 39.5743 
5 *966:8 *3967:B 46.5964 
*END

*D_NET *967 0.0032852
*CONN
*I *3969:A I *D sky130_fd_sc_hd__or2_2
*I *4334:A I *D sky130_fd_sc_hd__xor2_2
*I *4336:A1 I *D sky130_fd_sc_hd__o21ai_2
*I *4589:Q O *D sky130_fd_sc_hd__dfrtp_2
*CAP
1 *3969:A 0.000291215
2 *4334:A 0
3 *4336:A1 0.000180297
4 *4589:Q 0.000232634
5 *967:10 0.000277952
6 *967:8 0.000621503
7 *3969:A *3971:A 4.6318e-06
8 *4334:B *4336:A1 0
9 *4336:B1 *4336:A1 7.53384e-06
10 *4589:RESET_B *967:8 5.03619e-05
11 *186:8 *4336:A1 5.90675e-06
12 *189:8 *3969:A 5.50049e-05
13 *420:8 *3969:A 0.000398924
14 *420:8 *4336:A1 0.00014411
15 *420:8 *967:10 0.000240695
16 *484:6 *3969:A 5.50049e-05
17 *484:36 *3969:A 0
18 *648:10 *3969:A 0.000139377
19 *648:18 *3969:A 0.000410379
20 *648:18 *967:10 0.000169674
21 *705:10 *967:10 0
22 *713:12 *4336:A1 0
*RES
1 *4589:Q *967:8 41.9564 
2 *967:8 *967:10 3.31429 
3 *967:10 *4336:A1 41.8529 
4 *967:10 *4334:A 38 
5 *967:8 *3969:A 47.9843 
*END

*D_NET *968 0.00265919
*CONN
*I *3969:B I *D sky130_fd_sc_hd__or2_2
*I *4812:A I *D sky130_fd_sc_hd__dlygate4sd3_1
*I *4590:Q O *D sky130_fd_sc_hd__dfrtp_2
*CAP
1 *3969:B 0.000444501
2 *4812:A 0.000252049
3 *4590:Q 0
4 *968:6 0.00069655
5 *4591:RESET_B *3969:B 0
6 *4723:A *3969:B 0.000215791
7 *4723:A *4812:A 0.000132665
8 *189:8 *3969:B 0.000484545
9 *189:10 *3969:B 3.47781e-05
10 *484:6 *3969:B 0.000141052
11 *705:20 *3969:B 0
12 *705:20 *4812:A 0
13 *706:59 *3969:B 6.86012e-05
14 *713:46 *4812:A 6.48142e-05
15 *713:52 *4812:A 0.000123839
*RES
1 *4590:Q *968:6 38 
2 *968:6 *4812:A 43.6136 
3 *968:6 *3969:B 49.5171 
*END

*D_NET *969 0.00158021
*CONN
*I *4805:A I *D sky130_fd_sc_hd__dlygate4sd3_1
*I *3971:A I *D sky130_fd_sc_hd__or2_2
*I *4591:Q O *D sky130_fd_sc_hd__dfrtp_2
*CAP
1 *4805:A 0.000214564
2 *3971:A 0.000272279
3 *4591:Q 0
4 *969:6 0.000486843
5 *3969:A *3971:A 4.6318e-06
6 *4338:B *3971:A 0
7 *4339:B1 *3971:A 0
8 *183:10 *3971:A 0
9 *183:10 *4805:A 0
10 *187:10 *3971:A 4.95081e-05
11 *189:8 *3971:A 0.00010018
12 *484:6 *3971:A 0.000185428
13 *484:36 *3971:A 0
14 *609:10 *3971:A 5.61414e-05
15 *609:10 *4805:A 4.09548e-05
16 *648:10 *3971:A 0
17 *705:52 *4805:A 0.000169674
*RES
1 *4591:Q *969:6 38 
2 *969:6 *3971:A 44.7736 
3 *969:6 *4805:A 42.7643 
*END

*D_NET *970 0.00151904
*CONN
*I *4831:A I *D sky130_fd_sc_hd__dlygate4sd3_1
*I *3955:A I *D sky130_fd_sc_hd__or2_2
*I *4342:A1 I *D sky130_fd_sc_hd__o21a_2
*I *4592:Q O *D sky130_fd_sc_hd__dfrtp_2
*CAP
1 *4831:A 2.99827e-05
2 *3955:A 0.000246838
3 *4342:A1 0.000174677
4 *4592:Q 0.000131281
5 *970:8 0.000421515
6 *970:6 0.000161263
7 *3955:A *971:22 5.21127e-05
8 *4339:A1 *4342:A1 5.56539e-06
9 *4593:RESET_B *3955:A 0
10 *4593:RESET_B *4342:A1 0
11 *189:38 *3955:A 0
12 *190:8 *3955:A 0
13 *190:18 *4342:A1 0
14 *190:18 *4831:A 1.5769e-05
15 *190:18 *970:6 0.000125404
16 *423:8 *4342:A1 1.28818e-05
17 *629:10 *3955:A 4.59027e-05
18 *629:10 *4342:A1 6.356e-05
19 *637:10 *3955:A 0
20 *637:10 *970:6 3.22879e-05
21 *705:52 *4342:A1 0
*RES
1 *4592:Q *970:6 26.48 
2 *970:6 *970:8 15 
3 *970:8 *4342:A1 41.1123 
4 *970:8 *3955:A 43.075 
5 *970:6 *4831:A 23.6214 
*END

*D_NET *971 0.000475107
*CONN
*I *3955:B I *D sky130_fd_sc_hd__or2_2
*I *4824:A I *D sky130_fd_sc_hd__dlygate4sd3_1
*I *4593:Q O *D sky130_fd_sc_hd__dfrtp_2
*CAP
1 *3955:B 0
2 *4824:A 7.06228e-05
3 *4593:Q 0.000185446
4 *971:22 0.000114823
5 *3955:A *971:22 5.21127e-05
6 *637:10 *971:22 5.21024e-05
*RES
1 *4593:Q *4824:A 47.0979 
2 *4593:Q *971:22 40.175 
3 *971:22 *3955:B 38 
*END

*D_NET *972 0.00351706
*CONN
*I *4826:A I *D sky130_fd_sc_hd__dlygate4sd3_1
*I *3973:A I *D sky130_fd_sc_hd__or4_2
*I *4346:A1 I *D sky130_fd_sc_hd__o31a_2
*I *4594:Q O *D sky130_fd_sc_hd__dfrtp_2
*CAP
1 *4826:A 0.000277145
2 *3973:A 2.30556e-05
3 *4346:A1 0.000166977
4 *4594:Q 0.000262976
5 *972:27 0.000723116
6 *972:8 0.000852868
7 *4346:A1 *974:16 8.17134e-05
8 *4826:A *3973:B 2.1819e-05
9 *972:27 *3973:B 1.3523e-05
10 *3973:C *972:27 0.0002778
11 *4346:A2 *4346:A1 0.000157228
12 *4346:A2 *972:27 0.00011271
13 *191:8 *4826:A 2.64616e-05
14 *425:8 *4346:A1 5.50049e-05
15 *632:8 *4826:A 0.000117809
16 *632:8 *972:27 2.69729e-05
17 *939:40 *972:8 0.000147975
18 *952:10 *972:27 0.000171906
*RES
1 *4594:Q *972:8 42.9093 
2 *972:8 *4346:A1 42.5364 
3 *972:8 *972:27 24.8807 
4 *972:27 *3973:A 23.4971 
5 *972:27 *4826:A 28.3857 
*END

*D_NET *973 0.00246763
*CONN
*I *3956:B I *D sky130_fd_sc_hd__or2_2
*I *3958:B I *D sky130_fd_sc_hd__or4_2
*I *4308:B I *D sky130_fd_sc_hd__nand2_2
*I *4576:Q O *D sky130_fd_sc_hd__dfrtp_2
*CAP
1 *3956:B 0.000142181
2 *3958:B 0
3 *4308:B 0.000359529
4 *4576:Q 0.000217635
5 *973:12 0.000422221
6 *973:10 0.000422509
7 *4308:B *3958:C 1.44546e-05
8 *4308:B *3958:D 0
9 *973:10 *3958:C 2.99716e-05
10 *973:10 *976:23 9.5031e-05
11 *973:12 *3958:C 4.58924e-05
12 *3956:A *4308:B 0
13 *4307:A *4308:B 9.84851e-05
14 *4308:A *4308:B 9.58354e-05
15 *4576:RESET_B *973:10 6.46393e-05
16 *174:10 *3956:B 0.000116201
17 *647:26 *4308:B 5.50106e-05
18 *690:73 *4308:B 0.000123428
19 *690:73 *973:10 2.95125e-05
20 *690:73 *973:12 6.57448e-05
21 *690:82 *973:10 6.93449e-05
22 *962:28 *4308:B 0
*RES
1 *4576:Q *973:10 43.6964 
2 *973:10 *973:12 1.90571 
3 *973:12 *4308:B 45.2914 
4 *973:12 *3958:B 38 
5 *973:10 *3956:B 41.0243 
*END

*D_NET *974 0.00369627
*CONN
*I *3973:B I *D sky130_fd_sc_hd__or4_2
*I *4346:B1 I *D sky130_fd_sc_hd__o31a_2
*I *4595:Q O *D sky130_fd_sc_hd__dfrtp_2
*CAP
1 *3973:B 0.000156894
2 *4346:B1 0
3 *4595:Q 0.000266626
4 *974:16 0.00073272
5 *974:8 0.00115624
6 *3974:B *974:16 2.05858e-05
7 *4346:A1 *974:16 8.17134e-05
8 *4346:A2 *974:16 2.13869e-05
9 *4346:A3 *974:16 2.07484e-05
10 *4595:RESET_B *974:8 4.70852e-05
11 *4596:RESET_B *974:16 3.64337e-05
12 *4826:A *3973:B 2.1819e-05
13 *192:10 *974:16 0.000420022
14 *425:8 *974:16 0.000129632
15 *425:14 *3973:B 0.000219822
16 *425:14 *974:16 0.000341048
17 *582:8 *974:8 9.97387e-06
18 *972:27 *3973:B 1.3523e-05
*RES
1 *4595:Q *974:8 41.0036 
2 *974:8 *974:16 28.92 
3 *974:16 *4346:B1 23 
4 *974:8 *3973:B 41.5836 
*END

*D_NET *975 0.00319387
*CONN
*I *4781:A I *D sky130_fd_sc_hd__dlygate4sd3_1
*I *3974:A I *D sky130_fd_sc_hd__nor2_2
*I *4596:Q O *D sky130_fd_sc_hd__dfrtp_2
*CAP
1 *4781:A 0.000267615
2 *3974:A 0.000451498
3 *4596:Q 0.000569827
4 *975:8 0.00128894
5 *3974:B *3974:A 0.000275932
6 *4348:A *4781:A 0
7 *4384:A3 *3974:A 0
8 *4384:A3 *4781:A 0
9 *4595:RESET_B *3974:A 0
10 *4595:RESET_B *4781:A 0
11 *425:8 *975:8 0.000188967
12 *651:16 *3974:A 0
13 *953:8 *3974:A 6.48049e-05
14 *953:8 *4781:A 8.62876e-05
*RES
1 *4596:Q *975:8 45.2914 
2 *975:8 *3974:A 47.5286 
3 *975:8 *4781:A 42.7229 
*END

*D_NET *976 0.00294037
*CONN
*I *4835:A I *D sky130_fd_sc_hd__dlygate4sd3_1
*I *3957:A I *D sky130_fd_sc_hd__or2_2
*I *3958:C I *D sky130_fd_sc_hd__or4_2
*I *4577:Q O *D sky130_fd_sc_hd__dfrtp_2
*CAP
1 *4835:A 1.74373e-05
2 *3957:A 0.000229513
3 *3958:C 0.000176428
4 *4577:Q 0
5 *976:23 0.000573697
6 *976:6 0.000503174
7 *3958:C *3958:D 8.73701e-05
8 *976:23 *3958:D 2.79004e-05
9 *976:23 *4804:A 9.53554e-05
10 *3958:A *3958:C 1.76557e-05
11 *4308:B *3958:C 1.44546e-05
12 *4312:B *3957:A 0.000339279
13 *4312:B *4835:A 8.60475e-05
14 *4313:A1 *976:23 0
15 *4313:B1 *3957:A 0.000134649
16 *4576:RESET_B *976:23 0
17 *175:6 *3957:A 4.5051e-05
18 *176:10 *976:23 0
19 *408:8 *3957:A 0.000228903
20 *408:8 *4835:A 9.84851e-05
21 *607:10 *976:23 0
22 *643:10 *3957:A 9.40782e-05
23 *973:10 *3958:C 2.99716e-05
24 *973:10 *976:23 9.5031e-05
25 *973:12 *3958:C 4.58924e-05
*RES
1 *4577:Q *976:6 38 
2 *976:6 *3958:C 42.4329 
3 *976:6 *976:23 22.54 
4 *976:23 *3957:A 30.9543 
5 *976:23 *4835:A 24.0979 
*END

*D_NET *977 0.00135249
*CONN
*I *4804:A I *D sky130_fd_sc_hd__dlygate4sd3_1
*I *3958:D I *D sky130_fd_sc_hd__or4_2
*I *4578:Q O *D sky130_fd_sc_hd__dfrtp_2
*CAP
1 *4804:A 0.000136226
2 *3958:D 0.000236346
3 *4578:Q 0
4 *977:6 0.000372571
5 *3956:A *3958:D 0.00025307
6 *3958:A *3958:D 0.000143655
7 *3958:C *3958:D 8.73701e-05
8 *4308:B *3958:D 0
9 *647:10 *4804:A 0
10 *647:14 *3958:D 0
11 *647:14 *4804:A 0
12 *976:23 *3958:D 2.79004e-05
13 *976:23 *4804:A 9.53554e-05
*RES
1 *4578:Q *977:6 38 
2 *977:6 *3958:D 44.6493 
3 *977:6 *4804:A 41.6664 
*END

*D_NET *978 0.00321449
*CONN
*I *4318:A1 I *D sky130_fd_sc_hd__o31ai_2
*I *3960:A I *D sky130_fd_sc_hd__or4_2
*I *4314:A I *D sky130_fd_sc_hd__and2_2
*I *3959:A I *D sky130_fd_sc_hd__nor2_2
*I *4579:Q O *D sky130_fd_sc_hd__dfrtp_2
*CAP
1 *4318:A1 0.00039588
2 *3960:A 3.2572e-05
3 *4314:A 0
4 *3959:A 0.000418799
5 *4579:Q 0
6 *978:10 0.000571863
7 *978:8 0.000355754
8 *978:6 0.000565998
9 *3959:A *4316:A 0
10 *3959:A *979:23 0
11 *4318:A1 *979:38 0.000236673
12 *978:8 *979:23 0
13 *978:8 *979:38 0
14 *978:10 *979:23 0
15 *3959:B *3959:A 5.67058e-05
16 *4315:B1 *4318:A1 0.000236749
17 *176:35 *4318:A1 9.21796e-05
18 *178:10 *3960:A 2.93747e-05
19 *472:28 *3959:A 0.000111148
20 *472:41 *3959:A 0.000104719
21 *472:41 *978:10 6.07611e-06
22 *648:41 *978:10 0
23 *688:36 *3959:A 0
24 *939:64 *4318:A1 0
25 *939:64 *978:8 0
26 *942:10 *978:8 0
27 *942:10 *978:10 0
*RES
1 *4579:Q *978:6 38 
2 *978:6 *978:8 2.96214 
3 *978:8 *978:10 2.61 
4 *978:10 *3959:A 46.7829 
5 *978:10 *4314:A 38 
6 *978:8 *3960:A 38.6214 
7 *978:6 *4318:A1 48.15 
*END

*D_NET *979 0.00386142
*CONN
*I *4318:A2 I *D sky130_fd_sc_hd__o31ai_2
*I *3960:B I *D sky130_fd_sc_hd__or4_2
*I *4316:A I *D sky130_fd_sc_hd__xnor2_2
*I *4580:Q O *D sky130_fd_sc_hd__dfrtp_2
*CAP
1 *4318:A2 0
2 *3960:B 0
3 *4316:A 0.000292761
4 *4580:Q 9.32315e-05
5 *979:38 0.000674798
6 *979:23 0.000875636
7 *979:8 0.00058683
8 *979:38 *980:22 0
9 *3959:A *4316:A 0
10 *3959:A *979:23 0
11 *3959:B *4316:A 0.000191505
12 *3959:B *979:23 2.40336e-05
13 *4314:B *979:8 5.3304e-05
14 *4315:A1 *979:38 2.49836e-05
15 *4316:B *4316:A 9.84794e-05
16 *4318:A1 *979:38 0.000236673
17 *4318:A3 *979:38 0
18 *4585:RESET_B *4316:A 5.97296e-05
19 *176:35 *979:23 8.62876e-05
20 *176:35 *979:38 0.000330766
21 *176:37 *979:23 0.000188916
22 *409:10 *979:8 4.34876e-05
23 *978:8 *979:23 0
24 *978:8 *979:38 0
25 *978:10 *979:23 0
*RES
1 *4580:Q *979:8 39.5743 
2 *979:8 *4316:A 44.1107 
3 *979:8 *979:23 4.01857 
4 *979:23 *3960:B 38 
5 *979:23 *979:38 27.8429 
6 *979:38 *4318:A2 23 
*END

*D_NET *980 0.00173935
*CONN
*I *4816:A I *D sky130_fd_sc_hd__dlygate4sd3_1
*I *3960:C I *D sky130_fd_sc_hd__or4_2
*I *4581:Q O *D sky130_fd_sc_hd__dfrtp_2
*CAP
1 *4816:A 0
2 *3960:C 0.000147621
3 *4581:Q 0.00057339
4 *980:22 0.000425769
5 *3960:D *3960:C 5.3304e-05
6 *4579:RESET_B *980:22 0
7 *178:10 *3960:C 0.000307126
8 *178:10 *980:22 5.67058e-05
9 *409:10 *980:22 0.000175438
10 *956:10 *980:22 0
11 *979:38 *980:22 0
*RES
1 *4581:Q *3960:C 49.48 
2 *4581:Q *980:22 46.1614 
3 *980:22 *4816:A 38 
*END

*D_NET *981 0.00380091
*CONN
*I *3963:A I *D sky130_fd_sc_hd__or4_2
*I *3961:A I *D sky130_fd_sc_hd__or2_2
*I *4320:A I *D sky130_fd_sc_hd__nand2_2
*I *4322:A1 I *D sky130_fd_sc_hd__o21ai_2
*I *4582:Q O *D sky130_fd_sc_hd__dfrtp_2
*CAP
1 *3963:A 0.000157267
2 *3961:A 0
3 *4320:A 7.49842e-05
4 *4322:A1 0
5 *4582:Q 0.000704826
6 *981:25 0.00015916
7 *981:21 0.000330348
8 *981:10 0.000223642
9 *981:8 0.000839563
10 *3963:A *3963:B 6.9805e-05
11 *4320:A *3963:B 1.41077e-05
12 *981:25 *3963:B 9.91798e-05
13 *3963:D *3963:A 7.59794e-05
14 *3963:D *981:25 4.5051e-05
15 *4320:B *4320:A 0.000187129
16 *4320:B *981:25 4.6595e-05
17 *4322:A2 *981:21 7.55491e-05
18 *4582:RESET_B *981:8 3.92918e-05
19 *413:8 *981:10 0.000379413
20 *413:8 *981:21 2.77955e-05
21 *472:10 *981:10 8.62876e-05
22 *649:24 *981:10 0.000102083
23 *649:24 *981:21 6.28488e-05
*RES
1 *4582:Q *981:8 46.7207 
2 *981:8 *981:10 5.075 
3 *981:10 *4322:A1 38 
4 *981:10 *981:21 17.61 
5 *981:21 *981:25 2.54786 
6 *981:25 *4320:A 25.0507 
7 *981:25 *3961:A 23 
8 *981:21 *3963:A 26.6457 
*END

*D_NET *982 0.00398492
*CONN
*I *3963:B I *D sky130_fd_sc_hd__or4_2
*I *4322:B1 I *D sky130_fd_sc_hd__o21ai_2
*I *3962:A I *D sky130_fd_sc_hd__or2_2
*I *4583:Q O *D sky130_fd_sc_hd__dfrtp_2
*CAP
1 *3963:B 0.000357128
2 *4322:B1 0
3 *3962:A 0.000147483
4 *4583:Q 0.000381571
5 *982:25 0.000759725
6 *982:8 0.000931651
7 *3963:A *3963:B 6.9805e-05
8 *4320:A *3963:B 1.41077e-05
9 *4322:A2 *3963:B 5.26101e-05
10 *4322:A2 *982:25 4.21594e-06
11 *179:8 *3963:B 0.000153218
12 *179:8 *982:25 3.70094e-05
13 *179:12 *982:25 0.000503418
14 *180:14 *3962:A 0.000173827
15 *180:14 *982:25 0.000111045
16 *413:8 *982:25 7.16889e-05
17 *612:8 *3962:A 0
18 *612:8 *982:25 0
19 *959:10 *982:25 0.000117239
20 *981:25 *3963:B 9.91798e-05
*RES
1 *4583:Q *982:8 43.8621 
2 *982:8 *3962:A 41.5836 
3 *982:8 *982:25 12.3043 
4 *982:25 *4322:B1 38 
5 *982:25 *3963:B 44.2143 
*END

*D_NET *983 0.00198736
*CONN
*I *3963:C I *D sky130_fd_sc_hd__or4_2
*I *4808:A I *D sky130_fd_sc_hd__dlygate4sd3_1
*I *4584:Q O *D sky130_fd_sc_hd__dfrtp_2
*CAP
1 *3963:C 0.000337637
2 *4808:A 9.37145e-05
3 *4584:Q 0.00036398
4 *983:10 0.000795331
5 *4323:A2 *983:10 6.17437e-06
6 *181:10 *3963:C 0
7 *181:16 *3963:C 0
8 *181:16 *983:10 0
9 *649:24 *3963:C 0.000305391
10 *649:24 *983:10 8.51329e-05
11 *688:36 *3963:C 0
*RES
1 *4584:Q *983:10 43.2614 
2 *983:10 *4808:A 39.5743 
3 *983:10 *3963:C 46.2443 
*END

*D_NET *984 0.00419378
*CONN
*I *3948:A_N I *D sky130_fd_sc_hd__and3b_2
*I *3868:A1 I *D sky130_fd_sc_hd__o21a_2
*I *4817:A I *D sky130_fd_sc_hd__dlygate4sd3_1
*I *3937:A I *D sky130_fd_sc_hd__nor2_2
*I *4427:Q O *D sky130_fd_sc_hd__dfrtp_2
*CAP
1 *3948:A_N 1.6048e-05
2 *3868:A1 0
3 *4817:A 0
4 *3937:A 0.000199791
5 *4427:Q 0.000128326
6 *984:42 0.000280311
7 *984:36 0.00053291
8 *984:25 0.000236551
9 *984:8 0.000328117
10 *3948:B *984:36 4.78497e-05
11 *4818:A *3948:A_N 4.3198e-05
12 *4818:A *984:36 5.3304e-05
13 *19:10 *984:42 0.000135616
14 *102:23 *984:42 0.000213915
15 *171:10 *984:36 0.000311789
16 *483:14 *984:42 0
17 *520:12 *984:36 6.55462e-05
18 *520:23 *3948:A_N 2.93431e-05
19 *520:23 *984:36 7.39362e-05
20 *521:10 *984:8 0.000290371
21 *521:18 *3937:A 0.000162254
22 *521:18 *984:8 8.65972e-05
23 *528:57 *3937:A 7.0127e-05
24 *576:18 *984:42 7.42327e-05
25 *622:6 *984:36 0.000267356
26 *622:33 *3937:A 0.000193545
27 *706:24 *984:8 0.000324972
28 *713:12 *3937:A 1.07299e-05
29 *713:12 *984:8 1.70417e-05
*RES
1 *4427:Q *984:8 43.075 
2 *984:8 *3937:A 42.8264 
3 *984:8 *984:25 15 
4 *984:25 *4817:A 23 
5 *984:25 *984:36 6.98071 
6 *984:36 *984:42 35.7793 
7 *984:42 *3868:A1 23 
8 *984:36 *3948:A_N 23.6214 
*END

*D_NET *985 0.00330484
*CONN
*I *4795:A I *D sky130_fd_sc_hd__dlygate4sd3_1
*I *3840:A I *D sky130_fd_sc_hd__inv_2
*I *3940:A1 I *D sky130_fd_sc_hd__o21ai_2
*I *4428:Q O *D sky130_fd_sc_hd__dfrtp_2
*CAP
1 *4795:A 0
2 *3840:A 2.256e-05
3 *3940:A1 0.000277764
4 *4428:Q 0
5 *985:38 0.000199118
6 *985:8 0.00115095
7 *985:4 0.00104974
8 *3840:A *3935:A1 8.11552e-05
9 *3940:A1 *3935:A1 0.000114092
10 *3940:A1 *4786:A 2.93845e-05
11 *4367:A2 *985:38 0
12 *4428:RESET_B *985:8 6.27234e-05
13 *90:43 *3840:A 4.78793e-05
14 *90:43 *3940:A1 5.31444e-05
15 *487:62 *985:8 7.5341e-05
16 *487:62 *985:38 1.04148e-05
17 *529:76 *3940:A1 7.55599e-05
18 *665:65 *3940:A1 5.50106e-05
*RES
1 *4428:Q *985:4 23 
2 *985:4 *985:8 26.1029 
3 *985:8 *3940:A1 43.5307 
4 *985:8 *3840:A 39.2014 
5 *985:4 *985:38 33.0036 
6 *985:38 *4795:A 23 
*END

*D_NET *986 0.000957062
*CONN
*I *4476:D I *D sky130_fd_sc_hd__dfrtp_2
*I *3876:Y O *D sky130_fd_sc_hd__inv_2
*CAP
1 *4476:D 0
2 *3876:Y 0.000390404
3 *986:10 0.000390404
4 *3876:A *986:10 0.000126847
5 *4367:B1 *986:10 3.17516e-05
6 *4476:RESET_B *986:10 0
7 *115:23 *986:10 1.76557e-05
*RES
1 *3876:Y *986:10 43.9864 
2 *986:10 *4476:D 38 
*END

*D_NET *987 0.00265639
*CONN
*I *3841:A I *D sky130_fd_sc_hd__inv_2
*I *3935:A1 I *D sky130_fd_sc_hd__o21a_2
*I *4786:A I *D sky130_fd_sc_hd__dlygate4sd3_1
*I *4429:Q O *D sky130_fd_sc_hd__dfrtp_2
*CAP
1 *3841:A 0
2 *3935:A1 0.000205957
3 *4786:A 0.000275383
4 *4429:Q 7.88996e-05
5 *987:14 0.000721856
6 *987:8 0.000319416
7 *3840:A *3935:A1 8.11552e-05
8 *3940:A1 *3935:A1 0.000114092
9 *3940:A1 *4786:A 2.93845e-05
10 *4476:RESET_B *987:14 0
11 *89:8 *3935:A1 0.000221084
12 *90:10 *987:14 0.000143655
13 *90:43 *3935:A1 1.69668e-05
14 *90:43 *987:14 4.23714e-05
15 *113:8 *4786:A 9.49442e-05
16 *523:10 *987:14 3.83778e-05
17 *523:47 *3935:A1 8.68016e-06
18 *523:47 *987:14 2.96154e-05
19 *528:16 *3935:A1 0.000222113
20 *529:76 *4786:A 1.24376e-05
21 *707:12 *987:14 0
*RES
1 *4429:Q *987:8 24.595 
2 *987:8 *987:14 19.6607 
3 *987:14 *4786:A 42.9093 
4 *987:14 *3935:A1 43.8414 
5 *987:8 *3841:A 23 
*END

*D_NET *988 0.0010225
*CONN
*I *4477:D I *D sky130_fd_sc_hd__dfrtp_2
*I *4076:Y O *D sky130_fd_sc_hd__nor2_2
*CAP
1 *4477:D 7.58868e-05
2 *4076:Y 0.000149493
3 *988:8 0.00022538
4 *4134:A *988:8 0
5 *4477:RESET_B *4477:D 7.88828e-05
6 *4568:RESET_B *988:8 3.99296e-05
7 *272:28 *988:8 0.000382564
8 *788:23 *988:8 7.03663e-05
*RES
1 *4076:Y *988:8 43.075 
2 *988:8 *4477:D 39.5743 
*END

*D_NET *989 0.00033143
*CONN
*I *4478:D I *D sky130_fd_sc_hd__dfstp_2
*I *4078:X O *D sky130_fd_sc_hd__a21o_2
*CAP
1 *4478:D 0
2 *4078:X 0.000165715
3 *989:10 0.000165715
4 *273:8 *989:10 0
*RES
1 *4078:X *989:10 40.5271 
2 *989:10 *4478:D 38 
*END

*D_NET *990 0.00054532
*CONN
*I *4479:D I *D sky130_fd_sc_hd__dfrtp_2
*I *4080:Y O *D sky130_fd_sc_hd__a21oi_2
*CAP
1 *4479:D 5.83779e-05
2 *4080:Y 8.27562e-05
3 *990:8 0.000141134
4 *4479:D *4770:A 0.000185434
5 *990:8 *998:25 0
6 *4479:CLK *4479:D 2.30292e-05
7 *272:28 *990:8 5.45887e-05
*RES
1 *4080:Y *990:8 39.5536 
2 *990:8 *4479:D 40.0507 
*END

*D_NET *991 0.000508425
*CONN
*I *4480:D I *D sky130_fd_sc_hd__dfrtp_2
*I *4082:Y O *D sky130_fd_sc_hd__a21oi_2
*CAP
1 *4480:D 3.98456e-05
2 *4082:Y 0.000115123
3 *991:10 0.000154969
4 *4480:D *3877:C 2.93845e-05
5 *4480:RESET_B *991:10 0
6 *272:20 *991:10 0.000114092
7 *605:8 *991:10 5.50106e-05
*RES
1 *4082:Y *991:10 40.175 
2 *991:10 *4480:D 38.6214 
*END

*D_NET *992 0.000316172
*CONN
*I *4481:D I *D sky130_fd_sc_hd__dfstp_2
*I *4084:Y O *D sky130_fd_sc_hd__nand3_2
*CAP
1 *4481:D 0
2 *4084:Y 5.08425e-05
3 *992:8 5.08425e-05
4 *992:8 *4483:D 0.00014411
5 *271:19 *992:8 7.03766e-05
*RES
1 *4084:Y *992:8 39.9057 
2 *992:8 *4481:D 38 
*END

*D_NET *993 0.000562925
*CONN
*I *4482:D I *D sky130_fd_sc_hd__dfstp_2
*I *4086:Y O *D sky130_fd_sc_hd__o21ai_2
*CAP
1 *4482:D 0
2 *4086:Y 0.000236502
3 *993:10 0.000236502
4 *4085:B1 *993:10 7.74854e-05
5 *4086:B1 *993:10 1.24362e-05
*RES
1 *4086:Y *993:10 41.8321 
2 *993:10 *4482:D 38 
*END

*D_NET *994 0.00242093
*CONN
*I *4483:D I *D sky130_fd_sc_hd__dfrtp_2
*I *4088:Y O *D sky130_fd_sc_hd__a21oi_2
*CAP
1 *4483:D 0.000397268
2 *4088:Y 8.6035e-05
3 *994:8 0.000483303
4 *4483:D *1003:12 0.000193034
5 *4077:B1 *4483:D 0.000223043
6 *271:19 *4483:D 7.55006e-05
7 *272:12 *4483:D 0.000818638
8 *992:8 *4483:D 0.00014411
*RES
1 *4088:Y *994:8 39.0979 
2 *994:8 *4483:D 49.6829 
*END

*D_NET *995 0.000757008
*CONN
*I *4484:D I *D sky130_fd_sc_hd__dfstp_2
*I *4090:X O *D sky130_fd_sc_hd__a21o_2
*CAP
1 *4484:D 0
2 *4090:X 0.000313496
3 *995:10 0.000313496
4 *4089:B *995:10 8.30457e-05
5 *271:56 *995:10 4.69696e-05
*RES
1 *4090:X *995:10 44.2143 
2 *995:10 *4484:D 38 
*END

*D_NET *996 0.000646962
*CONN
*I *4485:D I *D sky130_fd_sc_hd__dfstp_2
*I *4092:X O *D sky130_fd_sc_hd__a21o_2
*CAP
1 *4485:D 0
2 *4092:X 0.000162737
3 *996:10 0.000162737
4 *4092:B1 *996:10 9.84851e-05
5 *4725:A *996:10 3.96981e-05
6 *271:56 *996:10 4.30463e-05
7 *710:26 *996:10 0.000140259
*RES
1 *4092:X *996:10 41.8321 
2 *996:10 *4485:D 38 
*END

*D_NET *997 0.000510245
*CONN
*I *4486:D I *D sky130_fd_sc_hd__dfrtp_2
*I *4093:X O *D sky130_fd_sc_hd__and3_2
*CAP
1 *4486:D 4.82486e-05
2 *4093:X 7.55506e-05
3 *997:8 0.000123799
4 *4486:D *3883:A 0.00014196
5 *4093:C *997:8 0.000113153
6 *4486:CLK *4486:D 7.53384e-06
7 *123:10 *997:8 0
*RES
1 *4093:X *997:8 39.5536 
2 *997:8 *4486:D 39.5743 
*END

*D_NET *998 0.00632874
*CONN
*I *3877:A I *D sky130_fd_sc_hd__or3_2
*I *4079:A1 I *D sky130_fd_sc_hd__o21ai_2
*I *4077:A1 I *D sky130_fd_sc_hd__o21ai_2
*I *3878:A I *D sky130_fd_sc_hd__or4_2
*I *4837:A I *D sky130_fd_sc_hd__dlygate4sd3_1
*I *4770:A I *D sky130_fd_sc_hd__dlygate4sd3_1
*I *4477:Q O *D sky130_fd_sc_hd__dfrtp_2
*CAP
1 *3877:A 0
2 *4079:A1 0.000117674
3 *4077:A1 0.000418471
4 *3878:A 2.84587e-05
5 *4837:A 0.000242902
6 *4770:A 0.000598203
7 *4477:Q 0.000115091
8 *998:80 7.54758e-05
9 *998:65 0.000408122
10 *998:36 0.000909444
11 *998:25 0.000599428
12 *998:8 0.000822279
13 *3878:A *3878:B 7.53384e-06
14 *4077:A1 *1001:18 4.6318e-06
15 *4079:A1 *999:26 2.93747e-05
16 *998:8 *1000:8 0
17 *998:25 *1000:8 0
18 *998:36 *3878:C 0
19 *998:36 *1000:17 0
20 *998:36 *1001:8 0
21 *998:36 *1001:18 0.000114645
22 *998:80 *999:16 6.48142e-05
23 *998:80 *999:26 0
24 *4077:B1 *4077:A1 5.67058e-05
25 *4080:A1 *998:80 0.000166513
26 *4080:A2 *4079:A1 0.00010018
27 *4479:CLK *4770:A 7.45491e-05
28 *4479:D *4770:A 0.000185434
29 *4479:RESET_B *998:8 0.000199701
30 *4480:RESET_B *4077:A1 0
31 *4480:RESET_B *998:36 0
32 *117:8 *998:36 5.61414e-05
33 *117:28 *3878:A 2.93747e-05
34 *117:28 *4077:A1 0.000139647
35 *272:12 *4077:A1 0
36 *272:20 *998:36 0
37 *272:28 *998:65 0.000140259
38 *636:6 *4079:A1 1.76557e-05
39 *636:6 *4837:A 5.50049e-05
40 *636:6 *998:65 0.00015163
41 *645:10 *4079:A1 9.84794e-05
42 *645:10 *998:65 0.000267173
43 *645:10 *998:80 3.3746e-05
44 *990:8 *998:25 0
*RES
1 *4477:Q *998:8 41.1382 
2 *998:8 *4770:A 47.0832 
3 *998:8 *998:25 1.72964 
4 *998:25 *4837:A 38.6214 
5 *998:25 *998:36 8.94857 
6 *998:36 *3878:A 38.6214 
7 *998:36 *4077:A1 45.9957 
8 *4837:A *998:65 29.3593 
9 *998:65 *4079:A1 26.0243 
10 *998:65 *998:80 32.2579 
11 *998:80 *3877:A 23 
*END

*D_NET *999 0.00343898
*CONN
*I *3878:B I *D sky130_fd_sc_hd__or4_2
*I *4077:A2 I *D sky130_fd_sc_hd__o21ai_2
*I *4078:A2 I *D sky130_fd_sc_hd__a21o_2
*I *3877:B I *D sky130_fd_sc_hd__or3_2
*I *4079:A2 I *D sky130_fd_sc_hd__o21ai_2
*I *4478:Q O *D sky130_fd_sc_hd__dfstp_2
*CAP
1 *3878:B 0.000168423
2 *4077:A2 0
3 *4078:A2 0
4 *3877:B 0
5 *4079:A2 0
6 *4478:Q 0
7 *999:49 9.6161e-05
8 *999:26 0.000340162
9 *999:16 0.000426653
10 *999:12 0.000237508
11 *999:6 0.000498422
12 *999:4 0.000419666
13 *3878:A *3878:B 7.53384e-06
14 *4079:A1 *999:26 2.93747e-05
15 *4080:A1 *999:16 4.17929e-05
16 *4080:A1 *999:26 0
17 *4081:B *999:12 2.08324e-05
18 *4081:B *999:16 5.09885e-05
19 *4480:CLK *999:12 4.91387e-05
20 *4480:CLK *999:49 6.25829e-05
21 *4480:RESET_B *3878:B 3.71251e-05
22 *4480:RESET_B *999:6 4.59382e-05
23 *116:8 *999:26 8.19644e-06
24 *117:28 *3878:B 2.65879e-05
25 *273:8 *999:12 0.000169683
26 *273:8 *999:49 8.1606e-05
27 *487:16 *999:49 0.000215131
28 *487:33 *999:6 2.64616e-05
29 *487:33 *999:12 5.12254e-05
30 *645:10 *999:16 0.000222113
31 *645:10 *999:26 4.08537e-05
32 *998:80 *999:16 6.48142e-05
33 *998:80 *999:26 0
*RES
1 *4478:Q *999:4 23 
2 *999:4 *999:6 3.48 
3 *999:6 *999:12 18.7079 
4 *999:12 *999:16 18.3143 
5 *999:16 *999:26 34.93 
6 *999:26 *4079:A2 23 
7 *999:16 *3877:B 23 
8 *999:12 *4078:A2 38 
9 *999:6 *999:49 33.6664 
10 *999:49 *4077:A2 23 
11 *999:4 *3878:B 26.5214 
*END

*D_NET *1000 0.00304382
*CONN
*I *3878:C I *D sky130_fd_sc_hd__or4_2
*I *3877:C I *D sky130_fd_sc_hd__or3_2
*I *4830:A I *D sky130_fd_sc_hd__dlygate4sd3_1
*I *4479:Q O *D sky130_fd_sc_hd__dfrtp_2
*CAP
1 *3878:C 0.000542239
2 *3877:C 0.000655233
3 *4830:A 0
4 *4479:Q 0.000121764
5 *1000:17 0.00135285
6 *1000:8 0.00027714
7 *3878:C *1001:8 5.61311e-05
8 *3878:C *1001:18 0
9 *4480:D *3877:C 2.93845e-05
10 *116:8 *3877:C 3.7122e-06
11 *117:28 *3878:C 5.37348e-06
12 *998:8 *1000:8 0
13 *998:25 *1000:8 0
14 *998:36 *3878:C 0
15 *998:36 *1000:17 0
*RES
1 *4479:Q *1000:8 39.9057 
2 *1000:8 *4830:A 38 
3 *1000:8 *1000:17 2.96214 
4 *1000:17 *3877:C 49.6 
5 *1000:17 *3878:C 48.2121 
*END

*D_NET *1001 0.00106181
*CONN
*I *4802:A I *D sky130_fd_sc_hd__dlygate4sd3_1
*I *3878:D I *D sky130_fd_sc_hd__or4_2
*I *4480:Q O *D sky130_fd_sc_hd__dfrtp_2
*CAP
1 *4802:A 6.22175e-05
2 *3878:D 0
3 *4480:Q 0.000102683
4 *1001:18 0.000262158
5 *1001:10 0.000324375
6 *1001:8 0.000102683
7 *3878:C *1001:8 5.61311e-05
8 *3878:C *1001:18 0
9 *4077:A1 *1001:18 4.6318e-06
10 *605:8 *1001:18 3.22879e-05
11 *998:36 *1001:8 0
12 *998:36 *1001:18 0.000114645
*RES
1 *4480:Q *1001:8 40.2579 
2 *1001:8 *1001:10 15 
3 *1001:10 *1001:18 35.4893 
4 *1001:18 *3878:D 23 
5 *1001:10 *4802:A 24.0979 
*END

*D_NET *1002 0.00168546
*CONN
*I *3880:A I *D sky130_fd_sc_hd__or4_2
*I *4750:A I *D sky130_fd_sc_hd__dlygate4sd3_1
*I *3879:A I *D sky130_fd_sc_hd__or2_2
*I *4481:Q O *D sky130_fd_sc_hd__dfstp_2
*CAP
1 *3880:A 6.95749e-05
2 *4750:A 0.000150496
3 *3879:A 0.000275313
4 *4481:Q 6.95749e-05
5 *1002:6 0.000425809
6 *3880:A *3880:C 3.22879e-05
7 *3880:D *3880:A 5.58003e-05
8 *4483:RESET_B *3879:A 5.61414e-05
9 *4483:RESET_B *4750:A 2.97188e-05
10 *119:8 *3880:A 0.000189857
11 *548:10 *3879:A 0
12 *614:8 *3879:A 8.85189e-05
13 *614:8 *4750:A 0.000242371
*RES
1 *4481:Q *1002:6 38 
2 *1002:6 *3879:A 43.2614 
3 *1002:6 *4750:A 41.6664 
4 *4481:Q *3880:A 48.5479 
*END

*D_NET *1003 0.0031091
*CONN
*I *3880:B I *D sky130_fd_sc_hd__or4_2
*I *4085:A1_N I *D sky130_fd_sc_hd__o2bb2a_2
*I *4087:A1 I *D sky130_fd_sc_hd__o21ai_2
*I *4797:A I *D sky130_fd_sc_hd__dlygate4sd3_1
*I *4482:Q O *D sky130_fd_sc_hd__dfstp_2
*CAP
1 *3880:B 0.000363236
2 *4085:A1_N 0.000405491
3 *4087:A1 0.000143665
4 *4797:A 0
5 *4482:Q 1.28773e-05
6 *1003:35 0.000768727
7 *1003:33 0.000143665
8 *1003:12 7.9149e-05
9 *1003:6 9.20263e-05
10 *3880:D *3880:B 0.000143767
11 *4087:A2 *1003:6 3.26241e-05
12 *4481:SET_B *1003:33 8.52094e-06
13 *4482:SET_B *4085:A1_N 2.8521e-05
14 *4482:SET_B *1003:6 5.5792e-05
15 *4482:SET_B *1003:33 8.07477e-05
16 *4483:D *1003:12 0.000193034
17 *4483:RESET_B *1003:33 0
18 *4657:A *4085:A1_N 0.00024097
19 *119:8 *3880:B 5.70473e-05
20 *119:10 *1003:33 6.67555e-05
21 *271:19 *1003:12 0.000107715
22 *272:12 *1003:12 1.39826e-05
23 *272:12 *1003:33 1.57794e-05
24 *487:73 *4085:A1_N 5.50049e-05
*RES
1 *4482:Q *1003:6 23.6214 
2 *1003:6 *1003:12 32.9621 
3 *1003:12 *4797:A 23 
4 *1003:6 *4087:A1 23 
5 *4087:A1 *1003:33 41.5836 
6 *1003:33 *1003:35 15 
7 *1003:35 *4085:A1_N 31.8968 
8 *1003:35 *3880:B 30.0014 
*END

*D_NET *1004 0.00143302
*CONN
*I *3880:C I *D sky130_fd_sc_hd__or4_2
*I *4810:A I *D sky130_fd_sc_hd__dlygate4sd3_1
*I *4483:Q O *D sky130_fd_sc_hd__dfrtp_2
*CAP
1 *3880:C 0.00019256
2 *4810:A 0
3 *4483:Q 0.000293892
4 *1004:10 0.000486452
5 *3880:A *3880:C 3.22879e-05
6 *4083:B *1004:10 4.06849e-05
7 *119:8 *3880:C 2.62931e-05
8 *276:10 *1004:10 5.14746e-06
9 *548:10 *3880:C 0.00021382
10 *548:10 *1004:10 0.000141879
*RES
1 *4483:Q *1004:10 42.9093 
2 *1004:10 *4810:A 38 
3 *1004:10 *3880:C 42.5364 
*END

*D_NET *1005 0.00126779
*CONN
*I *4798:A I *D sky130_fd_sc_hd__dlygate4sd3_1
*I *3882:A I *D sky130_fd_sc_hd__or3_2
*I *3881:A I *D sky130_fd_sc_hd__or2_2
*I *4484:Q O *D sky130_fd_sc_hd__dfstp_2
*CAP
1 *4798:A 0
2 *3882:A 0
3 *3881:A 0
4 *4484:Q 0
5 *1005:23 9.35927e-05
6 *1005:17 0.000315503
7 *1005:10 0.000125961
8 *1005:4 0.000347871
9 *1005:23 *1006:14 6.48142e-05
10 *119:47 *1005:10 0
11 *119:47 *1005:23 0.000194318
12 *120:8 *1005:10 9.11009e-05
13 *601:10 *1005:17 3.46302e-05
*RES
1 *4484:Q *1005:4 23 
2 *1005:4 *1005:10 32.61 
3 *1005:10 *3881:A 23 
4 *1005:4 *1005:17 3.95643 
5 *1005:17 *1005:23 32.61 
6 *1005:23 *3882:A 23 
7 *1005:17 *4798:A 23 
*END

*D_NET *1006 0.000955032
*CONN
*I *3882:B I *D sky130_fd_sc_hd__or3_2
*I *4794:A I *D sky130_fd_sc_hd__dlygate4sd3_1
*I *4485:Q O *D sky130_fd_sc_hd__dfstp_2
*CAP
1 *3882:B 0
2 *4794:A 0
3 *4485:Q 0.000175575
4 *1006:14 0.000254019
5 *1006:6 0.000429594
6 *119:47 *1006:14 1.47563e-05
7 *121:6 *1006:6 1.6273e-05
8 *1005:23 *1006:14 6.48142e-05
*RES
1 *4485:Q *1006:6 25.0507 
2 *1006:6 *1006:14 34.7643 
3 *1006:14 *4794:A 23 
4 *1006:6 *3882:B 23 
*END

*D_NET *1007 0.00254838
*CONN
*I *3884:A I *D sky130_fd_sc_hd__or2_2
*I *4787:A I *D sky130_fd_sc_hd__dlygate4sd3_1
*I *3883:A I *D sky130_fd_sc_hd__nor2_2
*I *4486:Q O *D sky130_fd_sc_hd__dfrtp_2
*CAP
1 *3884:A 0.00019806
2 *4787:A 0
3 *3883:A 0.000520052
4 *4486:Q 0.000264717
5 *1007:19 0.000288823
6 *1007:6 0.000875532
7 *4430:RESET_B *3884:A 8.58219e-05
8 *4430:RESET_B *1007:19 4.58924e-05
9 *4486:CLK *3883:A 1.41077e-05
10 *4486:D *3883:A 0.00014196
11 *121:40 *3884:A 5.67058e-05
12 *123:10 *3884:A 0
13 *123:10 *1007:19 0
14 *700:8 *3884:A 5.67058e-05
*RES
1 *4486:Q *1007:6 26.48 
2 *1007:6 *3883:A 30.1879 
3 *1007:6 *1007:19 16.9057 
4 *1007:19 *4787:A 38 
5 *1007:19 *3884:A 42.5571 
*END

*D_NET *1008 0.00279617
*CONN
*I *4396:A1 I *D sky130_fd_sc_hd__a31o_2
*I *4832:A I *D sky130_fd_sc_hd__dlygate4sd3_1
*I *4391:A2 I *D sky130_fd_sc_hd__o21ai_2
*I *4393:D I *D sky130_fd_sc_hd__and4b_2
*I *3885:A I *D sky130_fd_sc_hd__nand3_2
*I *4440:Q O *D sky130_fd_sc_hd__dfrtp_2
*CAP
1 *4396:A1 3.83322e-05
2 *4832:A 0.00013089
3 *4391:A2 5.61481e-05
4 *4393:D 0.000308191
5 *3885:A 0
6 *4440:Q 7.30481e-05
7 *1008:46 0.000255532
8 *1008:31 0.000396205
9 *1008:12 0.000232359
10 *1008:6 0.000359851
11 *4396:A1 *4396:A2 1.94812e-05
12 *4832:A *4396:A2 3.16665e-05
13 *1008:46 *1010:25 0.000111852
14 *3886:C *4391:A2 6.17437e-06
15 *4392:B1 *1008:12 6.43108e-05
16 *4393:B *1008:31 0.00018282
17 *4442:RESET_B *1008:12 0.000246739
18 *444:8 *4393:D 7.27182e-05
19 *444:8 *1008:6 4.67488e-05
20 *444:8 *1008:31 1.89178e-05
21 *445:10 *4393:D 6.17437e-06
22 *445:10 *1008:6 2.02872e-05
23 *447:8 *1008:46 0
24 *638:10 *1008:12 0
25 *705:75 *1008:6 9.58714e-05
26 *715:54 *1008:31 2.18506e-05
*RES
1 *4440:Q *1008:6 24.5743 
2 *1008:6 *1008:12 35.4271 
3 *1008:12 *3885:A 23 
4 *1008:6 *4393:D 24.5743 
5 *4393:D *1008:31 27.4329 
6 *1008:31 *4391:A2 24.1186 
7 *1008:31 *1008:46 31.5536 
8 *1008:46 *4832:A 24.9471 
9 *1008:46 *4396:A1 23.6214 
*END

*D_NET *1009 0.00353768
*CONN
*I *4785:A I *D sky130_fd_sc_hd__dlygate4sd3_1
*I *4396:A2 I *D sky130_fd_sc_hd__a31o_2
*I *4393:A_N I *D sky130_fd_sc_hd__and4b_2
*I *3885:B I *D sky130_fd_sc_hd__nand3_2
*I *4441:Q O *D sky130_fd_sc_hd__dfrtp_2
*CAP
1 *4785:A 0.000150079
2 *4396:A2 0.000168732
3 *4393:A_N 0
4 *3885:B 0.000320175
5 *4441:Q 0.000265565
6 *1009:12 0.000451756
7 *1009:10 0.000333088
8 *1009:8 0.000448419
9 *3885:B *1010:12 0.000219882
10 *4392:A1 *3885:B 2.93747e-05
11 *4392:A2 *3885:B 0.000181966
12 *4394:A2 *4785:A 0
13 *4394:A2 *1009:10 0
14 *4394:A2 *1009:12 0
15 *4396:A1 *4396:A2 1.94812e-05
16 *4396:A3 *4396:A2 3.91386e-05
17 *4832:A *4396:A2 3.16665e-05
18 *124:10 *3885:B 7.73389e-05
19 *443:21 *4396:A2 0.000228909
20 *443:21 *1009:10 3.70187e-05
21 *443:21 *1009:12 0.000209739
22 *443:23 *3885:B 0.000203407
23 *443:23 *1009:12 3.70094e-05
24 *638:10 *1009:8 1.39317e-05
25 *638:10 *1009:12 0
26 *715:54 *3885:B 7.10099e-05
*RES
1 *4441:Q *1009:8 41.48 
2 *1009:8 *1009:10 0.849286 
3 *1009:10 *1009:12 3.31429 
4 *1009:12 *3885:B 46.0993 
5 *1009:12 *4393:A_N 38 
6 *1009:10 *4396:A2 42.205 
7 *1009:8 *4785:A 40.5271 
*END

*D_NET *1010 0.00212282
*CONN
*I *4396:B1 I *D sky130_fd_sc_hd__a31o_2
*I *3885:C I *D sky130_fd_sc_hd__nand3_2
*I *4442:Q O *D sky130_fd_sc_hd__dfrtp_2
*CAP
1 *4396:B1 0
2 *3885:C 0
3 *4442:Q 6.50761e-05
4 *1010:25 0.000237545
5 *1010:12 8.29683e-05
6 *1010:6 0.000385589
7 *3885:B *1010:12 0.000219882
8 *3886:C *1010:25 6.6869e-05
9 *4391:A1 *1010:25 1.02387e-05
10 *4392:A2 *1010:12 1.37246e-05
11 *443:21 *1010:25 8.16356e-05
12 *443:23 *1010:25 9.03979e-05
13 *446:8 *1010:12 0.000168754
14 *447:8 *1010:25 0
15 *638:10 *1010:12 1.62615e-05
16 *713:52 *1010:6 0.000137651
17 *713:52 *1010:25 0.000178517
18 *715:54 *1010:6 5.3304e-05
19 *715:54 *1010:12 3.47781e-05
20 *715:54 *1010:25 0.00016778
21 *1008:46 *1010:25 0.000111852
*RES
1 *4442:Q *1010:6 24.5743 
2 *1010:6 *1010:12 33.3143 
3 *1010:12 *3885:C 23 
4 *1010:6 *1010:25 36.7736 
5 *1010:25 *4396:B1 23 
*END

*D_NET *1011 0.00135467
*CONN
*I *3886:A I *D sky130_fd_sc_hd__nor3_2
*I *4749:A I *D sky130_fd_sc_hd__dlygate4sd3_1
*I *4443:Q O *D sky130_fd_sc_hd__dfrtp_2
*CAP
1 *3886:A 0.0002311
2 *4749:A 2.77218e-05
3 *4443:Q 0.000119686
4 *1011:10 0.000378509
5 *4445:CLK *3886:A 0
6 *447:8 *3886:A 0.000139224
7 *447:8 *1011:10 5.26204e-05
8 *448:10 *4749:A 2.64616e-05
9 *449:177 *1011:10 2.30292e-05
10 *712:8 *3886:A 0.000138727
11 *712:8 *1011:10 0.000164291
12 *715:31 *4749:A 5.3304e-05
*RES
1 *4443:Q *1011:10 40.8793 
2 *1011:10 *4749:A 38.6214 
3 *1011:10 *3886:A 43.7793 
*END

*D_NET *1012 0.00199338
*CONN
*I *4371:A I *D sky130_fd_sc_hd__and2_2
*I *3871:A1 I *D sky130_fd_sc_hd__a21o_2
*I *4430:Q O *D sky130_fd_sc_hd__dfrtp_2
*CAP
1 *4371:A 0
2 *3871:A1 0
3 *4430:Q 7.86745e-05
4 *1012:20 0.000447859
5 *1012:12 0.000636648
6 *1012:8 0.000267464
7 *1012:20 *1022:59 4.06849e-05
8 *4430:RESET_B *1012:8 0.000141888
9 *4430:RESET_B *1012:20 0
10 *121:40 *1012:20 0.000359332
11 *650:40 *1012:20 2.08324e-05
*RES
1 *4430:Q *1012:8 39.9057 
2 *1012:8 *1012:12 18.0036 
3 *1012:12 *1012:20 37.6436 
4 *1012:20 *3871:A1 23 
5 *1012:12 *4371:A 23 
*END

*D_NET *1013 0.000685005
*CONN
*I *4765:A I *D sky130_fd_sc_hd__dlygate4sd3_1
*I *4373:A I *D sky130_fd_sc_hd__and2_2
*I *4431:Q O *D sky130_fd_sc_hd__dfrtp_2
*CAP
1 *4765:A 0.000111048
2 *4373:A 9.57131e-05
3 *4431:Q 0.000107221
4 *1013:10 0.000206761
5 *1013:8 0.000107221
6 *565:12 *4373:A 5.70419e-05
7 *710:62 *1013:8 0
*RES
1 *4431:Q *1013:8 39.9057 
2 *1013:8 *1013:10 15 
3 *1013:10 *4373:A 25.0507 
4 *1013:10 *4765:A 25.0507 
*END

*D_NET *1014 0.000955972
*CONN
*I *4764:A I *D sky130_fd_sc_hd__dlygate4sd3_1
*I *4375:A I *D sky130_fd_sc_hd__and2_2
*I *4432:Q O *D sky130_fd_sc_hd__dfrtp_2
*CAP
1 *4764:A 0.000215513
2 *4375:A 0
3 *4432:Q 0
4 *1014:12 0.000162622
5 *1014:4 0.000378135
6 *4432:RESET_B *1014:12 0.000199701
7 *563:8 *1014:12 0
*RES
1 *4432:Q *1014:4 23 
2 *1014:4 *1014:12 33.7079 
3 *1014:12 *4375:A 23 
4 *1014:4 *4764:A 26.9564 
*END

*D_NET *1015 0.00041434
*CONN
*I *4377:A I *D sky130_fd_sc_hd__and2_2
*I *4769:A I *D sky130_fd_sc_hd__dlygate4sd3_1
*I *4433:Q O *D sky130_fd_sc_hd__dfrtp_2
*CAP
1 *4377:A 4.56369e-05
2 *4769:A 0
3 *4433:Q 0.00011229
4 *1015:10 4.56369e-05
5 *1015:8 0.00011229
6 *4434:CLK *1015:8 0
7 *433:42 *4377:A 9.84851e-05
*RES
1 *4433:Q *1015:8 39.9057 
2 *1015:8 *1015:10 15 
3 *1015:10 *4769:A 23 
4 *1015:10 *4377:A 24.0979 
*END

*D_NET *1016 0.00343235
*CONN
*I *4766:A I *D sky130_fd_sc_hd__dlygate4sd3_1
*I *4379:A I *D sky130_fd_sc_hd__and2_2
*I *4434:Q O *D sky130_fd_sc_hd__dfrtp_2
*CAP
1 *4766:A 0.000888456
2 *4379:A 0
3 *4434:Q 0.000138216
4 *1016:12 0.000268435
5 *1016:6 0.00129511
6 *1016:12 *4381:A 8.51167e-05
7 *4434:CLK *4766:A 1.59094e-05
8 *4434:RESET_B *4766:A 2.52027e-05
9 *4434:RESET_B *1016:12 0
10 *73:10 *1016:12 0.000234484
11 *433:25 *1016:12 1.14452e-05
12 *433:42 *1016:12 0.000456747
13 *566:10 *4766:A 1.32289e-05
*RES
1 *4434:Q *1016:6 24.5743 
2 *1016:6 *1016:12 39.3007 
3 *1016:12 *4379:A 23 
4 *1016:6 *4766:A 34.9521 
*END

*D_NET *1017 0.000696276
*CONN
*I *4755:A I *D sky130_fd_sc_hd__dlygate4sd3_1
*I *4381:A I *D sky130_fd_sc_hd__and2_2
*I *4435:Q O *D sky130_fd_sc_hd__dfrtp_2
*CAP
1 *4755:A 7.21382e-05
2 *4381:A 0.000136694
3 *4435:Q 0
4 *1017:6 0.000208832
5 *4382:A3 *4381:A 0
6 *73:10 *4381:A 3.92407e-05
7 *73:10 *4755:A 0.00014411
8 *439:8 *4381:A 0
9 *439:8 *4755:A 0
10 *650:73 *4381:A 1.01436e-05
11 *1016:12 *4381:A 8.51167e-05
*RES
1 *4435:Q *1017:6 38 
2 *1017:6 *4381:A 41.6664 
3 *1017:6 *4755:A 39.9057 
*END

*D_NET *1018 0.000514845
*CONN
*I *4758:A I *D sky130_fd_sc_hd__dlygate4sd3_1
*I *4383:A I *D sky130_fd_sc_hd__and2_2
*I *4436:Q O *D sky130_fd_sc_hd__dfrtp_2
*CAP
1 *4758:A 7.46672e-05
2 *4383:A 0
3 *4436:Q 9.38454e-05
4 *1018:10 7.46672e-05
5 *1018:8 9.38454e-05
6 *440:8 *1018:8 2.5415e-05
7 *650:85 *4758:A 9.67842e-05
8 *650:85 *1018:8 5.56203e-05
*RES
1 *4436:Q *1018:8 39.9057 
2 *1018:8 *1018:10 15 
3 *1018:10 *4383:A 23 
4 *1018:10 *4758:A 24.5743 
*END

*D_NET *1019 0.00090563
*CONN
*I *4762:A I *D sky130_fd_sc_hd__dlygate4sd3_1
*I *4385:A I *D sky130_fd_sc_hd__and2_2
*I *4437:Q O *D sky130_fd_sc_hd__dfrtp_2
*CAP
1 *4762:A 0
2 *4385:A 5.68545e-05
3 *4437:Q 0.000314088
4 *1019:22 0.000257233
5 *4436:RESET_B *1019:22 5.24393e-05
6 *709:76 *1019:22 8.62876e-05
7 *939:50 *1019:22 0.000138727
*RES
1 *4437:Q *4385:A 47.0979 
2 *4437:Q *1019:22 42.4329 
3 *1019:22 *4762:A 38 
*END

*D_NET *1020 0.00145222
*CONN
*I *4767:A I *D sky130_fd_sc_hd__dlygate4sd3_1
*I *4387:A I *D sky130_fd_sc_hd__and2_2
*I *4438:Q O *D sky130_fd_sc_hd__dfrtp_2
*CAP
1 *4767:A 0
2 *4387:A 0
3 *4438:Q 5.9963e-05
4 *1020:25 0.000283152
5 *1020:12 0.000282617
6 *1020:6 0.000625732
7 *489:21 *1020:25 0
8 *489:27 *1020:6 1.94693e-05
9 *489:27 *1020:25 0.0001042
10 *709:69 *1020:25 7.7086e-05
*RES
1 *4438:Q *1020:6 24.0979 
2 *1020:6 *1020:12 35.4271 
3 *1020:12 *4387:A 23 
4 *1020:6 *1020:25 35.9657 
5 *1020:25 *4767:A 23 
*END

*D_NET *1021 0.000593229
*CONN
*I *4768:A I *D sky130_fd_sc_hd__dlygate4sd3_1
*I *4439:Q O *D sky130_fd_sc_hd__dfrtp_2
*CAP
1 *4768:A 0
2 *4439:Q 0.000163461
3 *1021:10 0.000163461
4 *1021:10 *1023:29 0.000141879
5 *433:14 *1021:10 4.03799e-05
6 *568:10 *1021:10 8.4047e-05
*RES
1 *4439:Q *1021:10 41.0036 
2 *1021:10 *4768:A 38 
*END

*D_NET *1022 0.00807883
*CONN
*I *3871:B1 I *D sky130_fd_sc_hd__a21o_2
*I *3890:A I *D sky130_fd_sc_hd__and2_2
*I *3888:A1 I *D sky130_fd_sc_hd__a32o_2
*I *4368:A1 I *D sky130_fd_sc_hd__a221o_2
*I *4444:Q O *D sky130_fd_sc_hd__dfstp_2
*CAP
1 *3871:B1 0
2 *3890:A 0
3 *3888:A1 0.00055334
4 *4368:A1 0
5 *4444:Q 0
6 *1022:59 0.000614413
7 *1022:31 0.000852515
8 *1022:22 0.000567787
9 *1022:6 0.00123414
10 *1022:4 0.000981593
11 *3888:A1 *1024:14 0.000533949
12 *1022:22 *4398:A_N 8.98618e-05
13 *1022:31 *4779:A 0.000292533
14 *1022:31 *1024:29 4.31366e-05
15 *1022:31 *1024:44 0.000107029
16 *1022:31 *1025:34 0.000219882
17 *1022:59 *3836:A 0.00014196
18 *3871:A2 *1022:59 0.000184527
19 *3891:A1 *1022:59 0
20 *4368:B1 *1022:22 5.15762e-05
21 *4486:CLK *1022:59 0
22 *114:36 *3888:A1 0
23 *114:51 *3888:A1 0
24 *114:61 *1022:22 9.03003e-05
25 *121:32 *1022:59 0
26 *122:16 *1022:59 0
27 *126:10 *3888:A1 1.65403e-05
28 *126:10 *1022:31 4.68198e-05
29 *270:12 *1022:59 0
30 *455:25 *3888:A1 0.000373059
31 *455:25 *1022:31 0.000217632
32 *456:8 *1022:22 5.15848e-05
33 *486:8 *1022:59 0.000296035
34 *486:49 *1022:6 0.00025737
35 *486:49 *1022:22 0.000163852
36 *486:60 *1022:22 5.67058e-05
37 *1012:20 *1022:59 4.06849e-05
*RES
1 *4444:Q *1022:4 23 
2 *1022:4 *1022:6 5.38571 
3 *1022:6 *1022:22 39.4043 
4 *1022:22 *4368:A1 23 
5 *1022:6 *1022:31 24.3007 
6 *1022:31 *3888:A1 48.4607 
7 *1022:31 *3890:A 38 
8 *1022:4 *1022:59 43.4229 
9 *1022:59 *3871:B1 23 
*END

*D_NET *1023 0.00563384
*CONN
*I *4380:A1 I *D sky130_fd_sc_hd__a31o_2
*I *4733:A I *D sky130_fd_sc_hd__clkdlybuf4s25_1
*I *4445:Q O *D sky130_fd_sc_hd__dfrtp_2
*CAP
1 *4380:A1 0
2 *4733:A 0.000252789
3 *4445:Q 0.000249848
4 *1023:29 0.000536845
5 *1023:8 0.00103948
6 *4733:A *4390:A1 6.25829e-05
7 *4733:A *1024:44 0.000275473
8 *4733:A *1024:57 0.000192087
9 *1023:8 *4370:A 2.64616e-05
10 *1023:8 *1024:68 2.64616e-05
11 *1023:29 *4390:A1 7.39034e-05
12 *3891:A1 *4733:A 1.41077e-05
13 *3891:B1 *4733:A 0
14 *4370:B *1023:8 5.50106e-05
15 *4380:A3 *1023:29 0.000344635
16 *122:8 *4733:A 5.84916e-05
17 *270:12 *4733:A 0.000516178
18 *270:12 *1023:29 0.000380333
19 *432:10 *1023:29 0.000597094
20 *433:14 *1023:29 0.000257522
21 *433:25 *1023:29 0.000125904
22 *433:42 *1023:29 6.67764e-05
23 *554:10 *1023:29 1.14452e-05
24 *568:10 *1023:29 0.000146608
25 *716:10 *4733:A 0.000181925
26 *1021:10 *1023:29 0.000141879
*RES
1 *4445:Q *1023:8 41.0036 
2 *1023:8 *4733:A 47.3836 
3 *1023:8 *1023:29 33.8707 
4 *1023:29 *4380:A1 23 
*END

*D_NET *1024 0.0105207
*CONN
*I *4390:A1 I *D sky130_fd_sc_hd__a21oi_2
*I *3836:A I *D sky130_fd_sc_hd__inv_2
*I *4369:A I *D sky130_fd_sc_hd__nor2_2
*I *4370:A I *D sky130_fd_sc_hd__or2_2
*I *3889:B2 I *D sky130_fd_sc_hd__a2bb2o_2
*I *4073:B I *D sky130_fd_sc_hd__or3_2
*I *3888:B2 I *D sky130_fd_sc_hd__a32o_2
*I *4446:Q O *D sky130_fd_sc_hd__dfrtp_2
*CAP
1 *4390:A1 0.00073541
2 *3836:A 8.62163e-05
3 *4369:A 0
4 *4370:A 3.45092e-05
5 *3889:B2 0.000431853
6 *4073:B 5.45698e-05
7 *3888:B2 0
8 *4446:Q 0
9 *1024:74 0.000314319
10 *1024:68 0.000638291
11 *1024:59 0.000272265
12 *1024:57 0.000823218
13 *1024:44 0.000970099
14 *1024:29 0.000921205
15 *1024:14 0.000403667
16 *1024:4 0.000819863
17 *1024:44 *1025:34 1.00765e-05
18 *3888:A1 *1024:14 0.000533949
19 *3891:A1 *1024:29 6.84465e-05
20 *3891:A1 *1024:44 4.16442e-05
21 *4074:A *1024:14 2.81066e-05
22 *4074:A *1024:29 1.59094e-05
23 *4390:A2 *4390:A1 3.64385e-05
24 *4486:CLK *1024:74 0
25 *4733:A *4390:A1 6.25829e-05
26 *4733:A *1024:44 0.000275473
27 *4733:A *1024:57 0.000192087
28 *114:36 *1024:14 2.71586e-05
29 *122:16 *3889:B2 0.000648929
30 *123:37 *1024:14 0.000264983
31 *123:55 *1024:14 6.94143e-05
32 *126:44 *1024:44 0
33 *126:44 *1024:57 0
34 *270:12 *1024:44 0.000310635
35 *270:12 *1024:74 0
36 *270:23 *1024:29 0
37 *431:21 *4390:A1 8.71791e-05
38 *433:8 *4370:A 1.59094e-05
39 *433:14 *4390:A1 0.000126343
40 *433:14 *1024:57 9.03784e-05
41 *443:6 *4390:A1 3.65917e-05
42 *455:12 *1024:44 0
43 *455:25 *1024:14 1.07299e-05
44 *455:25 *1024:29 0.000292656
45 *456:12 *4390:A1 0.000182832
46 *456:25 *4390:A1 8.6949e-05
47 *490:21 *1024:74 0
48 *490:30 *1024:74 0
49 *580:16 *1024:29 2.14486e-05
50 *716:10 *1024:44 5.94125e-05
51 *1022:31 *1024:29 4.31366e-05
52 *1022:31 *1024:44 0.000107029
53 *1022:59 *3836:A 0.00014196
54 *1023:8 *4370:A 2.64616e-05
55 *1023:8 *1024:68 2.64616e-05
56 *1023:29 *4390:A1 7.39034e-05
*RES
1 *4446:Q *1024:4 23 
2 *1024:4 *1024:14 39.4664 
3 *1024:14 *3888:B2 23 
4 *1024:4 *1024:29 24.9843 
5 *1024:29 *4073:B 38.6214 
6 *1024:29 *1024:44 10.7714 
7 *1024:44 *3889:B2 46.265 
8 *1024:44 *1024:57 2.61 
9 *1024:57 *1024:59 15 
10 *1024:59 *4370:A 23.6214 
11 *1024:59 *1024:68 3.95643 
12 *1024:68 *1024:74 35.7793 
13 *1024:74 *4369:A 23 
14 *1024:68 *3836:A 25.0507 
15 *1024:57 *4390:A1 48.9993 
*END

*D_NET *1025 0.00436676
*CONN
*I *4368:C1 I *D sky130_fd_sc_hd__a221o_2
*I *4398:A_N I *D sky130_fd_sc_hd__and4bb_2
*I *4779:A I *D sky130_fd_sc_hd__dlygate4sd3_1
*I *4073:C I *D sky130_fd_sc_hd__or3_2
*I *4447:Q O *D sky130_fd_sc_hd__dfrtp_2
*CAP
1 *4368:C1 1.64449e-05
2 *4398:A_N 0.000407012
3 *4779:A 0.000168783
4 *4073:C 7.60332e-05
5 *4447:Q 5.42877e-05
6 *1025:34 0.000606302
7 *1025:17 0.000351627
8 *1025:6 0.000130321
9 *3891:B1 *4368:C1 5.90675e-06
10 *3891:B1 *4398:A_N 5.3304e-05
11 *3891:B1 *1025:34 4.08664e-05
12 *4073:A *4073:C 5.3304e-05
13 *4073:A *1025:6 1.21972e-05
14 *4368:B1 *4398:A_N 1.21972e-05
15 *4398:D *4398:A_N 1.14154e-05
16 *114:61 *4398:A_N 1.46586e-05
17 *126:10 *4779:A 1.31808e-05
18 *126:20 *4398:A_N 0.000513284
19 *448:10 *4398:A_N 5.41385e-05
20 *455:12 *4779:A 0.000271112
21 *455:12 *1025:34 0.000332911
22 *455:25 *4779:A 5.3304e-05
23 *715:25 *4398:A_N 6.08617e-05
24 *715:31 *4398:A_N 0.000294224
25 *716:10 *1025:34 1.58805e-05
26 *716:22 *4368:C1 2.28308e-05
27 *716:22 *4398:A_N 2.07314e-05
28 *716:22 *1025:34 3.27248e-05
29 *716:28 *4398:A_N 5.45607e-05
30 *1022:22 *4398:A_N 8.98618e-05
31 *1022:31 *4779:A 0.000292533
32 *1022:31 *1025:34 0.000219882
33 *1024:44 *1025:34 1.00765e-05
*RES
1 *4447:Q *1025:6 23.6214 
2 *1025:6 *4073:C 24.4707 
3 *1025:6 *1025:17 15 
4 *1025:17 *4779:A 42.64 
5 *1025:17 *1025:34 20.3443 
6 *1025:34 *4398:A_N 33.7921 
7 *1025:34 *4368:C1 23.4971 
*END
