*SPEF "ieee 1481-1999"
*DESIGN "riscv_soc_top"
*DATE "08:56:40 Thursday September 10, 2026"
*VENDOR "The OpenROAD Project"
*PROGRAM "OpenROAD"
*VERSION "dcf36133a369abc8f3c5e5738cd4d82e4903c0e0"
*DESIGN_FLOW "NAME_SCOPE LOCAL" "PIN_CAP NONE"
*DIVIDER /
*DELIMITER :
*BUS_DELIMITER []
*T_UNIT 1 NS
*C_UNIT 1 PF
*R_UNIT 1 OHM
*L_UNIT 1 HENRY

*NAME_MAP
*3 axi_araddr[0]
*4 axi_araddr[10]
*5 axi_araddr[11]
*6 axi_araddr[12]
*7 axi_araddr[13]
*8 axi_araddr[14]
*9 axi_araddr[15]
*10 axi_araddr[16]
*11 axi_araddr[17]
*12 axi_araddr[18]
*13 axi_araddr[19]
*14 axi_araddr[1]
*15 axi_araddr[20]
*16 axi_araddr[21]
*17 axi_araddr[22]
*18 axi_araddr[23]
*19 axi_araddr[24]
*20 axi_araddr[25]
*21 axi_araddr[26]
*22 axi_araddr[27]
*23 axi_araddr[28]
*24 axi_araddr[29]
*25 axi_araddr[2]
*26 axi_araddr[30]
*27 axi_araddr[31]
*28 axi_araddr[3]
*29 axi_araddr[4]
*30 axi_araddr[5]
*31 axi_araddr[6]
*32 axi_araddr[7]
*33 axi_araddr[8]
*34 axi_araddr[9]
*35 axi_arready
*36 axi_arvalid
*37 axi_awaddr[0]
*38 axi_awaddr[10]
*39 axi_awaddr[11]
*40 axi_awaddr[12]
*41 axi_awaddr[13]
*42 axi_awaddr[14]
*43 axi_awaddr[15]
*44 axi_awaddr[16]
*45 axi_awaddr[17]
*46 axi_awaddr[18]
*47 axi_awaddr[19]
*48 axi_awaddr[1]
*49 axi_awaddr[20]
*50 axi_awaddr[21]
*51 axi_awaddr[22]
*52 axi_awaddr[23]
*53 axi_awaddr[24]
*54 axi_awaddr[25]
*55 axi_awaddr[26]
*56 axi_awaddr[27]
*57 axi_awaddr[28]
*58 axi_awaddr[29]
*59 axi_awaddr[2]
*60 axi_awaddr[30]
*61 axi_awaddr[31]
*62 axi_awaddr[3]
*63 axi_awaddr[4]
*64 axi_awaddr[5]
*65 axi_awaddr[6]
*66 axi_awaddr[7]
*67 axi_awaddr[8]
*68 axi_awaddr[9]
*69 axi_awready
*70 axi_awvalid
*71 axi_bready
*72 net82
*73 net
*74 net83
*75 axi_rdata[0]
*76 axi_rdata[10]
*77 axi_rdata[11]
*78 axi_rdata[12]
*79 axi_rdata[13]
*80 axi_rdata[14]
*81 axi_rdata[15]
*82 axi_rdata[16]
*83 axi_rdata[17]
*84 axi_rdata[18]
*85 axi_rdata[19]
*86 axi_rdata[1]
*87 axi_rdata[20]
*88 axi_rdata[21]
*89 axi_rdata[22]
*90 axi_rdata[23]
*91 axi_rdata[24]
*92 axi_rdata[25]
*93 axi_rdata[26]
*94 axi_rdata[27]
*95 axi_rdata[28]
*96 axi_rdata[29]
*97 axi_rdata[2]
*98 axi_rdata[30]
*99 axi_rdata[31]
*100 axi_rdata[3]
*101 axi_rdata[4]
*102 axi_rdata[5]
*103 axi_rdata[6]
*104 axi_rdata[7]
*105 axi_rdata[8]
*106 axi_rdata[9]
*107 axi_rready
*108 net80
*109 net81
*110 net84
*111 axi_wdata[0]
*112 axi_wdata[10]
*113 axi_wdata[11]
*114 axi_wdata[12]
*115 axi_wdata[13]
*116 axi_wdata[14]
*117 axi_wdata[15]
*118 axi_wdata[16]
*119 axi_wdata[17]
*120 axi_wdata[18]
*121 axi_wdata[19]
*122 axi_wdata[1]
*123 axi_wdata[20]
*124 axi_wdata[21]
*125 axi_wdata[22]
*126 axi_wdata[23]
*127 axi_wdata[24]
*128 axi_wdata[25]
*129 axi_wdata[26]
*130 axi_wdata[27]
*131 axi_wdata[28]
*132 axi_wdata[29]
*133 axi_wdata[2]
*134 axi_wdata[30]
*135 axi_wdata[31]
*136 axi_wdata[3]
*137 axi_wdata[4]
*138 axi_wdata[5]
*139 axi_wdata[6]
*140 axi_wdata[7]
*141 axi_wdata[8]
*142 axi_wdata[9]
*143 axi_wready
*144 axi_wstrb[0]
*145 axi_wstrb[1]
*146 axi_wstrb[2]
*147 axi_wstrb[3]
*148 axi_wvalid
*149 clk
*150 ext_interrupt
*151 gpio_in[0]
*152 gpio_in[1]
*153 gpio_in[2]
*154 gpio_in[3]
*155 gpio_in[4]
*156 gpio_in[5]
*157 gpio_in[6]
*158 gpio_in[7]
*159 gpio_out[0]
*160 gpio_out[1]
*161 gpio_out[2]
*162 gpio_out[3]
*163 gpio_out[4]
*164 gpio_out[5]
*165 gpio_out[6]
*166 gpio_out[7]
*167 rst_n
*168 uart_rx
*169 uart_tx
*170 _000_
*171 _001_
*172 _002_
*173 _003_
*174 _004_
*175 _005_
*176 _006_
*177 _007_
*178 _008_
*179 _009_
*180 _010_
*181 _011_
*182 _012_
*183 _013_
*184 _014_
*185 _015_
*186 _016_
*187 _017_
*188 _018_
*189 _019_
*190 _020_
*191 _021_
*192 _022_
*193 _023_
*194 _024_
*195 _025_
*196 _026_
*197 _027_
*198 _028_
*199 _029_
*200 _030_
*201 _031_
*202 _032_
*203 _033_
*204 _034_
*205 _035_
*206 _036_
*207 _037_
*208 _038_
*209 _039_
*210 _040_
*211 _041_
*212 _042_
*213 _043_
*214 _044_
*215 _045_
*216 _046_
*217 _047_
*218 _048_
*219 _049_
*220 _050_
*221 _051_
*222 _052_
*223 _053_
*224 _054_
*225 _055_
*226 _056_
*227 _057_
*228 _058_
*229 _059_
*230 _060_
*231 _061_
*232 _062_
*233 _063_
*234 _064_
*235 _065_
*236 _066_
*237 _067_
*238 _068_
*239 _069_
*240 _070_
*241 _071_
*242 _072_
*243 _073_
*244 _074_
*245 _075_
*246 _076_
*247 clknet_0_clk
*248 clknet_2_0__leaf_clk
*249 clknet_2_1__leaf_clk
*250 clknet_2_2__leaf_clk
*251 clknet_2_3__leaf_clk
*252 counter\[0\]
*253 counter\[10\]
*254 counter\[11\]
*255 counter\[12\]
*256 counter\[13\]
*257 counter\[14\]
*258 counter\[15\]
*259 counter\[16\]
*260 counter\[17\]
*261 counter\[18\]
*262 counter\[19\]
*263 counter\[1\]
*264 counter\[20\]
*265 counter\[21\]
*266 counter\[22\]
*267 counter\[23\]
*268 counter\[24\]
*269 counter\[25\]
*270 counter\[26\]
*271 counter\[27\]
*272 counter\[28\]
*273 counter\[29\]
*274 counter\[2\]
*275 counter\[30\]
*276 counter\[31\]
*277 counter\[3\]
*278 counter\[4\]
*279 counter\[5\]
*280 counter\[6\]
*281 counter\[7\]
*282 counter\[8\]
*283 counter\[9\]
*284 net1
*285 net10
*286 net100
*287 net101
*288 net102
*289 net103
*290 net104
*291 net11
*292 net12
*293 net13
*294 net14
*295 net15
*296 net16
*297 net17
*298 net18
*299 net19
*300 net2
*301 net20
*302 net21
*303 net22
*304 net23
*305 net24
*306 net25
*307 net26
*308 net27
*309 net28
*310 net29
*311 net3
*312 net30
*313 net31
*314 net32
*315 net33
*316 net34
*317 net35
*318 net36
*319 net37
*320 net38
*321 net39
*322 net4
*323 net40
*324 net41
*325 net42
*326 net43
*327 net44
*328 net45
*329 net46
*330 net47
*331 net48
*332 net49
*333 net5
*334 net50
*335 net51
*336 net52
*337 net53
*338 net54
*339 net55
*340 net56
*341 net57
*342 net58
*343 net59
*344 net6
*345 net60
*346 net61
*347 net62
*348 net63
*349 net64
*350 net65
*351 net66
*352 net67
*353 net68
*354 net69
*355 net7
*356 net70
*357 net71
*358 net72
*359 net73
*360 net74
*361 net75
*362 net76
*363 net77
*364 net78
*365 net79
*366 net8
*367 net85
*368 net86
*369 net87
*370 net88
*371 net89
*372 net9
*373 net90
*374 net91
*375 net92
*376 net93
*377 net94
*378 net95
*379 net96
*380 net97
*381 net98
*382 net99
*383 FILLER_0_110
*384 FILLER_0_146
*385 FILLER_0_29
*386 FILLER_0_3
*387 FILLER_0_45
*388 FILLER_0_57
*389 FILLER_0_71
*390 FILLER_0_74
*391 FILLER_0_85
*392 FILLER_0_95
*393 FILLER_10_136
*394 FILLER_10_139
*395 FILLER_10_25
*396 FILLER_10_29
*397 FILLER_10_3
*398 FILLER_10_32
*399 FILLER_10_43
*400 FILLER_10_67
*401 FILLER_10_93
*402 FILLER_11_113
*403 FILLER_11_144
*404 FILLER_11_25
*405 FILLER_11_3
*406 FILLER_11_44
*407 FILLER_11_47
*408 FILLER_11_50
*409 FILLER_11_53
*410 FILLER_11_57
*411 FILLER_11_60
*412 FILLER_11_63
*413 FILLER_11_66
*414 FILLER_11_78
*415 FILLER_12_141
*416 FILLER_12_144
*417 FILLER_12_3
*418 FILLER_12_50
*419 FILLER_12_53
*420 FILLER_12_56
*421 FILLER_12_59
*422 FILLER_12_6
*423 FILLER_12_62
*424 FILLER_12_85
*425 FILLER_13_129
*426 FILLER_13_144
*427 FILLER_13_3
*428 FILLER_13_33
*429 FILLER_13_42
*430 FILLER_13_52
*431 FILLER_13_55
*432 FILLER_13_57
*433 FILLER_13_6
*434 FILLER_13_60
*435 FILLER_13_63
*436 FILLER_13_66
*437 FILLER_13_69
*438 FILLER_13_72
*439 FILLER_13_75
*440 FILLER_13_78
*441 FILLER_13_81
*442 FILLER_13_84
*443 FILLER_13_87
*444 FILLER_13_90
*445 FILLER_13_93
*446 FILLER_14_102
*447 FILLER_14_125
*448 FILLER_14_141
*449 FILLER_14_144
*450 FILLER_14_24
*451 FILLER_14_27
*452 FILLER_14_34
*453 FILLER_14_44
*454 FILLER_14_72
*455 FILLER_14_75
*456 FILLER_14_78
*457 FILLER_14_81
*458 FILLER_14_85
*459 FILLER_14_88
*460 FILLER_14_91
*461 FILLER_14_94
*462 FILLER_15_53
*463 FILLER_15_63
*464 FILLER_15_91
*465 FILLER_15_94
*466 FILLER_16_135
*467 FILLER_16_138
*468 FILLER_16_141
*469 FILLER_16_144
*470 FILLER_16_24
*471 FILLER_16_27
*472 FILLER_16_69
*473 FILLER_17_103
*474 FILLER_17_126
*475 FILLER_17_129
*476 FILLER_17_144
*477 FILLER_17_41
*478 FILLER_17_44
*479 FILLER_17_47
*480 FILLER_17_57
*481 FILLER_17_6
*482 FILLER_17_60
*483 FILLER_17_70
*484 FILLER_17_73
*485 FILLER_18_106
*486 FILLER_18_109
*487 FILLER_18_137
*488 FILLER_18_141
*489 FILLER_18_144
*490 FILLER_18_29
*491 FILLER_18_38
*492 FILLER_18_41
*493 FILLER_18_44
*494 FILLER_18_47
*495 FILLER_18_50
*496 FILLER_19_103
*497 FILLER_19_106
*498 FILLER_19_109
*499 FILLER_19_113
*500 FILLER_19_144
*501 FILLER_19_19
*502 FILLER_19_26
*503 FILLER_19_29
*504 FILLER_19_32
*505 FILLER_19_35
*506 FILLER_19_43
*507 FILLER_19_55
*508 FILLER_19_57
*509 FILLER_19_74
*510 FILLER_1_12
*511 FILLER_1_146
*512 FILLER_1_3
*513 FILLER_1_51
*514 FILLER_1_54
*515 FILLER_1_57
*516 FILLER_1_6
*517 FILLER_1_60
*518 FILLER_1_63
*519 FILLER_1_77
*520 FILLER_1_80
*521 FILLER_1_9
*522 FILLER_1_91
*523 FILLER_20_11
*524 FILLER_20_111
*525 FILLER_20_114
*526 FILLER_20_117
*527 FILLER_20_120
*528 FILLER_20_123
*529 FILLER_20_14
*530 FILLER_20_141
*531 FILLER_20_144
*532 FILLER_20_17
*533 FILLER_20_20
*534 FILLER_20_23
*535 FILLER_20_26
*536 FILLER_20_29
*537 FILLER_20_32
*538 FILLER_20_83
*539 FILLER_20_85
*540 FILLER_20_93
*541 FILLER_20_96
*542 FILLER_21_11
*543 FILLER_21_111
*544 FILLER_21_119
*545 FILLER_21_122
*546 FILLER_21_125
*547 FILLER_21_128
*548 FILLER_21_14
*549 FILLER_21_17
*550 FILLER_21_20
*551 FILLER_21_78
*552 FILLER_21_81
*553 FILLER_22_114
*554 FILLER_22_117
*555 FILLER_22_120
*556 FILLER_22_123
*557 FILLER_22_126
*558 FILLER_22_129
*559 FILLER_22_132
*560 FILLER_22_135
*561 FILLER_22_138
*562 FILLER_22_141
*563 FILLER_22_15
*564 FILLER_22_18
*565 FILLER_22_29
*566 FILLER_22_53
*567 FILLER_22_6
*568 FILLER_22_81
*569 FILLER_22_9
*570 FILLER_23_11
*571 FILLER_23_111
*572 FILLER_23_121
*573 FILLER_23_124
*574 FILLER_23_127
*575 FILLER_23_130
*576 FILLER_23_133
*577 FILLER_23_136
*578 FILLER_23_14
*579 FILLER_23_17
*580 FILLER_23_65
*581 FILLER_23_68
*582 FILLER_24_106
*583 FILLER_24_109
*584 FILLER_24_129
*585 FILLER_24_132
*586 FILLER_24_135
*587 FILLER_24_138
*588 FILLER_24_141
*589 FILLER_24_144
*590 FILLER_24_27
*591 FILLER_24_29
*592 FILLER_24_3
*593 FILLER_24_32
*594 FILLER_24_35
*595 FILLER_24_49
*596 FILLER_24_57
*597 FILLER_24_6
*598 FILLER_24_9
*599 FILLER_2_12
*600 FILLER_2_135
*601 FILLER_2_138
*602 FILLER_2_141
*603 FILLER_2_144
*604 FILLER_2_15
*605 FILLER_2_18
*606 FILLER_2_29
*607 FILLER_2_6
*608 FILLER_2_70
*609 FILLER_2_9
*610 FILLER_3_12
*611 FILLER_3_129
*612 FILLER_3_15
*613 FILLER_3_18
*614 FILLER_3_21
*615 FILLER_3_57
*616 FILLER_3_6
*617 FILLER_3_9
*618 FILLER_4_118
*619 FILLER_4_12
*620 FILLER_4_141
*621 FILLER_4_144
*622 FILLER_4_15
*623 FILLER_4_18
*624 FILLER_4_21
*625 FILLER_4_24
*626 FILLER_4_27
*627 FILLER_4_29
*628 FILLER_4_3
*629 FILLER_4_6
*630 FILLER_4_81
*631 FILLER_4_85
*632 FILLER_4_9
*633 FILLER_5_11
*634 FILLER_5_111
*635 FILLER_5_113
*636 FILLER_5_116
*637 FILLER_5_125
*638 FILLER_5_14
*639 FILLER_5_17
*640 FILLER_5_28
*641 FILLER_5_31
*642 FILLER_5_57
*643 FILLER_5_60
*644 FILLER_5_77
*645 FILLER_5_80
*646 FILLER_6_116
*647 FILLER_6_19
*648 FILLER_6_85
*649 FILLER_7_28
*650 FILLER_7_3
*651 FILLER_7_31
*652 FILLER_7_34
*653 FILLER_7_37
*654 FILLER_7_53
*655 FILLER_7_6
*656 FILLER_8_141
*657 FILLER_8_144
*658 FILLER_8_3
*659 FILLER_8_37
*660 FILLER_8_6
*661 FILLER_8_80
*662 FILLER_8_83
*663 FILLER_9_121
*664 FILLER_9_145
*665 FILLER_9_24
*666 FILLER_9_41
*667 FILLER_9_57
*668 FILLER_9_72
*669 PHY_EDGE_ROW_0_Left_25
*670 PHY_EDGE_ROW_0_Right_0
*671 PHY_EDGE_ROW_10_Left_35
*672 PHY_EDGE_ROW_10_Right_10
*673 PHY_EDGE_ROW_11_Left_36
*674 PHY_EDGE_ROW_11_Right_11
*675 PHY_EDGE_ROW_12_Left_37
*676 PHY_EDGE_ROW_12_Right_12
*677 PHY_EDGE_ROW_13_Left_38
*678 PHY_EDGE_ROW_13_Right_13
*679 PHY_EDGE_ROW_14_Left_39
*680 PHY_EDGE_ROW_14_Right_14
*681 PHY_EDGE_ROW_15_Left_40
*682 PHY_EDGE_ROW_15_Right_15
*683 PHY_EDGE_ROW_16_Left_41
*684 PHY_EDGE_ROW_16_Right_16
*685 PHY_EDGE_ROW_17_Left_42
*686 PHY_EDGE_ROW_17_Right_17
*687 PHY_EDGE_ROW_18_Left_43
*688 PHY_EDGE_ROW_18_Right_18
*689 PHY_EDGE_ROW_19_Left_44
*690 PHY_EDGE_ROW_19_Right_19
*691 PHY_EDGE_ROW_1_Left_26
*692 PHY_EDGE_ROW_1_Right_1
*693 PHY_EDGE_ROW_20_Left_45
*694 PHY_EDGE_ROW_20_Right_20
*695 PHY_EDGE_ROW_21_Left_46
*696 PHY_EDGE_ROW_21_Right_21
*697 PHY_EDGE_ROW_22_Left_47
*698 PHY_EDGE_ROW_22_Right_22
*699 PHY_EDGE_ROW_23_Left_48
*700 PHY_EDGE_ROW_23_Right_23
*701 PHY_EDGE_ROW_24_Left_49
*702 PHY_EDGE_ROW_24_Right_24
*703 PHY_EDGE_ROW_2_Left_27
*704 PHY_EDGE_ROW_2_Right_2
*705 PHY_EDGE_ROW_3_Left_28
*706 PHY_EDGE_ROW_3_Right_3
*707 PHY_EDGE_ROW_4_Left_29
*708 PHY_EDGE_ROW_4_Right_4
*709 PHY_EDGE_ROW_5_Left_30
*710 PHY_EDGE_ROW_5_Right_5
*711 PHY_EDGE_ROW_6_Left_31
*712 PHY_EDGE_ROW_6_Right_6
*713 PHY_EDGE_ROW_7_Left_32
*714 PHY_EDGE_ROW_7_Right_7
*715 PHY_EDGE_ROW_8_Left_33
*716 PHY_EDGE_ROW_8_Right_8
*717 PHY_EDGE_ROW_9_Left_34
*718 PHY_EDGE_ROW_9_Right_9
*719 TAP_TAPCELL_ROW_0_50
*720 TAP_TAPCELL_ROW_0_51
*721 TAP_TAPCELL_ROW_0_52
*722 TAP_TAPCELL_ROW_0_53
*723 TAP_TAPCELL_ROW_0_54
*724 TAP_TAPCELL_ROW_10_77
*725 TAP_TAPCELL_ROW_10_78
*726 TAP_TAPCELL_ROW_10_79
*727 TAP_TAPCELL_ROW_11_80
*728 TAP_TAPCELL_ROW_11_81
*729 TAP_TAPCELL_ROW_12_82
*730 TAP_TAPCELL_ROW_12_83
*731 TAP_TAPCELL_ROW_12_84
*732 TAP_TAPCELL_ROW_13_85
*733 TAP_TAPCELL_ROW_13_86
*734 TAP_TAPCELL_ROW_14_87
*735 TAP_TAPCELL_ROW_14_88
*736 TAP_TAPCELL_ROW_14_89
*737 TAP_TAPCELL_ROW_15_90
*738 TAP_TAPCELL_ROW_15_91
*739 TAP_TAPCELL_ROW_16_92
*740 TAP_TAPCELL_ROW_16_93
*741 TAP_TAPCELL_ROW_16_94
*742 TAP_TAPCELL_ROW_17_95
*743 TAP_TAPCELL_ROW_17_96
*744 TAP_TAPCELL_ROW_18_97
*745 TAP_TAPCELL_ROW_18_98
*746 TAP_TAPCELL_ROW_18_99
*747 TAP_TAPCELL_ROW_19_100
*748 TAP_TAPCELL_ROW_19_101
*749 TAP_TAPCELL_ROW_1_55
*750 TAP_TAPCELL_ROW_1_56
*751 TAP_TAPCELL_ROW_20_102
*752 TAP_TAPCELL_ROW_20_103
*753 TAP_TAPCELL_ROW_20_104
*754 TAP_TAPCELL_ROW_21_105
*755 TAP_TAPCELL_ROW_21_106
*756 TAP_TAPCELL_ROW_22_107
*757 TAP_TAPCELL_ROW_22_108
*758 TAP_TAPCELL_ROW_22_109
*759 TAP_TAPCELL_ROW_23_110
*760 TAP_TAPCELL_ROW_23_111
*761 TAP_TAPCELL_ROW_24_112
*762 TAP_TAPCELL_ROW_24_113
*763 TAP_TAPCELL_ROW_24_114
*764 TAP_TAPCELL_ROW_24_115
*765 TAP_TAPCELL_ROW_24_116
*766 TAP_TAPCELL_ROW_2_57
*767 TAP_TAPCELL_ROW_2_58
*768 TAP_TAPCELL_ROW_2_59
*769 TAP_TAPCELL_ROW_3_60
*770 TAP_TAPCELL_ROW_3_61
*771 TAP_TAPCELL_ROW_4_62
*772 TAP_TAPCELL_ROW_4_63
*773 TAP_TAPCELL_ROW_4_64
*774 TAP_TAPCELL_ROW_5_65
*775 TAP_TAPCELL_ROW_5_66
*776 TAP_TAPCELL_ROW_6_67
*777 TAP_TAPCELL_ROW_6_68
*778 TAP_TAPCELL_ROW_6_69
*779 TAP_TAPCELL_ROW_7_70
*780 TAP_TAPCELL_ROW_7_71
*781 TAP_TAPCELL_ROW_8_72
*782 TAP_TAPCELL_ROW_8_73
*783 TAP_TAPCELL_ROW_8_74
*784 TAP_TAPCELL_ROW_9_75
*785 TAP_TAPCELL_ROW_9_76
*786 _077_
*787 _078_
*788 _079_
*789 _080_
*790 _081_
*791 _082_
*792 _083_
*793 _084_
*794 _085_
*795 _086_
*796 _087_
*797 _088_
*798 _089_
*799 _090_
*800 _091_
*801 _092_
*802 _093_
*803 _094_
*804 _095_
*805 _096_
*806 _097_
*807 _098_
*808 _099_
*809 _100_
*810 _101_
*811 _102_
*812 _103_
*813 _104_
*814 _105_
*815 _106_
*816 _107_
*817 _108_
*818 _109_
*819 _110_
*820 _111_
*821 _112_
*822 _113_
*823 _114_
*824 _115_
*825 _116_
*826 _117_
*827 _118_
*828 _119_
*829 _120_
*830 _121_
*831 _122_
*832 _123_
*833 _124_
*834 _125_
*835 _126_
*836 _127_
*837 _128_
*838 _129_
*839 _130_
*840 _131_
*841 _132_
*842 _133_
*843 _134_
*844 _135_
*845 _136_
*846 _137_
*847 _138_
*848 _139_
*849 _140_
*850 _141_
*851 _142_
*852 _143_
*853 _144_
*854 _145_
*855 _146_
*856 _147_
*857 _148_
*858 _149_
*859 _150_
*860 _151_
*861 _152_
*862 _153_
*863 _154_
*864 _155_
*865 _156_
*866 _157_
*867 _158_
*868 _159_
*869 _160_
*870 _161_
*871 _162_
*872 _163_
*873 _164_
*874 _165_
*875 _166_
*876 _167_
*877 _168_
*878 _169_
*879 _170_
*880 _171_
*881 _172_
*882 _173_
*883 _174_
*884 _175_
*885 _176_
*886 _177_
*887 _178_
*888 _179_
*889 _180_
*890 _181_
*891 _182_
*892 _183_
*893 _184_
*894 _185_
*895 _186_
*896 _187_
*897 _188_
*898 _189_
*899 _190_
*900 _191_
*901 _192_
*902 _193_
*903 _194_
*904 _195_
*905 _196_
*906 _197_
*907 _198_
*908 _199_
*909 _200_
*910 _201_
*911 _202_
*912 _203_
*913 _204_
*914 _205_
*915 _206_
*916 _207_
*917 _208_
*918 _209_
*919 _210_
*920 _211_
*921 _212_
*922 _213_
*923 _214_
*924 _215_
*925 _216_
*926 _217_
*927 _218_
*928 _219_
*929 _220_
*930 _221_
*931 _222_
*932 _223_
*933 _224_
*934 _225_
*935 _226_
*936 _233_
*937 _234_
*938 _235_
*939 clkbuf_0_clk
*940 clkbuf_2_0__f_clk
*941 clkbuf_2_1__f_clk
*942 clkbuf_2_2__f_clk
*943 clkbuf_2_3__f_clk
*944 clkload0
*945 clkload1
*946 clkload2
*947 hold100
*948 hold101
*949 hold102
*950 hold103
*951 hold104
*952 hold85
*953 hold86
*954 hold87
*955 hold88
*956 hold89
*957 hold90
*958 hold91
*959 hold92
*960 hold93
*961 hold94
*962 hold95
*963 hold96
*964 hold97
*965 hold98
*966 hold99
*967 input1
*968 input10
*969 input11
*970 input12
*971 input13
*972 input14
*973 input15
*974 input16
*975 input17
*976 input18
*977 input19
*978 input2
*979 input20
*980 input21
*981 input22
*982 input23
*983 input24
*984 input25
*985 input26
*986 input27
*987 input28
*988 input29
*989 input3
*990 input30
*991 input31
*992 input32
*993 input33
*994 input34
*995 input4
*996 input5
*997 input6
*998 input7
*999 input8
*1000 input9
*1001 max_cap79
*1002 output35
*1003 output36
*1004 output37
*1005 output38
*1006 output39
*1007 output40
*1008 output41
*1009 output42
*1010 output43
*1011 output44
*1012 output45
*1013 output46
*1014 output47
*1015 output48
*1016 output49
*1017 output50
*1018 output51
*1019 output52
*1020 output53
*1021 output54
*1022 output55
*1023 output56
*1024 output57
*1025 output58
*1026 output59
*1027 output60
*1028 output61
*1029 output62
*1030 output63
*1031 output64
*1032 output65
*1033 output66
*1034 output67
*1035 output68
*1036 output69
*1037 output70
*1038 output71
*1039 output72
*1040 output73
*1041 output74
*1042 output75
*1043 output76
*1044 output77
*1045 output78
*1046 riscv_soc_top
*1047 riscv_soc_top_80
*1048 riscv_soc_top_81
*1049 riscv_soc_top_82
*1050 riscv_soc_top_83
*1051 riscv_soc_top_84

*PORTS
axi_araddr[0] I
axi_araddr[10] I
axi_araddr[11] I
axi_araddr[12] I
axi_araddr[13] I
axi_araddr[14] I
axi_araddr[15] I
axi_araddr[16] I
axi_araddr[17] I
axi_araddr[18] I
axi_araddr[19] I
axi_araddr[1] I
axi_araddr[20] I
axi_araddr[21] I
axi_araddr[22] I
axi_araddr[23] I
axi_araddr[24] I
axi_araddr[25] I
axi_araddr[26] I
axi_araddr[27] I
axi_araddr[28] I
axi_araddr[29] I
axi_araddr[2] I
axi_araddr[30] I
axi_araddr[31] I
axi_araddr[3] I
axi_araddr[4] I
axi_araddr[5] I
axi_araddr[6] I
axi_araddr[7] I
axi_araddr[8] I
axi_araddr[9] I
axi_arready O
axi_arvalid I
axi_awaddr[0] I
axi_awaddr[10] I
axi_awaddr[11] I
axi_awaddr[12] I
axi_awaddr[13] I
axi_awaddr[14] I
axi_awaddr[15] I
axi_awaddr[16] I
axi_awaddr[17] I
axi_awaddr[18] I
axi_awaddr[19] I
axi_awaddr[1] I
axi_awaddr[20] I
axi_awaddr[21] I
axi_awaddr[22] I
axi_awaddr[23] I
axi_awaddr[24] I
axi_awaddr[25] I
axi_awaddr[26] I
axi_awaddr[27] I
axi_awaddr[28] I
axi_awaddr[29] I
axi_awaddr[2] I
axi_awaddr[30] I
axi_awaddr[31] I
axi_awaddr[3] I
axi_awaddr[4] I
axi_awaddr[5] I
axi_awaddr[6] I
axi_awaddr[7] I
axi_awaddr[8] I
axi_awaddr[9] I
axi_awready O
axi_awvalid I
axi_bready I
axi_bresp[0] O
axi_bresp[1] O
axi_bvalid O
axi_rdata[0] O
axi_rdata[10] O
axi_rdata[11] O
axi_rdata[12] O
axi_rdata[13] O
axi_rdata[14] O
axi_rdata[15] O
axi_rdata[16] O
axi_rdata[17] O
axi_rdata[18] O
axi_rdata[19] O
axi_rdata[1] O
axi_rdata[20] O
axi_rdata[21] O
axi_rdata[22] O
axi_rdata[23] O
axi_rdata[24] O
axi_rdata[25] O
axi_rdata[26] O
axi_rdata[27] O
axi_rdata[28] O
axi_rdata[29] O
axi_rdata[2] O
axi_rdata[30] O
axi_rdata[31] O
axi_rdata[3] O
axi_rdata[4] O
axi_rdata[5] O
axi_rdata[6] O
axi_rdata[7] O
axi_rdata[8] O
axi_rdata[9] O
axi_rready I
axi_rresp[0] O
axi_rresp[1] O
axi_rvalid O
axi_wdata[0] I
axi_wdata[10] I
axi_wdata[11] I
axi_wdata[12] I
axi_wdata[13] I
axi_wdata[14] I
axi_wdata[15] I
axi_wdata[16] I
axi_wdata[17] I
axi_wdata[18] I
axi_wdata[19] I
axi_wdata[1] I
axi_wdata[20] I
axi_wdata[21] I
axi_wdata[22] I
axi_wdata[23] I
axi_wdata[24] I
axi_wdata[25] I
axi_wdata[26] I
axi_wdata[27] I
axi_wdata[28] I
axi_wdata[29] I
axi_wdata[2] I
axi_wdata[30] I
axi_wdata[31] I
axi_wdata[3] I
axi_wdata[4] I
axi_wdata[5] I
axi_wdata[6] I
axi_wdata[7] I
axi_wdata[8] I
axi_wdata[9] I
axi_wready O
axi_wstrb[0] I
axi_wstrb[1] I
axi_wstrb[2] I
axi_wstrb[3] I
axi_wvalid I
clk I
ext_interrupt I
gpio_in[0] I
gpio_in[1] I
gpio_in[2] I
gpio_in[3] I
gpio_in[4] I
gpio_in[5] I
gpio_in[6] I
gpio_in[7] I
gpio_out[0] O
gpio_out[1] O
gpio_out[2] O
gpio_out[3] O
gpio_out[4] O
gpio_out[5] O
gpio_out[6] O
gpio_out[7] O
rst_n I
uart_rx I
uart_tx O

*D_NET *3 0.00185747
*CONN
*P axi_araddr[0] I
*I *967:A I *D sky130_fd_sc_hd__clkdlybuf4s25_1
*CAP
1 axi_araddr[0] 0.000673286
2 *967:A 0.000673286
3 *967:A axi_rdata[0] 0
4 *967:A axi_rdata[8] 0.000269428
5 *967:A *1034:A 0.00010096
6 *967:A *25:13 0
7 *967:A *316:12 0.000140513
*RES
1 axi_araddr[0] *967:A 28.4607 
*END

*D_NET *4 0.00316724
*CONN
*P axi_araddr[10] I
*I *978:A I *D sky130_fd_sc_hd__clkdlybuf4s25_1
*CAP
1 axi_araddr[10] 0.000920772
2 *978:A 0.000920772
3 *978:A axi_rdata[10] 0.000714933
4 *978:A gpio_out[2] 8.49275e-05
5 *978:A gpio_out[4] 8.72211e-05
6 *978:A gpio_out[5] 0.000159326
7 *978:A *1039:A 0.000279288
*RES
1 axi_araddr[10] *978:A 33.9005 
*END

*D_NET *5 0.00409526
*CONN
*P axi_araddr[11] I
*I *989:A I *D sky130_fd_sc_hd__clkdlybuf4s25_1
*CAP
1 axi_araddr[11] 0.00109896
2 *989:A 0.00109896
3 *989:A axi_rdata[15] 0.000375849
4 *989:A gpio_out[7] 0.00010908
5 *989:A *799:B 5.43661e-05
6 *989:A *850:D 5.24523e-05
7 *989:A *930:CLK 0.000198705
8 *989:A *933:CLK 0.000194117
9 *989:A *933:D 0
10 *989:A *995:A 0
11 *989:A *1007:A 0.000506186
12 *989:A *1042:A 0
13 *989:A *255:65 1.27784e-05
14 *989:A *255:80 0.000138671
15 *989:A *256:20 0.000255138
*RES
1 axi_araddr[11] *989:A 31.0944 
*END

*D_NET *6 0.00413624
*CONN
*P axi_araddr[12] I
*I *995:A I *D sky130_fd_sc_hd__clkdlybuf4s25_1
*CAP
1 axi_araddr[12] 0.00153552
2 *995:A 0.00153552
3 *995:A axi_rdata[12] 0.000411268
4 *995:A axi_rdata[15] 0.00011307
5 *995:A *852:D 0
6 *995:A *911:RESET_B 9.1915e-05
7 *995:A *996:A 0.000448937
8 *989:A *995:A 0
*RES
1 axi_araddr[12] *995:A 23.6601 
*END

*D_NET *7 0.00330707
*CONN
*P axi_araddr[13] I
*I *996:A I *D sky130_fd_sc_hd__clkdlybuf4s25_1
*CAP
1 axi_araddr[13] 0.000833056
2 *996:A 0.000833056
3 *996:A axi_rdata[12] 0.000463605
4 *996:A axi_rdata[13] 0
5 *996:A gpio_out[2] 4.58324e-05
6 *996:A gpio_out[4] 9.41642e-05
7 *996:A gpio_out[5] 0
8 *996:A *930:RESET_B 0
9 *996:A *1005:A 6.19198e-05
10 *996:A *1039:A 0.000526495
11 *996:A *365:287 0
12 *996:A *365:289 0
13 *995:A *996:A 0.000448937
*RES
1 axi_araddr[13] *996:A 33.3316 
*END

*D_NET *8 0.00183017
*CONN
*P axi_araddr[14] I
*I *997:A I *D sky130_fd_sc_hd__clkdlybuf4s25_1
*CAP
1 axi_araddr[14] 0.000425853
2 *997:A 0.000425853
3 *997:A axi_rdata[14] 0.000100263
4 *997:A axi_rresp[0] 0.000303226
5 *997:A gpio_out[6] 0.000168071
6 *997:A *937:A 3.0404e-05
7 *997:A *998:A 0
8 *997:A *1043:A 0.000259357
9 *997:A *1044:A 0.000117144
*RES
1 axi_araddr[14] *997:A 24.3482 
*END

*D_NET *9 0.00319658
*CONN
*P axi_araddr[15] I
*I *998:A I *D sky130_fd_sc_hd__clkdlybuf4s25_1
*CAP
1 axi_araddr[15] 0.000611565
2 *998:A 0.000611565
3 *998:A axi_awready 2.27062e-05
4 *998:A axi_rdata[14] 0.000385854
5 *998:A gpio_out[7] 0.000472983
6 *998:A *802:B 0.000325521
7 *998:A *1003:A 0
8 *998:A *1044:A 0.000766382
9 *997:A *998:A 0
*RES
1 axi_araddr[15] *998:A 31.6894 
*END

*D_NET *10 0.00275487
*CONN
*P axi_araddr[16] I
*I *999:A I *D sky130_fd_sc_hd__clkdlybuf4s25_1
*CAP
1 axi_araddr[16] 0.000742067
2 *999:A 0.000742067
3 *999:A axi_rdata[16] 0.000224578
4 *999:A *803:B 0.000601517
5 *999:A *1011:A 0.000444635
*RES
1 axi_araddr[16] *999:A 32.6973 
*END

*D_NET *11 0.00416784
*CONN
*P axi_araddr[17] I
*I *1000:A I *D sky130_fd_sc_hd__clkdlybuf4s25_1
*CAP
1 axi_araddr[17] 0.00166232
2 *1000:A 0.00166232
3 *1000:A axi_rdata[11] 0
4 *1000:A axi_rdata[16] 0
5 *1000:A *803:B 0.000100388
6 *1000:A *860:A 2.06178e-05
7 *1000:A *863:A2 0.000176439
8 *1000:A *912:CLK 0
9 *1000:A *968:A 0.00043481
10 *1000:A *84:16 0.00011094
*RES
1 axi_araddr[17] *1000:A 39.5458 
*END

*D_NET *12 0.00396919
*CONN
*P axi_araddr[18] I
*I *968:A I *D sky130_fd_sc_hd__clkdlybuf4s25_1
*CAP
1 axi_araddr[18] 0.00136606
2 *968:A 0.00136606
3 *968:A axi_rdata[11] 0.000422905
4 *968:A axi_rdata[17] 0.000285703
5 *968:A *863:A2 0
6 *968:A *84:16 9.36525e-05
7 *1000:A *968:A 0.00043481
*RES
1 axi_araddr[18] *968:A 37.4623 
*END

*D_NET *13 0.00159364
*CONN
*P axi_araddr[19] I
*I *969:A I *D sky130_fd_sc_hd__clkdlybuf4s25_1
*CAP
1 axi_araddr[19] 0.000733225
2 *969:A 0.000733225
3 *969:A axi_rdata[11] 0
4 *969:A axi_rdata[19] 0
5 *969:A gpio_out[3] 4.01768e-05
6 *969:A *806:B 7.77652e-05
7 *969:A *1040:A 9.25014e-06
8 *969:A *83:16 0
*RES
1 axi_araddr[19] *969:A 28.7509 
*END

*D_NET *14 0.0057274
*CONN
*P axi_araddr[1] I
*I *970:A I *D sky130_fd_sc_hd__clkdlybuf4s25_1
*CAP
1 axi_araddr[1] 0.00151148
2 *970:A 1.1624e-05
3 *14:13 0.0015231
4 *970:A *788:B 5.52238e-05
5 *970:A *886:A 5.52238e-05
6 *14:13 axi_rdata[0] 0.00017691
7 *14:13 axi_rdata[8] 0.000274918
8 *14:13 *787:A 8.54057e-05
9 *14:13 *787:B 4.98055e-06
10 *14:13 *796:A 0
11 *14:13 *817:B 6.57026e-05
12 *14:13 *824:A3 1.21531e-05
13 *14:13 *825:A_N 3.6322e-05
14 *14:13 *896:CLK 0.00012535
15 *14:13 *896:D 0.000127939
16 *14:13 *954:A 0.000148911
17 *14:13 *991:A 0.000411051
18 *14:13 *1034:A 0.00035911
19 *14:13 *1035:A 0
20 *14:13 *25:13 0
21 *14:13 *205:77 7.47942e-05
22 *14:13 *205:88 0.000303215
23 *14:13 *252:10 0.000134088
24 *14:13 *263:12 9.8126e-05
25 *14:13 *274:10 0.000131769
*RES
1 axi_araddr[1] *14:13 49.1786 
2 *14:13 *970:A 14.3357 
*END

*D_NET *15 0.00144355
*CONN
*P axi_araddr[20] I
*I *971:A I *D sky130_fd_sc_hd__clkdlybuf4s25_1
*CAP
1 axi_araddr[20] 0.000474301
2 *971:A 0.000474301
3 *971:A *807:B 3.18676e-05
4 *971:A *973:A 0.000463076
5 *971:A *1014:A 0
*RES
1 axi_araddr[20] *971:A 26.9473 
*END

*D_NET *16 0.00312545
*CONN
*P axi_araddr[21] I
*I *972:A I *D sky130_fd_sc_hd__clkdlybuf4s25_1
*CAP
1 axi_araddr[21] 0.0004795
2 *972:A 0.0004795
3 *972:A axi_rdata[20] 0.00051551
4 *972:A axi_rdata[21] 0.000447209
5 *972:A *808:A 2.89016e-05
6 *972:A *808:B 0.000293182
7 *972:A *973:A 0.000517806
8 *972:A *1017:A 0.000363837
*RES
1 axi_araddr[21] *972:A 35.4473 
*END

*D_NET *17 0.00303404
*CONN
*P axi_araddr[22] I
*I *973:A I *D sky130_fd_sc_hd__clkdlybuf4s25_1
*CAP
1 axi_araddr[22] 0.000718977
2 *973:A 0.000718977
3 *973:A axi_rdata[20] 0
4 *973:A *807:B 5.33786e-05
5 *973:A *808:A 4.35141e-05
6 *973:A *951:A 0.00051831
7 *971:A *973:A 0.000463076
8 *972:A *973:A 0.000517806
*RES
1 axi_araddr[22] *973:A 35.108 
*END

*D_NET *18 0.00322782
*CONN
*P axi_araddr[23] I
*I *974:A I *D sky130_fd_sc_hd__clkdlybuf4s25_1
*CAP
1 axi_araddr[23] 0.000691082
2 *974:A 0.000691082
3 *974:A axi_rdata[22] 0.000157132
4 *974:A axi_rdata[23] 0.000910775
5 *974:A axi_rdata[24] 0.000420387
6 *974:A axi_rdata[25] 0
7 *974:A *811:A 9.0145e-05
8 *974:A *1021:A 0.000267214
*RES
1 axi_araddr[23] *974:A 31.5702 
*END

*D_NET *19 0.00220642
*CONN
*P axi_araddr[24] I
*I *975:A I *D sky130_fd_sc_hd__clkdlybuf4s25_1
*CAP
1 axi_araddr[24] 0.000959699
2 *975:A 0.000959699
3 *975:A axi_bresp[0] 0
4 *975:A axi_rdata[22] 0.000143511
5 *975:A axi_rdata[23] 0
6 *975:A axi_rdata[24] 0.000143511
7 *975:A *976:A 0
*RES
1 axi_araddr[24] *975:A 35.1524 
*END

*D_NET *20 0.00258251
*CONN
*P axi_araddr[25] I
*I *976:A I *D sky130_fd_sc_hd__clkdlybuf4s25_1
*CAP
1 axi_araddr[25] 0.000964548
2 *976:A 0.000964548
3 *976:A axi_rdata[23] 0.000279625
4 *976:A axi_rdata[24] 9.41642e-05
5 *976:A axi_rdata[25] 0.000279625
6 *976:A *1021:A 0
7 *975:A *976:A 0
*RES
1 axi_araddr[25] *976:A 33.602 
*END

*D_NET *21 0.00361918
*CONN
*P axi_araddr[26] I
*I *977:A I *D sky130_fd_sc_hd__clkdlybuf4s25_1
*CAP
1 axi_araddr[26] 0.000850047
2 *977:A 0.000850047
3 *977:A *814:A 0.000140481
4 *977:A *881:B 5.71472e-05
5 *977:A *881:D 6.55175e-05
6 *977:A *883:B 0.00034127
7 *977:A *883:D 5.33005e-05
8 *977:A *979:A 0.000629615
9 *977:A *980:A 0.000316676
10 *977:A *1023:A 9.25376e-05
11 *977:A *1029:A 7.77652e-05
12 *977:A *240:10 0.000144773
*RES
1 axi_araddr[26] *977:A 31.9139 
*END

*D_NET *22 0.0042008
*CONN
*P axi_araddr[27] I
*I *979:A I *D sky130_fd_sc_hd__clkdlybuf4s25_1
*CAP
1 axi_araddr[27] 0.00101344
2 *979:A 0.00101344
3 *979:A axi_rdata[26] 0.000137105
4 *979:A axi_rdata[27] 0.000934851
5 *979:A *815:B 0
6 *979:A *818:B 0
7 *979:A *881:B 6.52967e-05
8 *979:A *881:C 9.40958e-05
9 *979:A *883:A 9.21289e-05
10 *979:A *945:A 0
11 *979:A *984:A 0
12 *979:A *241:31 0.000154301
13 *979:A *347:18 5.65001e-05
14 *979:A *365:54 1.00375e-05
15 *977:A *979:A 0.000629615
*RES
1 axi_araddr[27] *979:A 25.7672 
*END

*D_NET *23 0.00376059
*CONN
*P axi_araddr[28] I
*I *980:A I *D sky130_fd_sc_hd__clkdlybuf4s25_1
*CAP
1 axi_araddr[28] 0.000720389
2 *980:A 0.000720389
3 *980:A axi_rdata[28] 0.000264049
4 *980:A *814:B 0.000953662
5 *980:A *818:A 7.43578e-06
6 *980:A *984:A 0.000597216
7 *980:A *1023:A 0
8 *980:A *1028:A 0.000180777
9 *977:A *980:A 0.000316676
*RES
1 axi_araddr[28] *980:A 31.521 
*END

*D_NET *24 0.00507995
*CONN
*P axi_araddr[29] I
*I *981:A I *D sky130_fd_sc_hd__clkdlybuf4s25_1
*CAP
1 axi_araddr[29] 0.00143656
2 *981:A 0.00143656
3 *981:A axi_rdata[29] 0.000762465
4 *981:A axi_rdata[31] 0.000810712
5 *981:A *816:B 2.38671e-05
6 *981:A *888:A 0
7 *981:A *893:B 0
8 *981:A *924:CLK 0.000166416
9 *981:A *924:RESET_B 1.95074e-05
10 *981:A *244:14 0.000397924
11 *981:A *272:12 2.59355e-05
*RES
1 axi_araddr[29] *981:A 33.4541 
*END

*D_NET *25 0.00642144
*CONN
*P axi_araddr[2] I
*I *982:A I *D sky130_fd_sc_hd__clkdlybuf4s25_1
*CAP
1 axi_araddr[2] 0.00168909
2 *982:A 8.06767e-05
3 *25:13 0.00176976
4 *982:A *892:B 0.000269428
5 *982:A *954:A 0.000139913
6 *25:13 axi_rdata[0] 0
7 *25:13 axi_rdata[1] 0.000257755
8 *25:13 axi_rdata[3] 0.000257755
9 *25:13 axi_rdata[8] 0.000193965
10 *25:13 *787:A 7.95987e-05
11 *25:13 *787:B 0.000314188
12 *25:13 *788:B 0
13 *25:13 *899:D 0.00114967
14 *25:13 *1004:A 0
15 *25:13 *1034:A 2.37761e-05
16 *25:13 *252:10 0.000195862
17 *25:13 *316:12 0
18 *967:A *25:13 0
19 *14:13 *25:13 0
*RES
1 axi_araddr[2] *25:13 48.6964 
2 *25:13 *982:A 16.3893 
*END

*D_NET *26 0.00612601
*CONN
*P axi_araddr[30] I
*I *983:A I *D sky130_fd_sc_hd__clkdlybuf4s25_1
*CAP
1 axi_araddr[30] 0.00153141
2 *983:A 0.00153141
3 *983:A axi_rdata[29] 0.00014575
4 *983:A axi_rdata[31] 0
5 *983:A gpio_out[0] 0.000318619
6 *983:A gpio_out[1] 0.000976878
7 *983:A *817:B 0.00112468
8 *983:A *889:C 0.000234643
9 *983:A *899:D 4.46689e-05
10 *983:A *244:14 2.94937e-05
11 *983:A *364:26 4.28365e-05
12 *983:A *378:12 0.000145617
*RES
1 axi_araddr[30] *983:A 31.7401 
*END

*D_NET *27 0.00420485
*CONN
*P axi_araddr[31] I
*I *984:A I *D sky130_fd_sc_hd__clkdlybuf4s25_1
*CAP
1 axi_araddr[31] 0.00117163
2 *984:A 0.00117163
3 *984:A axi_rdata[27] 2.89016e-05
4 *984:A axi_rdata[28] 0.000583
5 *984:A *815:B 0.000169731
6 *984:A *891:A 7.48301e-06
7 *984:A *891:B 0.000103806
8 *984:A *891:C 8.02048e-05
9 *984:A *893:B 2.67113e-05
10 *984:A *1024:A 0.000227539
11 *984:A *272:16 1.10073e-05
12 *984:A *272:44 2.59921e-05
13 *979:A *984:A 0
14 *980:A *984:A 0.000597216
*RES
1 axi_araddr[31] *984:A 31.2634 
*END

*D_NET *28 0.00531231
*CONN
*P axi_araddr[3] I
*I *985:A I *D sky130_fd_sc_hd__clkdlybuf4s25_1
*CAP
1 axi_araddr[3] 0.00115803
2 *985:A 0.00115803
3 *985:A axi_rdata[0] 0.000199338
4 *985:A axi_rdata[1] 0.000444323
5 *985:A axi_rdata[3] 0
6 *985:A *788:B 0
7 *985:A *790:A 0
8 *985:A *790:B 0.00160187
9 *985:A *820:B 5.09643e-05
10 *985:A *892:B 5.52238e-05
11 *985:A *896:RESET_B 0.000259665
12 *985:A *898:RESET_B 0.00026768
13 *985:A *242:18 0
14 *985:A *315:77 0.000117189
*RES
1 axi_araddr[3] *985:A 47.8714 
*END

*D_NET *29 0.00311318
*CONN
*P axi_araddr[4] I
*I *986:A I *D sky130_fd_sc_hd__clkdlybuf4s25_1
*CAP
1 axi_araddr[4] 0.000956273
2 *986:A 0.000956273
3 *986:A axi_rdata[4] 0.000131755
4 *986:A *791:B 0.000394636
5 *986:A *826:B 5.71472e-05
6 *986:A *828:B 0.000143652
7 *986:A *1031:A 0.000393566
8 *986:A *248:20 9.77264e-06
9 *986:A *278:14 0
10 *986:A *278:31 7.01075e-05
*RES
1 axi_araddr[4] *986:A 36.1929 
*END

*D_NET *30 0.00389644
*CONN
*P axi_araddr[5] I
*I *987:A I *D sky130_fd_sc_hd__clkdlybuf4s25_1
*CAP
1 axi_araddr[5] 0.00120746
2 *987:A 0.00120746
3 *987:A axi_rdata[5] 0
4 *987:A *793:A 0.00023904
5 *987:A *832:D 2.43391e-05
6 *987:A *841:A1 4.27842e-06
7 *987:A *988:A 0
8 *987:A *994:A 0.000700519
9 *987:A *211:32 2.85321e-05
10 *987:A *215:10 0.000357459
11 *987:A *281:20 0.000127357
*RES
1 axi_araddr[5] *987:A 42.3536 
*END

*D_NET *31 0.00455133
*CONN
*P axi_araddr[6] I
*I *988:A I *D sky130_fd_sc_hd__clkdlybuf4s25_1
*CAP
1 axi_araddr[6] 0.00097
2 *988:A 0.00097
3 *988:A axi_rdata[5] 0.000583926
4 *988:A *792:B 0.000207362
5 *988:A *793:A 7.58938e-05
6 *988:A *793:B 0.000246509
7 *988:A *794:B 0.000622006
8 *988:A *990:A 0.000454763
9 *988:A *210:18 0.00012249
10 *988:A *248:8 5.33005e-05
11 *988:A *281:12 0.000245079
12 *987:A *988:A 0
*RES
1 axi_araddr[6] *988:A 44.1393 
*END

*D_NET *32 0.00541945
*CONN
*P axi_araddr[7] I
*I *990:A I *D sky130_fd_sc_hd__clkdlybuf4s25_1
*CAP
1 axi_araddr[7] 0.000651422
2 *990:A 0.000651422
3 *990:A axi_rdata[7] 0.00129827
4 *990:A *791:A 5.65955e-05
5 *990:A *793:B 3.34295e-05
6 *990:A *794:B 0.000388438
7 *990:A *992:A 0.000461421
8 *990:A *1030:A 0.000195455
9 *990:A *1033:A 0.000591641
10 *990:A *316:12 0.000636591
11 *988:A *990:A 0.000454763
*RES
1 axi_araddr[7] *990:A 44.9607 
*END

*D_NET *33 0.0016006
*CONN
*P axi_araddr[8] I
*I *991:A I *D sky130_fd_sc_hd__clkdlybuf4s25_1
*CAP
1 axi_araddr[8] 0.000580321
2 *991:A 0.000580321
3 *991:A axi_rdata[9] 0
4 *991:A *795:B 2.89114e-05
5 *991:A *796:A 0
6 *14:13 *991:A 0.000411051
*RES
1 axi_araddr[8] *991:A 27.7821 
*END

*D_NET *34 0.00459894
*CONN
*P axi_araddr[9] I
*I *992:A I *D sky130_fd_sc_hd__clkdlybuf4s25_1
*CAP
1 axi_araddr[9] 0.000943429
2 *992:A 0.000943429
3 *992:A axi_rdata[6] 0.00140374
4 *992:A *793:B 0.00036246
5 *992:A *903:RESET_B 0.000387208
6 *992:A *940:A 5.90491e-05
7 *992:A *1032:A 3.8206e-05
8 *990:A *992:A 0.000461421
*RES
1 axi_araddr[9] *992:A 43.2554 
*END

*D_NET *35 0.0010293
*CONN
*P axi_arready O
*I *1002:X O *D sky130_fd_sc_hd__clkdlybuf4s25_1
*CAP
1 axi_arready 0.000457429
2 *1002:X 0.000457429
3 axi_arready axi_bresp[1] 5.52631e-05
4 axi_arready *936:A 5.918e-05
*RES
1 *1002:X axi_arready 24.322 
*END

*D_NET *36 0.00145638
*CONN
*P axi_arvalid I
*I *936:A I *D sky130_fd_sc_hd__buf_2
*CAP
1 axi_arvalid 0.000457433
2 *936:A 0.000457433
3 *936:A axi_bresp[1] 0.000150927
4 *936:A *149:14 0.000331408
5 axi_arready *936:A 5.918e-05
*RES
1 axi_arvalid *936:A 23.7391 
*END

*D_NET *69 0.00122218
*CONN
*P axi_awready O
*I *1003:X O *D sky130_fd_sc_hd__clkdlybuf4s25_1
*CAP
1 axi_awready 0.000425572
2 *1003:X 0.000425572
3 axi_awready axi_rresp[0] 2.08409e-05
4 axi_awready *937:A 0.000327491
5 axi_awready *1003:A 0
6 axi_awready *149:14 0
7 *998:A axi_awready 2.27062e-05
*RES
1 *1003:X axi_awready 21.616 
*END

*D_NET *70 0.0020503
*CONN
*P axi_awvalid I
*I *937:A I *D sky130_fd_sc_hd__buf_2
*CAP
1 axi_awvalid 0.000482329
2 *937:A 0.000482329
3 *937:A axi_rresp[0] 0.000384553
4 *937:A gpio_out[6] 4.884e-05
5 *937:A *1003:A 2.89016e-05
6 *937:A *1043:A 0.000265453
7 *937:A *373:8 0
8 axi_awready *937:A 0.000327491
9 *997:A *937:A 3.0404e-05
*RES
1 axi_awvalid *937:A 25.8641 
*END

*D_NET *72 0.000818301
*CONN
*P axi_bresp[0] O
*I *1049:LO O *D sky130_fd_sc_hd__conb_1
*CAP
1 axi_bresp[0] 0.00040915
2 *1049:LO 0.00040915
3 axi_bresp[0] *811:B 0
4 *975:A axi_bresp[0] 0
*RES
1 *1049:LO axi_bresp[0] 19.1945 
*END

*D_NET *73 0.00104355
*CONN
*P axi_bresp[1] O
*I *1046:LO O *D sky130_fd_sc_hd__conb_1
*CAP
1 axi_bresp[1] 0.000418678
2 *1046:LO 0.000418678
3 axi_bresp[1] *149:14 0
4 axi_arready axi_bresp[1] 5.52631e-05
5 *936:A axi_bresp[1] 0.000150927
*RES
1 *1046:LO axi_bresp[1] 19.6511 
*END

*D_NET *74 0.00203298
*CONN
*P axi_bvalid O
*I *1050:HI O *D sky130_fd_sc_hd__conb_1
*CAP
1 axi_bvalid 0.000626858
2 *1050:HI 0.000626858
3 axi_bvalid axi_rdata[1] 6.05161e-06
4 axi_bvalid *820:A 0
5 axi_bvalid *820:B 0.000315165
6 axi_bvalid *894:B 0
7 axi_bvalid *1045:A 3.34295e-05
8 axi_bvalid *98:8 2.77289e-05
9 axi_bvalid *345:18 0.000396892
*RES
1 *1050:HI axi_bvalid 28.6393 
*END

*D_NET *75 0.00459491
*CONN
*P axi_rdata[0] O
*I *1004:X O *D sky130_fd_sc_hd__clkdlybuf4s25_1
*CAP
1 axi_rdata[0] 0.00113257
2 *1004:X 0.00113257
3 axi_rdata[0] *788:B 0.000869837
4 axi_rdata[0] *790:B 0.000291583
5 axi_rdata[0] *941:A 2.07903e-05
6 axi_rdata[0] *1004:A 2.59355e-05
7 axi_rdata[0] *247:31 4.67036e-05
8 axi_rdata[0] *263:51 0.000522451
9 axi_rdata[0] *316:12 0.000176226
10 *967:A axi_rdata[0] 0
11 *985:A axi_rdata[0] 0.000199338
12 *14:13 axi_rdata[0] 0.00017691
13 *25:13 axi_rdata[0] 0
*RES
1 *1004:X axi_rdata[0] 42.9607 
*END

*D_NET *76 0.00354804
*CONN
*P axi_rdata[10] O
*I *1005:X O *D sky130_fd_sc_hd__clkdlybuf4s25_1
*CAP
1 axi_rdata[10] 0.000629722
2 *1005:X 0.000629722
3 axi_rdata[10] gpio_out[2] 0.000832497
4 axi_rdata[10] gpio_out[4] 0.000696614
5 axi_rdata[10] gpio_out[5] 4.45524e-05
6 *978:A axi_rdata[10] 0.000714933
*RES
1 *1005:X axi_rdata[10] 30.9725 
*END

*D_NET *77 0.00324061
*CONN
*P axi_rdata[11] O
*I *1006:X O *D sky130_fd_sc_hd__clkdlybuf4s25_1
*CAP
1 axi_rdata[11] 0.0010305
2 *1006:X 0.0010305
3 axi_rdata[11] gpio_out[3] 0
4 axi_rdata[11] *805:A 0.000167256
5 axi_rdata[11] *806:B 0
6 axi_rdata[11] *859:A 3.2534e-05
7 axi_rdata[11] *860:A 0
8 axi_rdata[11] *860:B 4.0127e-05
9 axi_rdata[11] *861:C 0.000191403
10 axi_rdata[11] *861:D 0.00010096
11 axi_rdata[11] *915:RESET_B 0.000103993
12 axi_rdata[11] *226:10 0.000120436
13 *968:A axi_rdata[11] 0.000422905
14 *969:A axi_rdata[11] 0
15 *1000:A axi_rdata[11] 0
*RES
1 *1006:X axi_rdata[11] 37.9295 
*END

*D_NET *78 0.00438609
*CONN
*P axi_rdata[12] O
*I *1007:X O *D sky130_fd_sc_hd__clkdlybuf4s25_1
*CAP
1 axi_rdata[12] 0.00150243
2 *1007:X 0.00150243
3 axi_rdata[12] axi_rdata[13] 0.000300268
4 axi_rdata[12] gpio_out[2] 0
5 axi_rdata[12] gpio_out[5] 9.77021e-06
6 axi_rdata[12] *961:A 0.000196314
7 axi_rdata[12] *365:193 0
8 *995:A axi_rdata[12] 0.000411268
9 *996:A axi_rdata[12] 0.000463605
*RES
1 *1007:X axi_rdata[12] 25.4968 
*END

*D_NET *79 0.00507981
*CONN
*P axi_rdata[13] O
*I *1008:X O *D sky130_fd_sc_hd__clkdlybuf4s25_1
*CAP
1 axi_rdata[13] 0.00150182
2 *1008:X 0.00150182
3 axi_rdata[13] gpio_out[4] 0.000382766
4 axi_rdata[13] gpio_out[5] 0.000780949
5 axi_rdata[13] *800:A 0.000165982
6 axi_rdata[13] *1008:A 0.000446215
7 axi_rdata[12] axi_rdata[13] 0.000300268
8 *996:A axi_rdata[13] 0
*RES
1 *1008:X axi_rdata[13] 40.5956 
*END

*D_NET *80 0.00112004
*CONN
*P axi_rdata[14] O
*I *1009:X O *D sky130_fd_sc_hd__clkdlybuf4s25_1
*CAP
1 axi_rdata[14] 0.000224063
2 *1009:X 0.000224063
3 axi_rdata[14] gpio_out[6] 0.000168071
4 axi_rdata[14] *1044:A 1.77247e-05
5 *997:A axi_rdata[14] 0.000100263
6 *998:A axi_rdata[14] 0.000385854
*RES
1 *1009:X axi_rdata[14] 19.6511 
*END

*D_NET *81 0.00337991
*CONN
*P axi_rdata[15] O
*I *1010:X O *D sky130_fd_sc_hd__clkdlybuf4s25_1
*CAP
1 axi_rdata[15] 0.000976082
2 *1010:X 0.000976082
3 axi_rdata[15] gpio_out[7] 0.000381937
4 axi_rdata[15] *799:B 0.000268396
5 axi_rdata[15] *802:B 0
6 axi_rdata[15] *933:CLK 0.000137983
7 axi_rdata[15] *1007:A 9.52836e-05
8 axi_rdata[15] *256:20 5.52238e-05
9 *989:A axi_rdata[15] 0.000375849
10 *995:A axi_rdata[15] 0.00011307
*RES
1 *1010:X axi_rdata[15] 33.4547 
*END

*D_NET *82 0.00392839
*CONN
*P axi_rdata[16] O
*I *1011:X O *D sky130_fd_sc_hd__clkdlybuf4s25_1
*CAP
1 axi_rdata[16] 0.00163462
2 *1011:X 0.00163462
3 axi_rdata[16] *1011:A 0.000434562
4 *999:A axi_rdata[16] 0.000224578
5 *1000:A axi_rdata[16] 0
*RES
1 *1011:X axi_rdata[16] 39.5902 
*END

*D_NET *83 0.00396486
*CONN
*P axi_rdata[17] O
*I *1012:X O *D sky130_fd_sc_hd__clkdlybuf4s25_1
*CAP
1 axi_rdata[17] 0.000216808
2 *1012:X 0.000983541
3 *83:16 0.00120035
4 *83:16 axi_rdata[19] 0.000137758
5 *83:16 *807:A 0
6 *83:16 *916:CLK 0.000166983
7 *83:16 *917:D 7.83587e-05
8 *83:16 *1014:A 0.000198748
9 *83:16 *1040:A 0
10 *83:16 *84:16 0.00035408
11 *83:16 *228:45 1.92789e-05
12 *83:16 *228:73 0.000172637
13 *83:16 *251:47 0.000150618
14 *968:A axi_rdata[17] 0.000285703
15 *969:A *83:16 0
*RES
1 *1012:X *83:16 46.4786 
2 *83:16 axi_rdata[17] 6.48661 
*END

*D_NET *84 0.00378596
*CONN
*P axi_rdata[18] O
*I *1013:X O *D sky130_fd_sc_hd__clkdlybuf4s25_1
*CAP
1 axi_rdata[18] 0.000236406
2 *1013:X 0.00122649
3 *84:16 0.0014629
4 axi_rdata[18] gpio_out[3] 0.000296094
5 *84:16 *805:B 5.39629e-06
6 *968:A *84:16 9.36525e-05
7 *1000:A *84:16 0.00011094
8 *83:16 *84:16 0.00035408
*RES
1 *1013:X *84:16 46.6929 
2 *84:16 axi_rdata[18] 6.79018 
*END

*D_NET *85 0.00128286
*CONN
*P axi_rdata[19] O
*I *1014:X O *D sky130_fd_sc_hd__clkdlybuf4s25_1
*CAP
1 axi_rdata[19] 0.000572552
2 *1014:X 0.000572552
3 *969:A axi_rdata[19] 0
4 *83:16 axi_rdata[19] 0.000137758
*RES
1 *1014:X axi_rdata[19] 25.7866 
*END

*D_NET *86 0.00327511
*CONN
*P axi_rdata[1] O
*I *1015:X O *D sky130_fd_sc_hd__clkdlybuf4s25_1
*CAP
1 axi_rdata[1] 0.000753646
2 *1015:X 0.000753646
3 axi_rdata[1] axi_rdata[3] 0
4 axi_rdata[1] *790:A 3.67257e-05
5 axi_rdata[1] *820:B 9.77821e-05
6 axi_rdata[1] *98:8 0.000665661
7 axi_rdata[1] *345:18 0.000141463
8 axi_rdata[1] *347:18 0.00011806
9 axi_bvalid axi_rdata[1] 6.05161e-06
10 *985:A axi_rdata[1] 0.000444323
11 *25:13 axi_rdata[1] 0.000257755
*RES
1 *1015:X axi_rdata[1] 35.2643 
*END

*D_NET *87 0.00311429
*CONN
*P axi_rdata[20] O
*I *1016:X O *D sky130_fd_sc_hd__clkdlybuf4s25_1
*CAP
1 axi_rdata[20] 0.000875986
2 *1016:X 0.000875986
3 axi_rdata[20] axi_rdata[21] 0.000489601
4 axi_rdata[20] *808:A 0.000287849
5 axi_rdata[20] *866:A 4.6979e-05
6 axi_rdata[20] *1016:A 0
7 axi_rdata[20] *264:8 2.23758e-05
8 *972:A axi_rdata[20] 0.00051551
9 *973:A axi_rdata[20] 0
*RES
1 *1016:X axi_rdata[20] 35.1616 
*END

*D_NET *88 0.00271791
*CONN
*P axi_rdata[21] O
*I *1017:X O *D sky130_fd_sc_hd__clkdlybuf4s25_1
*CAP
1 axi_rdata[21] 0.000890551
2 *1017:X 0.000890551
3 axi_rdata[20] axi_rdata[21] 0.000489601
4 *972:A axi_rdata[21] 0.000447209
*RES
1 *1017:X axi_rdata[21] 32.358 
*END

*D_NET *89 0.00271701
*CONN
*P axi_rdata[22] O
*I *1018:X O *D sky130_fd_sc_hd__clkdlybuf4s25_1
*CAP
1 axi_rdata[22] 0.000891593
2 *1018:X 0.000891593
3 axi_rdata[22] axi_rdata[24] 0.000315784
4 axi_rdata[22] *811:A 0.000178847
5 axi_rdata[22] *1021:A 0.000138548
6 *974:A axi_rdata[22] 0.000157132
7 *975:A axi_rdata[22] 0.000143511
*RES
1 *1018:X axi_rdata[22] 28.7328 
*END

*D_NET *90 0.0026301
*CONN
*P axi_rdata[23] O
*I *1019:X O *D sky130_fd_sc_hd__clkdlybuf4s25_1
*CAP
1 axi_rdata[23] 0.000607841
2 *1019:X 0.000607841
3 axi_rdata[23] axi_rdata[25] 6.80387e-05
4 axi_rdata[23] *1021:A 0.000155983
5 *974:A axi_rdata[23] 0.000910775
6 *975:A axi_rdata[23] 0
7 *976:A axi_rdata[23] 0.000279625
*RES
1 *1019:X axi_rdata[23] 30.1231 
*END

*D_NET *91 0.00357433
*CONN
*P axi_rdata[24] O
*I *1020:X O *D sky130_fd_sc_hd__clkdlybuf4s25_1
*CAP
1 axi_rdata[24] 0.000806044
2 *1020:X 0.000806044
3 axi_rdata[24] axi_rdata[25] 0
4 axi_rdata[24] *812:B 0.000276358
5 axi_rdata[24] *1019:A 0.000509479
6 axi_rdata[24] *1021:A 0.000202564
7 axi_rdata[22] axi_rdata[24] 0.000315784
8 *974:A axi_rdata[24] 0.000420387
9 *975:A axi_rdata[24] 0.000143511
10 *976:A axi_rdata[24] 9.41642e-05
*RES
1 *1020:X axi_rdata[24] 32.4298 
*END

*D_NET *92 0.00403766
*CONN
*P axi_rdata[25] O
*I *1021:X O *D sky130_fd_sc_hd__clkdlybuf4s25_1
*CAP
1 axi_rdata[25] 0.000942623
2 *1021:X 0.000942623
3 axi_rdata[25] axi_rdata[26] 0.000623444
4 axi_rdata[25] *810:A 4.57445e-05
5 axi_rdata[25] *811:A 0.00012401
6 axi_rdata[25] *811:B 0.00012798
7 axi_rdata[25] *812:B 0.000883571
8 axi_rdata[25] *1020:A 0
9 axi_rdata[25] *269:10 0
10 axi_rdata[23] axi_rdata[25] 6.80387e-05
11 axi_rdata[24] axi_rdata[25] 0
12 *974:A axi_rdata[25] 0
13 *976:A axi_rdata[25] 0.000279625
*RES
1 *1021:X axi_rdata[25] 35.7895 
*END

*D_NET *93 0.00418544
*CONN
*P axi_rdata[26] O
*I *1022:X O *D sky130_fd_sc_hd__clkdlybuf4s25_1
*CAP
1 axi_rdata[26] 0.000916723
2 *1022:X 0.000916723
3 axi_rdata[26] axi_rdata[27] 0.00100599
4 axi_rdata[26] *881:B 0.000129814
5 axi_rdata[26] *881:C 4.89952e-05
6 axi_rdata[26] *883:A 2.26973e-05
7 axi_rdata[26] *268:25 0.000310669
8 axi_rdata[26] *365:54 7.32757e-05
9 axi_rdata[25] axi_rdata[26] 0.000623444
10 *979:A axi_rdata[26] 0.000137105
*RES
1 *1022:X axi_rdata[26] 26.6046 
*END

*D_NET *94 0.00429759
*CONN
*P axi_rdata[27] O
*I *1023:X O *D sky130_fd_sc_hd__clkdlybuf4s25_1
*CAP
1 axi_rdata[27] 0.000617935
2 *1023:X 0.000617935
3 axi_rdata[27] axi_rdata[28] 0.00012916
4 axi_rdata[27] *813:A 0.000100388
5 axi_rdata[27] *814:A 7.55804e-05
6 axi_rdata[27] *881:C 0.000132297
7 axi_rdata[27] *891:C 5.71946e-05
8 axi_rdata[27] *893:B 3.18676e-05
9 axi_rdata[27] *1022:A 6.00128e-05
10 axi_rdata[27] *1023:A 0
11 axi_rdata[27] *1028:A 0.00017437
12 axi_rdata[27] *241:31 2.2355e-05
13 axi_rdata[27] *270:10 1.1594e-05
14 axi_rdata[27] *270:12 0.000137129
15 axi_rdata[27] *271:8 0.00016003
16 axi_rdata[26] axi_rdata[27] 0.00100599
17 *979:A axi_rdata[27] 0.000934851
18 *984:A axi_rdata[27] 2.89016e-05
*RES
1 *1023:X axi_rdata[27] 27.9943 
*END

*D_NET *95 0.00591627
*CONN
*P axi_rdata[28] O
*I *1024:X O *D sky130_fd_sc_hd__clkdlybuf4s25_1
*CAP
1 axi_rdata[28] 0.000991411
2 *1024:X 0.000991411
3 axi_rdata[28] axi_rdata[31] 0.000893995
4 axi_rdata[28] *815:B 0.000680835
5 axi_rdata[28] *1023:A 0
6 axi_rdata[28] *1024:A 0.000946365
7 axi_rdata[28] *1028:A 4.58194e-05
8 axi_rdata[28] *241:37 0.000361914
9 axi_rdata[28] *374:24 2.83129e-05
10 axi_rdata[27] axi_rdata[28] 0.00012916
11 *980:A axi_rdata[28] 0.000264049
12 *984:A axi_rdata[28] 0.000583
*RES
1 *1024:X axi_rdata[28] 35.2258 
*END

*D_NET *96 0.0058745
*CONN
*P axi_rdata[29] O
*I *1025:X O *D sky130_fd_sc_hd__clkdlybuf4s25_1
*CAP
1 axi_rdata[29] 0.00126321
2 *1025:X 0.00126321
3 axi_rdata[29] axi_rdata[30] 0.00038461
4 axi_rdata[29] gpio_out[1] 0.00113018
5 axi_rdata[29] *820:A 0.0003573
6 axi_rdata[29] *821:B 0.000229456
7 axi_rdata[29] *927:D 0
8 axi_rdata[29] *1026:A 5.71472e-05
9 axi_rdata[29] *1036:A 9.02232e-05
10 axi_rdata[29] *1045:A 0.000190947
11 axi_rdata[29] *374:24 0
12 axi_rdata[29] *378:12 0
13 *981:A axi_rdata[29] 0.000762465
14 *983:A axi_rdata[29] 0.00014575
*RES
1 *1025:X axi_rdata[29] 42.4898 
*END

*D_NET *97 0.00369846
*CONN
*P axi_rdata[2] O
*I *1026:X O *D sky130_fd_sc_hd__clkdlybuf4s25_1
*CAP
1 axi_rdata[2] 0.00153455
2 *1026:X 0.00153455
3 axi_rdata[2] axi_rdata[3] 0
4 axi_rdata[2] axi_wready 0.000335745
5 axi_rdata[2] *789:A 1.14477e-05
6 axi_rdata[2] *897:D 0.000102545
7 axi_rdata[2] *898:CLK 1.74352e-05
8 axi_rdata[2] *898:D 6.28241e-05
9 axi_rdata[2] *1015:A 0
10 axi_rdata[2] *347:18 9.93618e-05
*RES
1 *1026:X axi_rdata[2] 38.9964 
*END

*D_NET *98 0.0077385
*CONN
*P axi_rdata[30] O
*I *1027:X O *D sky130_fd_sc_hd__clkdlybuf4s25_1
*CAP
1 axi_rdata[30] 0.000823457
2 *1027:X 0.000962208
3 *98:8 0.00178567
4 axi_rdata[30] gpio_out[1] 0.000378274
5 axi_rdata[30] *888:B 0
6 axi_rdata[30] *962:A 0.000106926
7 axi_rdata[30] *993:A 0.000160515
8 axi_rdata[30] *159:18 0.00129407
9 axi_rdata[30] *345:18 0.000598114
10 *98:8 *820:A 0.000451463
11 *98:8 *820:B 7.32955e-05
12 *98:8 *345:18 2.65105e-05
13 axi_bvalid *98:8 2.77289e-05
14 axi_rdata[1] *98:8 0.000665661
15 axi_rdata[29] axi_rdata[30] 0.00038461
*RES
1 *1027:X *98:8 27.8893 
2 *98:8 axi_rdata[30] 27.4832 
*END

*D_NET *99 0.00559494
*CONN
*P axi_rdata[31] O
*I *1028:X O *D sky130_fd_sc_hd__clkdlybuf4s25_1
*CAP
1 axi_rdata[31] 0.0010868
2 *1028:X 0.0010868
3 axi_rdata[31] *889:C 0.000226888
4 axi_rdata[31] *945:A 4.1879e-05
5 axi_rdata[31] *1028:A 2.89114e-05
6 axi_rdata[31] *244:14 0.000104587
7 axi_rdata[31] *272:16 0.000615956
8 axi_rdata[31] *374:24 0.000698421
9 axi_rdata[28] axi_rdata[31] 0.000893995
10 *981:A axi_rdata[31] 0.000810712
11 *983:A axi_rdata[31] 0
*RES
1 *1028:X axi_rdata[31] 27.3603 
*END

*D_NET *100 0.00705454
*CONN
*P axi_rdata[3] O
*I *1029:X O *D sky130_fd_sc_hd__clkdlybuf4s25_1
*CAP
1 axi_rdata[3] 0.00158273
2 *1029:X 0.00028651
3 *100:8 0.00186924
4 axi_rdata[3] *790:A 0.000493428
5 axi_rdata[3] *815:B 5.01876e-06
6 axi_rdata[3] *818:B 2.70189e-05
7 axi_rdata[3] *821:A 0.00019933
8 axi_rdata[3] *822:B 0.00093749
9 axi_rdata[3] *898:RESET_B 0
10 axi_rdata[3] *924:D 0.000251663
11 axi_rdata[3] *945:A 0.000140857
12 axi_rdata[3] *1028:A 8.23597e-06
13 axi_rdata[3] *241:37 4.03318e-05
14 axi_rdata[3] *242:18 0.000493016
15 axi_rdata[3] *249:108 1.53146e-05
16 *100:8 *881:D 0.000446597
17 axi_rdata[1] axi_rdata[3] 0
18 axi_rdata[2] axi_rdata[3] 0
19 *985:A axi_rdata[3] 0
20 *25:13 axi_rdata[3] 0.000257755
*RES
1 *1029:X *100:8 18.0321 
2 *100:8 axi_rdata[3] 41.6786 
*END

*D_NET *101 0.00408869
*CONN
*P axi_rdata[4] O
*I *1030:X O *D sky130_fd_sc_hd__clkdlybuf4s25_1
*CAP
1 axi_rdata[4] 0.00134033
2 *1030:X 0.00134033
3 axi_rdata[4] *791:B 5.58941e-05
4 axi_rdata[4] *1030:A 0.000933128
5 axi_rdata[4] *1033:A 0.000287247
6 *986:A axi_rdata[4] 0.000131755
*RES
1 *1030:X axi_rdata[4] 41.1036 
*END

*D_NET *102 0.00563548
*CONN
*P axi_rdata[5] O
*I *1031:X O *D sky130_fd_sc_hd__clkdlybuf4s25_1
*CAP
1 axi_rdata[5] 0.00138759
2 *1031:X 0.00138759
3 axi_rdata[5] *793:A 0.00023157
4 axi_rdata[5] *159:18 0.00173944
5 axi_rdata[5] *356:24 0.000305357
6 *987:A axi_rdata[5] 0
7 *988:A axi_rdata[5] 0.000583926
*RES
1 *1031:X axi_rdata[5] 37.8571 
*END

*D_NET *103 0.00433892
*CONN
*P axi_rdata[6] O
*I *1032:X O *D sky130_fd_sc_hd__clkdlybuf4s25_1
*CAP
1 axi_rdata[6] 0.000762065
2 *1032:X 0.000762065
3 axi_rdata[6] axi_rdata[7] 0.000448389
4 axi_rdata[6] axi_rdata[9] 0
5 axi_rdata[6] *1032:A 0.000877234
6 axi_rdata[6] *205:20 8.54258e-05
7 *992:A axi_rdata[6] 0.00140374
*RES
1 *1032:X axi_rdata[6] 39.4607 
*END

*D_NET *104 0.00617579
*CONN
*P axi_rdata[7] O
*I *1033:X O *D sky130_fd_sc_hd__clkdlybuf4s25_1
*CAP
1 axi_rdata[7] 0.00167451
2 *1033:X 0.00167451
3 axi_rdata[7] axi_rdata[9] 0.000448389
4 axi_rdata[7] *794:B 0.000572156
5 axi_rdata[7] *316:12 5.95659e-05
6 axi_rdata[6] axi_rdata[7] 0.000448389
7 *990:A axi_rdata[7] 0.00129827
*RES
1 *1033:X axi_rdata[7] 45.675 
*END

*D_NET *105 0.00194122
*CONN
*P axi_rdata[8] O
*I *1034:X O *D sky130_fd_sc_hd__clkdlybuf4s25_1
*CAP
1 axi_rdata[8] 0.000589061
2 *1034:X 0.000589061
3 axi_rdata[8] *316:12 2.47833e-05
4 *967:A axi_rdata[8] 0.000269428
5 *14:13 axi_rdata[8] 0.000274918
6 *25:13 axi_rdata[8] 0.000193965
*RES
1 *1034:X axi_rdata[8] 27.3179 
*END

*D_NET *106 0.00260261
*CONN
*P axi_rdata[9] O
*I *1035:X O *D sky130_fd_sc_hd__clkdlybuf4s25_1
*CAP
1 axi_rdata[9] 0.000742269
2 *1035:X 0.000742269
3 axi_rdata[9] *796:A 0
4 axi_rdata[9] *796:B 0.000409413
5 axi_rdata[9] *824:A1 3.00761e-05
6 axi_rdata[9] *824:A2 1.12669e-05
7 axi_rdata[9] *824:B1 7.74135e-05
8 axi_rdata[9] *1032:A 0.000141511
9 axi_rdata[6] axi_rdata[9] 0
10 axi_rdata[7] axi_rdata[9] 0.000448389
11 *991:A axi_rdata[9] 0
*RES
1 *1035:X axi_rdata[9] 34.2821 
*END

*D_NET *108 0.00151294
*CONN
*P axi_rresp[0] O
*I *1047:LO O *D sky130_fd_sc_hd__conb_1
*CAP
1 axi_rresp[0] 0.000402159
2 *1047:LO 0.000402159
3 axi_rresp[0] gpio_out[6] 0
4 axi_awready axi_rresp[0] 2.08409e-05
5 *937:A axi_rresp[0] 0.000384553
6 *997:A axi_rresp[0] 0.000303226
*RES
1 *1047:LO axi_rresp[0] 22.6868 
*END

*D_NET *109 0.0010267
*CONN
*P axi_rresp[1] O
*I *1048:LO O *D sky130_fd_sc_hd__conb_1
*CAP
1 axi_rresp[1] 0.000429314
2 *1048:LO 0.000429314
3 axi_rresp[1] axi_rvalid 0.000168071
*RES
1 *1048:LO axi_rresp[1] 22.2901 
*END

*D_NET *110 0.00089646
*CONN
*P axi_rvalid O
*I *1051:HI O *D sky130_fd_sc_hd__conb_1
*CAP
1 axi_rvalid 0.000364194
2 *1051:HI 0.000364194
3 axi_rresp[1] axi_rvalid 0.000168071
*RES
1 *1051:HI axi_rvalid 21.7531 
*END

*D_NET *143 0.00273088
*CONN
*P axi_wready O
*I *1036:X O *D sky130_fd_sc_hd__clkdlybuf4s25_1
*CAP
1 axi_wready 0.000894581
2 *1036:X 0.000894581
3 axi_wready uart_tx 8.23597e-06
4 axi_wready *898:CLK 7.43578e-06
5 axi_wready *938:A 0.000540999
6 axi_wready *1025:A 2.09897e-05
7 axi_wready *356:24 2.83129e-05
8 axi_rdata[2] axi_wready 0.000335745
*RES
1 *1036:X axi_wready 28.6269 
*END

*D_NET *148 0.00174633
*CONN
*P axi_wvalid I
*I *938:A I *D sky130_fd_sc_hd__buf_2
*CAP
1 axi_wvalid 0.000447265
2 *938:A 0.000447265
3 *938:A uart_tx 0
4 *938:A *820:A 0
5 *938:A *1025:A 1.18064e-05
6 *938:A *159:18 0.000191094
7 *938:A *356:24 4.2205e-05
8 *938:A *378:12 6.56976e-05
9 axi_wready *938:A 0.000540999
*RES
1 axi_wvalid *938:A 20.4503 
*END

*D_NET *149 0.00752546
*CONN
*P clk I
*I *939:A I *D sky130_fd_sc_hd__clkbuf_16
*CAP
1 clk 0.00299538
2 *939:A 8.12899e-05
3 *149:14 0.00307667
4 *149:14 *853:C 0
5 *149:14 *860:A 0
6 *149:14 *863:A2 0
7 *149:14 *907:CLK 8.3124e-05
8 *149:14 *911:RESET_B 0.000368348
9 *149:14 *914:D 1.78761e-05
10 *149:14 *914:RESET_B 0
11 *149:14 *915:CLK 3.16834e-05
12 *149:14 *931:D 0
13 *149:14 *222:10 0
14 *149:14 *247:57 1.36364e-05
15 *149:14 *250:89 0.000195595
16 *149:14 *250:100 0.000227724
17 *149:14 *250:109 6.62844e-05
18 *149:14 *250:150 1.5325e-05
19 *149:14 *255:14 1.31939e-05
20 *149:14 *259:16 7.9317e-06
21 *149:14 *259:22 0
22 axi_awready *149:14 0
23 axi_bresp[1] *149:14 0
24 *936:A *149:14 0.000331408
*RES
1 clk *149:14 39.943 
2 *149:14 *939:A 10.8625 
*END

*D_NET *159 0.0134922
*CONN
*P gpio_out[0] O
*I *1037:X O *D sky130_fd_sc_hd__clkdlybuf4s25_1
*CAP
1 gpio_out[0] 0.000231983
2 *1037:X 0.00438424
3 *159:18 0.00461622
4 *159:18 *900:D 9.54798e-06
5 *159:18 *994:A 0.000166882
6 *159:18 *356:24 0.000540074
7 axi_rdata[30] *159:18 0.00129407
8 axi_rdata[5] *159:18 0.00173944
9 *938:A *159:18 0.000191094
10 *983:A gpio_out[0] 0.000318619
*RES
1 *1037:X *159:18 49.952 
2 *159:18 gpio_out[0] 0.95645 
*END

*D_NET *160 0.00514883
*CONN
*P gpio_out[1] O
*I *1038:X O *D sky130_fd_sc_hd__clkdlybuf4s25_1
*CAP
1 gpio_out[1] 0.000826004
2 *1038:X 0.000826004
3 gpio_out[1] *817:B 0.000483377
4 gpio_out[1] *1045:A 0.000430103
5 gpio_out[1] *365:10 9.80173e-05
6 gpio_out[1] *374:24 0
7 axi_rdata[29] gpio_out[1] 0.00113018
8 axi_rdata[30] gpio_out[1] 0.000378274
9 *983:A gpio_out[1] 0.000976878
*RES
1 *1038:X gpio_out[1] 34.044 
*END

*D_NET *161 0.00275334
*CONN
*P gpio_out[2] O
*I *1039:X O *D sky130_fd_sc_hd__clkdlybuf4s25_1
*CAP
1 gpio_out[2] 0.000410024
2 *1039:X 0.000410024
3 gpio_out[2] gpio_out[4] 0.000273045
4 gpio_out[2] gpio_out[5] 5.33843e-05
5 gpio_out[2] *1039:A 0.000643609
6 axi_rdata[10] gpio_out[2] 0.000832497
7 axi_rdata[12] gpio_out[2] 0
8 *978:A gpio_out[2] 8.49275e-05
9 *996:A gpio_out[2] 4.58324e-05
*RES
1 *1039:X gpio_out[2] 27.6875 
*END

*D_NET *162 0.00138371
*CONN
*P gpio_out[3] O
*I *1040:X O *D sky130_fd_sc_hd__clkdlybuf4s25_1
*CAP
1 gpio_out[3] 0.000523719
2 *1040:X 0.000523719
3 axi_rdata[11] gpio_out[3] 0
4 axi_rdata[18] gpio_out[3] 0.000296094
5 *969:A gpio_out[3] 4.01768e-05
*RES
1 *1040:X gpio_out[3] 25.7866 
*END

*D_NET *163 0.00391153
*CONN
*P gpio_out[4] O
*I *1041:X O *D sky130_fd_sc_hd__clkdlybuf4s25_1
*CAP
1 gpio_out[4] 0.00091192
2 *1041:X 0.00091192
3 gpio_out[4] gpio_out[5] 0.000313468
4 gpio_out[4] *1005:A 0.000141941
5 gpio_out[4] *1041:A 9.84729e-05
6 axi_rdata[10] gpio_out[4] 0.000696614
7 axi_rdata[13] gpio_out[4] 0.000382766
8 gpio_out[2] gpio_out[4] 0.000273045
9 *978:A gpio_out[4] 8.72211e-05
10 *996:A gpio_out[4] 9.41642e-05
*RES
1 *1041:X gpio_out[4] 38.7557 
*END

*D_NET *164 0.00407942
*CONN
*P gpio_out[5] O
*I *1042:X O *D sky130_fd_sc_hd__clkdlybuf4s25_1
*CAP
1 gpio_out[5] 0.00126934
2 *1042:X 0.00126934
3 gpio_out[5] *797:A 1.16543e-05
4 gpio_out[5] *797:B 0.000139104
5 gpio_out[5] *1042:A 2.85321e-05
6 axi_rdata[10] gpio_out[5] 4.45524e-05
7 axi_rdata[12] gpio_out[5] 9.77021e-06
8 axi_rdata[13] gpio_out[5] 0.000780949
9 gpio_out[2] gpio_out[5] 5.33843e-05
10 gpio_out[4] gpio_out[5] 0.000313468
11 *978:A gpio_out[5] 0.000159326
12 *996:A gpio_out[5] 0
*RES
1 *1042:X gpio_out[5] 36.257 
*END

*D_NET *165 0.00138561
*CONN
*P gpio_out[6] O
*I *1043:X O *D sky130_fd_sc_hd__clkdlybuf4s25_1
*CAP
1 gpio_out[6] 0.000500312
2 *1043:X 0.000500312
3 gpio_out[6] *1043:A 0
4 axi_rdata[14] gpio_out[6] 0.000168071
5 axi_rresp[0] gpio_out[6] 0
6 *937:A gpio_out[6] 4.884e-05
7 *997:A gpio_out[6] 0.000168071
*RES
1 *1043:X gpio_out[6] 25.396 
*END

*D_NET *166 0.00337943
*CONN
*P gpio_out[7] O
*I *1044:X O *D sky130_fd_sc_hd__clkdlybuf4s25_1
*CAP
1 gpio_out[7] 0.000884342
2 *1044:X 0.000884342
3 gpio_out[7] *801:B 0.000317594
4 gpio_out[7] *802:B 3.08503e-05
5 gpio_out[7] *934:D 0
6 gpio_out[7] *934:RESET_B 6.07532e-05
7 gpio_out[7] *1009:A 0.000212597
8 gpio_out[7] *365:285 2.49459e-05
9 axi_rdata[15] gpio_out[7] 0.000381937
10 *989:A gpio_out[7] 0.00010908
11 *998:A gpio_out[7] 0.000472983
*RES
1 *1044:X gpio_out[7] 31.5325 
*END

*D_NET *167 0.00134058
*CONN
*P rst_n I
*I *993:A I *D sky130_fd_sc_hd__buf_4
*CAP
1 rst_n 0.000327384
2 *993:A 0.000327384
3 *993:A *994:A 0.000365465
4 *993:A *345:18 0.000159834
5 axi_rdata[30] *993:A 0.000160515
*RES
1 rst_n *993:A 20.4088 
*END

*D_NET *168 0.0107057
*CONN
*P uart_rx I
*I *994:A I *D sky130_fd_sc_hd__clkdlybuf4s25_1
*CAP
1 uart_rx 0.00433427
2 *994:A 0.00433427
3 *994:A uart_tx 0.000440924
4 *994:A *789:B 0.000189072
5 *994:A *792:A 0
6 *994:A *903:D 5.90674e-05
7 *994:A *1033:A 0
8 *994:A *281:20 0.000115206
9 *994:A *356:24 0
10 *987:A *994:A 0.000700519
11 *993:A *994:A 0.000365465
12 *159:18 *994:A 0.000166882
*RES
1 uart_rx *994:A 40.5876 
*END

*D_NET *169 0.00422013
*CONN
*P uart_tx O
*I *1045:X O *D sky130_fd_sc_hd__clkdlybuf4s25_1
*CAP
1 uart_tx 0.000987352
2 *1045:X 0.000987352
3 uart_tx *820:A 0
4 uart_tx *821:B 0.000123589
5 uart_tx *949:A 0.000370351
6 uart_tx *962:A 0.000317604
7 uart_tx *1001:A 0.000126439
8 uart_tx *1025:A 9.10717e-05
9 uart_tx *315:10 0.000145988
10 uart_tx *315:12 0.000272664
11 uart_tx *345:18 0.000280533
12 uart_tx *356:24 6.80298e-05
13 axi_wready uart_tx 8.23597e-06
14 *938:A uart_tx 0
15 *994:A uart_tx 0.000440924
*RES
1 *1045:X uart_tx 35.4292 
*END

*D_NET *170 0.000525078
*CONN
*I *896:D I *D sky130_fd_sc_hd__dfrtp_2
*I *786:Y O *D sky130_fd_sc_hd__inv_2
*CAP
1 *896:D 0.000109481
2 *786:Y 0.000109481
3 *896:D *252:10 0.000126416
4 *896:D *315:52 5.17614e-05
5 *14:13 *896:D 0.000127939
*RES
1 *786:Y *896:D 30.1893 
*END

*D_NET *171 0.000416827
*CONN
*I *906:D I *D sky130_fd_sc_hd__dfrtp_2
*I *842:Y O *D sky130_fd_sc_hd__nor2_2
*CAP
1 *906:D 0.000123954
2 *842:Y 0.000123954
3 *906:D *215:19 3.25247e-05
4 *906:D *253:10 0.000136395
*RES
1 *842:Y *906:D 30.2964 
*END

*D_NET *172 0.000330158
*CONN
*I *907:D I *D sky130_fd_sc_hd__dfrtp_2
*I *845:Y O *D sky130_fd_sc_hd__nor2_2
*CAP
1 *907:D 4.1573e-05
2 *845:Y 4.1573e-05
3 *907:D *845:B 6.13693e-05
4 *907:D *217:14 0.000185643
*RES
1 *845:Y *907:D 20.3679 
*END

*D_NET *173 0.000609662
*CONN
*I *908:D I *D sky130_fd_sc_hd__dfrtp_2
*I *846:X O *D sky130_fd_sc_hd__xor2_2
*CAP
1 *908:D 0.000126058
2 *846:X 0.000126058
3 *908:D *854:A2 0
4 *908:D *250:40 0.000198656
5 *908:D *256:20 0.000102396
6 *908:D *257:29 5.64954e-05
*RES
1 *846:X *908:D 30.9929 
*END

*D_NET *174 0.000563443
*CONN
*I *909:D I *D sky130_fd_sc_hd__dfrtp_2
*I *849:Y O *D sky130_fd_sc_hd__nor2_2
*CAP
1 *909:D 6.42443e-05
2 *849:Y 6.42443e-05
3 *909:D *935:CLK 5.33005e-05
4 *909:D *935:D 2.89016e-05
5 *909:D *217:42 0.000177234
6 *909:D *257:29 0.000175519
*RES
1 *849:Y *909:D 30.3857 
*END

*D_NET *175 0.000274109
*CONN
*I *910:D I *D sky130_fd_sc_hd__dfrtp_2
*I *851:X O *D sky130_fd_sc_hd__xor2_2
*CAP
1 *910:D 0.000128265
2 *851:X 0.000128265
3 *910:D *801:A 1.15281e-05
4 *910:D *848:B 0
5 *910:D *910:CLK 6.05161e-06
6 *910:D *934:D 0
*RES
1 *851:X *910:D 29.7786 
*END

*D_NET *176 0.00139552
*CONN
*I *911:D I *D sky130_fd_sc_hd__dfrtp_2
*I *854:X O *D sky130_fd_sc_hd__o21ba_2
*CAP
1 *911:D 0.000514943
2 *854:X 0.000514943
3 *911:D *799:B 2.38562e-05
4 *911:D *852:D 3.69047e-06
5 *911:D *911:RESET_B 0.000338089
*RES
1 *854:X *911:D 36.0286 
*END

*D_NET *177 0.000810876
*CONN
*I *912:D I *D sky130_fd_sc_hd__dfrtp_2
*I *856:X O *D sky130_fd_sc_hd__xor2_2
*CAP
1 *912:D 0.000323128
2 *856:X 0.000323128
3 *912:D *804:B 8.88893e-05
4 *912:D *912:CLK 7.57312e-05
*RES
1 *856:X *912:D 33.475 
*END

*D_NET *178 0.000501764
*CONN
*I *913:D I *D sky130_fd_sc_hd__dfrtp_2
*I *857:Y O *D sky130_fd_sc_hd__xnor2_2
*CAP
1 *913:D 0.00020292
2 *857:Y 0.00020292
3 *913:D *912:CLK 3.4846e-06
4 *913:D *259:22 9.24395e-05
*RES
1 *857:Y *913:D 31.6179 
*END

*D_NET *179 0.00166523
*CONN
*I *914:D I *D sky130_fd_sc_hd__dfrtp_2
*I *860:Y O *D sky130_fd_sc_hd__nor2_2
*CAP
1 *914:D 0.000511918
2 *860:Y 0.000511918
3 *914:D *803:A 0
4 *914:D *859:D 7.77652e-05
5 *914:D *860:A 4.34856e-05
6 *914:D *912:RESET_B 0.000137224
7 *914:D *259:16 0
8 *914:D *260:10 9.65075e-05
9 *914:D *365:327 0.000268536
10 *149:14 *914:D 1.78761e-05
*RES
1 *860:Y *914:D 38.4929 
*END

*D_NET *180 0.00280763
*CONN
*I *915:D I *D sky130_fd_sc_hd__dfrtp_2
*I *863:X O *D sky130_fd_sc_hd__o21ba_2
*CAP
1 *915:D 0.00106486
2 *863:X 0.00106486
3 *915:D *803:A 7.06451e-05
4 *915:D *804:B 0
5 *915:D *805:B 0
6 *915:D *863:A2 2.34372e-06
7 *915:D *863:B1_N 0.000270225
8 *915:D *913:RESET_B 8.94203e-05
9 *915:D *915:CLK 0.000134905
10 *915:D *915:RESET_B 0
11 *915:D *1013:A 0
12 *915:D *250:115 3.83239e-06
13 *915:D *259:16 0.000106539
*RES
1 *863:X *915:D 42.9571 
*END

*D_NET *181 0.00171232
*CONN
*I *897:D I *D sky130_fd_sc_hd__dfrtp_2
*I *821:X O *D sky130_fd_sc_hd__and2_2
*CAP
1 *897:D 0.000375744
2 *821:X 0.000375744
3 *897:D *789:A 5.01117e-05
4 *897:D *822:B 1.18589e-05
5 *897:D *897:RESET_B 7.0071e-05
6 *897:D *898:D 0.000406135
7 *897:D *924:D 1.08359e-05
8 *897:D *966:A 0.000125219
9 *897:D *249:10 3.34295e-05
10 *897:D *249:16 0.000150625
11 *897:D *347:18 0
12 axi_rdata[2] *897:D 0.000102545
*RES
1 *821:X *897:D 37.3321 
*END

*D_NET *182 0.00035651
*CONN
*I *916:D I *D sky130_fd_sc_hd__dfrtp_2
*I *864:X O *D sky130_fd_sc_hd__xor2_2
*CAP
1 *916:D 8.96383e-05
2 *864:X 8.96383e-05
3 *916:D *807:A 0.000177234
4 *916:D *1014:A 0
*RES
1 *864:X *916:D 29.85 
*END

*D_NET *183 0.00101512
*CONN
*I *917:D I *D sky130_fd_sc_hd__dfrtp_2
*I *867:Y O *D sky130_fd_sc_hd__a21oi_2
*CAP
1 *917:D 0.000279253
2 *867:Y 0.000279253
3 *917:D *867:B1 0.000102545
4 *917:D *917:RESET_B 5.43313e-05
5 *917:D *228:41 7.8327e-05
6 *917:D *228:73 8.16036e-05
7 *917:D *251:47 6.14499e-05
8 *83:16 *917:D 7.83587e-05
*RES
1 *867:Y *917:D 33.4616 
*END

*D_NET *184 0.00205213
*CONN
*I *918:D I *D sky130_fd_sc_hd__dfrtp_2
*I *870:Y O *D sky130_fd_sc_hd__nor2_2
*CAP
1 *918:D 0.000510335
2 *870:Y 0.000510335
3 *918:D *869:A 5.52238e-05
4 *918:D *869:C 6.71612e-05
5 *918:D *870:B 0.000124152
6 *918:D *872:A 4.10304e-05
7 *918:D *872:B 6.74408e-05
8 *918:D *872:C 2.89524e-05
9 *918:D *873:D 2.59355e-05
10 *918:D *918:CLK 0.000136958
11 *918:D *1006:A 0.000146677
12 *918:D *1040:A 0.000183726
13 *918:D *228:16 9.02133e-05
14 *918:D *232:8 6.39901e-05
*RES
1 *870:Y *918:D 41.1 
*END

*D_NET *185 0.00124653
*CONN
*I *919:D I *D sky130_fd_sc_hd__dfrtp_2
*I *876:X O *D sky130_fd_sc_hd__o21ba_2
*CAP
1 *919:D 0.000447689
2 *876:X 0.000447689
3 *919:D *870:A 0
4 *919:D *876:A1 0.000351156
5 *919:D *235:23 0
*RES
1 *876:X *919:D 34.1714 
*END

*D_NET *186 0.000554269
*CONN
*I *920:D I *D sky130_fd_sc_hd__dfrtp_2
*I *877:X O *D sky130_fd_sc_hd__xor2_2
*CAP
1 *920:D 0.000135999
2 *877:X 0.000135999
3 *920:D *810:B 0.000125717
4 *920:D *920:RESET_B 0.000156553
*RES
1 *877:X *920:D 30.6 
*END

*D_NET *187 0.000755704
*CONN
*I *921:D I *D sky130_fd_sc_hd__dfrtp_2
*I *880:Y O *D sky130_fd_sc_hd__nor2_2
*CAP
1 *921:D 0.00032644
2 *880:Y 0.00032644
3 *921:D *880:A 0
4 *921:D *918:RESET_B 0
5 *921:D *920:CLK 4.01768e-05
6 *921:D *920:RESET_B 0
7 *921:D *268:25 6.26466e-05
*RES
1 *880:Y *921:D 33.0286 
*END

*D_NET *188 0.000721745
*CONN
*I *922:D I *D sky130_fd_sc_hd__dfrtp_2
*I *882:X O *D sky130_fd_sc_hd__o21ba_2
*CAP
1 *922:D 0.000231802
2 *882:X 0.000231802
3 *922:D *882:A1 0.000225616
4 *922:D *922:CLK 3.25247e-05
5 *922:D *268:25 0
*RES
1 *882:X *922:D 31.1179 
*END

*D_NET *189 0.000535411
*CONN
*I *923:D I *D sky130_fd_sc_hd__dfrtp_2
*I *884:X O *D sky130_fd_sc_hd__o2bb2a_2
*CAP
1 *923:D 0.000174372
2 *884:X 0.000174372
3 *923:D *879:B 0.000140933
4 *923:D *923:CLK 4.57352e-05
5 *923:D *240:10 0
*RES
1 *884:X *923:D 30.6 
*END

*D_NET *190 0.00368899
*CONN
*I *924:D I *D sky130_fd_sc_hd__dfrtp_2
*I *887:Y O *D sky130_fd_sc_hd__nor2_2
*CAP
1 *924:D 0.000554508
2 *887:Y 0.000554508
3 *924:D *816:B 0.000139907
4 *924:D *822:B 0.000737301
5 *924:D *887:B 5.33005e-05
6 *924:D *924:CLK 7.32272e-05
7 *924:D *966:A 4.43256e-05
8 *924:D *249:10 0.000421827
9 *924:D *249:16 0.000204141
10 *924:D *249:49 0.000139954
11 *924:D *249:60 0.000183139
12 *924:D *249:95 0.000204885
13 *924:D *249:108 0.000115467
14 axi_rdata[3] *924:D 0.000251663
15 *897:D *924:D 1.08359e-05
*RES
1 *887:Y *924:D 46.5286 
*END

*D_NET *191 0.00106832
*CONN
*I *925:D I *D sky130_fd_sc_hd__dfrtp_2
*I *890:X O *D sky130_fd_sc_hd__o21ba_2
*CAP
1 *925:D 0.000393846
2 *890:X 0.000393846
3 *925:D *816:B 5.03772e-05
4 *925:D *891:A 0
5 *925:D *929:RESET_B 3.17123e-05
6 *925:D *249:64 8.86129e-06
7 *925:D *347:18 0.000189682
*RES
1 *890:X *925:D 32.8009 
*END

*D_NET *192 0.00253574
*CONN
*I *898:D I *D sky130_fd_sc_hd__dfrtp_2
*I *822:Y O *D sky130_fd_sc_hd__xnor2_2
*CAP
1 *898:D 0.000433003
2 *822:Y 0.000433003
3 *898:D *887:B 0.00073129
4 *898:D *892:A 0.000310516
5 *898:D *249:10 0.000101531
6 *898:D *347:18 5.74346e-05
7 axi_rdata[2] *898:D 6.28241e-05
8 *897:D *898:D 0.000406135
*RES
1 *822:Y *898:D 41.3321 
*END

*D_NET *193 0.00137675
*CONN
*I *926:D I *D sky130_fd_sc_hd__dfrtp_2
*I *892:X O *D sky130_fd_sc_hd__xor2_2
*CAP
1 *926:D 0.000207024
2 *892:X 0.000207024
3 *926:D *816:B 1.03483e-05
4 *926:D *887:B 0.000305176
5 *926:D *892:A 0.00032764
6 *926:D *926:CLK 9.75679e-05
7 *926:D *960:A 0.00022197
*RES
1 *892:X *926:D 34.1536 
*END

*D_NET *194 0.000383774
*CONN
*I *927:D I *D sky130_fd_sc_hd__dfrtp_2
*I *893:X O *D sky130_fd_sc_hd__xor2_2
*CAP
1 *927:D 0.000100552
2 *893:X 0.000100552
3 *927:D *927:RESET_B 5.52302e-05
4 *927:D *374:24 0.000127439
5 axi_rdata[29] *927:D 0
*RES
1 *893:X *927:D 29.7786 
*END

*D_NET *195 0.0032904
*CONN
*I *899:D I *D sky130_fd_sc_hd__dfrtp_2
*I *825:X O *D sky130_fd_sc_hd__and2b_2
*CAP
1 *899:D 0.000791547
2 *825:X 0.000791547
3 *899:D *825:A_N 0
4 *899:D *954:A 0
5 *899:D *1004:A 0
6 *899:D *237:14 0
7 *899:D *364:26 0.000512964
8 *983:A *899:D 4.46689e-05
9 *25:13 *899:D 0.00114967
*RES
1 *825:X *899:D 48.2071 
*END

*D_NET *196 0.00115714
*CONN
*I *900:D I *D sky130_fd_sc_hd__dfrtp_2
*I *827:X O *D sky130_fd_sc_hd__xor2_2
*CAP
1 *900:D 0.000502814
2 *827:X 0.000502814
3 *900:D *826:B 0
4 *900:D *900:CLK 7.94632e-05
5 *900:D *1031:A 6.24997e-05
6 *900:D *356:24 0
7 *159:18 *900:D 9.54798e-06
*RES
1 *827:X *900:D 36.8143 
*END

*D_NET *197 0.000629935
*CONN
*I *901:D I *D sky130_fd_sc_hd__dfrtp_2
*I *828:Y O *D sky130_fd_sc_hd__xnor2_2
*CAP
1 *901:D 0.000251761
2 *828:Y 0.000251761
3 *901:D *901:CLK 2.84109e-05
4 *901:D *278:44 9.80029e-05
*RES
1 *828:Y *901:D 32.0286 
*END

*D_NET *198 0.00123742
*CONN
*I *902:D I *D sky130_fd_sc_hd__dfrtp_2
*I *831:X O *D sky130_fd_sc_hd__and2b_2
*CAP
1 *902:D 0.000392659
2 *831:X 0.000392659
3 *902:D *793:B 2.0172e-05
4 *902:D *834:A1 0.000169233
5 *902:D *840:A 4.36989e-05
6 *902:D *248:8 4.82354e-05
7 *902:D *248:10 9.86355e-05
8 *902:D *248:74 2.50656e-05
9 *902:D *279:23 4.70626e-05
*RES
1 *831:X *902:D 35.8857 
*END

*D_NET *199 0.00295466
*CONN
*I *903:D I *D sky130_fd_sc_hd__dfrtp_2
*I *834:X O *D sky130_fd_sc_hd__o21a_2
*CAP
1 *903:D 0.000632361
2 *834:X 0.000632361
3 *903:D *792:A 0.000147706
4 *903:D *828:A 9.83388e-05
5 *903:D *832:D 3.3116e-05
6 *903:D *834:B1 1.52217e-05
7 *903:D *901:RESET_B 0.000125731
8 *903:D *965:A 0.000284823
9 *903:D *211:32 0.000264526
10 *903:D *215:10 8.83279e-05
11 *903:D *279:23 0.000451145
12 *903:D *281:20 0.000121929
13 *994:A *903:D 5.90674e-05
*RES
1 *834:X *903:D 42.7786 
*END

*D_NET *200 0.00026837
*CONN
*I *904:D I *D sky130_fd_sc_hd__dfrtp_2
*I *835:Y O *D sky130_fd_sc_hd__xnor2_2
*CAP
1 *904:D 9.51319e-05
2 *835:Y 9.51319e-05
3 *904:D *904:CLK 5.10039e-05
4 *904:D *282:8 2.71018e-05
*RES
1 *835:Y *904:D 20.3679 
*END

*D_NET *201 0.00143625
*CONN
*I *905:D I *D sky130_fd_sc_hd__dfrtp_2
*I *839:X O *D sky130_fd_sc_hd__o21a_2
*CAP
1 *905:D 0.000331672
2 *839:X 0.000331672
3 *905:D *839:A2 9.58689e-05
4 *905:D *839:B1 0.000190848
5 *905:D *842:B 8.8445e-05
6 *905:D *905:CLK 0.000177726
7 *905:D *213:18 5.49995e-05
8 *905:D *215:10 0.000134169
9 *905:D *253:14 3.08498e-05
*RES
1 *839:X *905:D 35.9929 
*END

*D_NET *202 0.000979332
*CONN
*I *895:D I *D sky130_fd_sc_hd__dfrtp_2
*I *894:X O *D sky130_fd_sc_hd__xor2_2
*CAP
1 *895:D 0.000262144
2 *894:X 0.000262144
3 *895:D *820:A 8.95645e-05
4 *895:D *897:RESET_B 1.92789e-05
5 *895:D *949:A 5.33005e-05
6 *895:D *364:6 0.000117404
7 *895:D *364:26 3.69047e-06
8 *895:D *378:12 0.000171807
*RES
1 *894:X *895:D 33.7964 
*END

*D_NET *203 0.00521883
*CONN
*I *822:B I *D sky130_fd_sc_hd__xnor2_2
*I *821:A I *D sky130_fd_sc_hd__and2_2
*I *819:Y O *D sky130_fd_sc_hd__nand2_2
*CAP
1 *822:B 0.000284193
2 *821:A 5.63561e-05
3 *819:Y 0.000841643
4 *203:18 0.00118219
5 *821:A *789:A 0.000122751
6 *821:A *966:A 7.11841e-05
7 *822:B *966:A 0.000172193
8 *203:18 *795:A 7.85863e-05
9 *203:18 *796:A 0.000146765
10 *203:18 *898:RESET_B 4.96254e-05
11 *203:18 *1034:A 3.14048e-05
12 *203:18 *274:10 0.000206219
13 *203:18 *274:40 8.9732e-05
14 axi_rdata[3] *821:A 0.00019933
15 axi_rdata[3] *822:B 0.00093749
16 *897:D *822:B 1.18589e-05
17 *924:D *822:B 0.000737301
*RES
1 *819:Y *203:18 37.7464 
2 *203:18 *821:A 16.3536 
3 *203:18 *822:B 26.0679 
*END

*D_NET *204 0.00308855
*CONN
*I *821:B I *D sky130_fd_sc_hd__and2_2
*I *820:X O *D sky130_fd_sc_hd__or2_2
*CAP
1 *821:B 0.0010972
2 *820:X 0.0010972
3 *821:B *789:A 0.000119135
4 *821:B *1015:A 0.000101056
5 *821:B *1025:A 0.000151071
6 *821:B *1026:A 2.44318e-05
7 *821:B *1036:A 2.77173e-05
8 *821:B *345:18 0.000117685
9 axi_rdata[29] *821:B 0.000229456
10 uart_tx *821:B 0.000123589
*RES
1 *820:X *821:B 46.1714 
*END

*D_NET *205 0.0117462
*CONN
*I *825:A_N I *D sky130_fd_sc_hd__and2b_2
*I *838:A2 I *D sky130_fd_sc_hd__a31o_2
*I *833:A I *D sky130_fd_sc_hd__nand2_2
*I *840:B I *D sky130_fd_sc_hd__and4_2
*I *829:D I *D sky130_fd_sc_hd__and4_2
*I *830:A3 I *D sky130_fd_sc_hd__a31o_2
*I *827:B I *D sky130_fd_sc_hd__xor2_2
*I *826:B I *D sky130_fd_sc_hd__nand2_2
*I *823:X O *D sky130_fd_sc_hd__and4_2
*CAP
1 *825:A_N 0.000150274
2 *838:A2 0.000418855
3 *833:A 0
4 *840:B 0
5 *829:D 0.000105557
6 *830:A3 0.000138354
7 *827:B 0
8 *826:B 0.000121016
9 *823:X 0.000201449
10 *205:88 0.000849698
11 *205:77 0.000390629
12 *205:30 0.000274441
13 *205:28 0.000665293
14 *205:24 0.00117285
15 *205:20 0.00104385
16 *205:14 0.000661581
17 *825:A_N *889:A 0.000172501
18 *825:A_N *206:16 4.66203e-05
19 *825:A_N *237:14 4.25809e-05
20 *825:A_N *247:15 0
21 *826:B *791:B 1.39841e-05
22 *826:B *900:CLK 1.03183e-05
23 *826:B *901:CLK 5.58875e-06
24 *826:B *278:31 0.000158569
25 *826:B *278:44 2.48938e-05
26 *826:B *356:24 4.5534e-05
27 *829:D *832:A 9.97684e-05
28 *829:D *279:29 0.000268585
29 *830:A3 *797:B 3.37618e-05
30 *830:A3 *830:A1 2.30861e-05
31 *830:A3 *830:A2 5.32071e-05
32 *830:A3 *831:B 1.84865e-05
33 *830:A3 *278:44 3.29297e-05
34 *838:A2 *889:A 0.000537029
35 *838:A2 *954:A 1.33343e-05
36 *838:A2 *283:33 1.54142e-05
37 *205:14 *796:A 0.000216302
38 *205:14 *896:CLK 9.29164e-05
39 *205:14 *1035:A 0.000168496
40 *205:14 *206:16 0.000175274
41 *205:20 *796:A 9.41642e-05
42 *205:20 *840:D 0.000243193
43 *205:20 *215:10 0.000180202
44 *205:24 *832:D 2.56811e-05
45 *205:24 *840:A 0.00048098
46 *205:24 *210:10 9.14454e-05
47 *205:24 *215:10 1.63801e-05
48 *205:24 *279:27 1.8226e-05
49 *205:28 *832:A 0.000300743
50 *205:28 *278:44 5.49544e-05
51 *205:28 *278:51 4.33908e-05
52 *205:30 *278:44 0.000321378
53 *205:77 *796:A 0.000179024
54 *205:77 *206:16 3.61589e-06
55 *205:88 *796:A 0.000325122
56 *205:88 *817:B 6.76337e-05
57 *205:88 *889:A 1.08359e-05
58 *205:88 *206:16 4.038e-06
59 *205:88 *283:31 0.000265255
60 axi_rdata[6] *205:20 8.54258e-05
61 *899:D *825:A_N 0
62 *900:D *826:B 0
63 *986:A *826:B 5.71472e-05
64 *14:13 *825:A_N 3.6322e-05
65 *14:13 *205:77 7.47942e-05
66 *14:13 *205:88 0.000303215
*RES
1 *823:X *205:14 24.2464 
2 *205:14 *205:20 7.66071 
3 *205:20 *205:24 9.78571 
4 *205:24 *205:28 9.55357 
5 *205:28 *205:30 4.07143 
6 *205:30 *826:B 17.1929 
7 *205:30 *827:B 4.5 
8 *205:28 *830:A3 17.1929 
9 *205:24 *829:D 12.925 
10 *205:20 *840:B 9.3 
11 *205:14 *205:77 7.39286 
12 *205:77 *833:A 13.8 
13 *205:77 *205:88 9.00893 
14 *205:88 *838:A2 19.5411 
15 *205:88 *825:A_N 17.7196 
*END

*D_NET *206 0.00416948
*CONN
*I *825:B I *D sky130_fd_sc_hd__and2b_2
*I *824:X O *D sky130_fd_sc_hd__a31o_2
*CAP
1 *825:B 0
2 *824:X 0.000970484
3 *206:16 0.000970484
4 *206:16 *795:A 0.0001399
5 *206:16 *796:A 0.000371524
6 *206:16 *889:A 0.000215448
7 *206:16 *904:CLK 0.000168919
8 *206:16 *247:15 0.000443262
9 *206:16 *283:31 9.74588e-05
10 *206:16 *315:52 0.000562451
11 *825:A_N *206:16 4.66203e-05
12 *205:14 *206:16 0.000175274
13 *205:77 *206:16 3.61589e-06
14 *205:88 *206:16 4.038e-06
*RES
1 *824:X *206:16 42.2821 
2 *206:16 *825:B 9.3 
*END

*D_NET *207 0.000943093
*CONN
*I *828:B I *D sky130_fd_sc_hd__xnor2_2
*I *826:Y O *D sky130_fd_sc_hd__nand2_2
*CAP
1 *828:B 0.000300156
2 *826:Y 0.000300156
3 *828:B *791:B 5.15925e-05
4 *828:B *792:B 0
5 *828:B *828:A 5.80706e-06
6 *828:B *901:CLK 0
7 *828:B *248:14 0
8 *828:B *248:20 0.000141729
9 *828:B *278:44 0
10 *828:B *280:16 0
11 *986:A *828:B 0.000143652
*RES
1 *826:Y *828:B 33.6357 
*END

*D_NET *208 0.000920084
*CONN
*I *834:A2 I *D sky130_fd_sc_hd__o21a_2
*I *831:A_N I *D sky130_fd_sc_hd__and2b_2
*I *829:X O *D sky130_fd_sc_hd__and4_2
*CAP
1 *834:A2 0.000131513
2 *831:A_N 3.83244e-05
3 *829:X 0.000120839
4 *208:8 0.000290677
5 *831:A_N *831:B 9.83388e-05
6 *834:A2 *828:A 7.26481e-05
7 *834:A2 *834:A1 2.85321e-05
8 *208:8 *828:A 0.00010911
9 *208:8 *830:B1 3.0102e-05
*RES
1 *829:X *208:8 16.6571 
2 *208:8 *831:A_N 14.7464 
3 *208:8 *834:A2 16.2821 
*END

*D_NET *209 0.000666236
*CONN
*I *831:B I *D sky130_fd_sc_hd__and2b_2
*I *830:X O *D sky130_fd_sc_hd__a31o_2
*CAP
1 *831:B 0.000274706
2 *830:X 0.000274706
3 *830:A3 *831:B 1.84865e-05
4 *831:A_N *831:B 9.83388e-05
*RES
1 *830:X *831:B 22.8321 
*END

*D_NET *210 0.00533878
*CONN
*I *840:C I *D sky130_fd_sc_hd__and4_2
*I *833:B I *D sky130_fd_sc_hd__nand2_2
*I *838:A3 I *D sky130_fd_sc_hd__a31o_2
*I *832:X O *D sky130_fd_sc_hd__and4_2
*CAP
1 *840:C 4.02422e-05
2 *833:B 0.000264984
3 *838:A3 0.000189987
4 *832:X 0.00041773
5 *210:18 0.000714561
6 *210:10 0.000717562
7 *833:B *796:B 2.12733e-05
8 *833:B *835:B 0.000380709
9 *833:B *840:D 0.000171217
10 *833:B *247:17 7.1959e-05
11 *833:B *247:31 4.50518e-05
12 *833:B *282:8 5.74499e-06
13 *833:B *282:10 4.51148e-05
14 *833:B *282:16 3.11088e-05
15 *838:A3 *889:A 5.33005e-05
16 *838:A3 *892:B 5.33005e-05
17 *838:A3 *282:16 0.000389447
18 *838:A3 *365:177 0.000247096
19 *840:C *215:10 4.17702e-05
20 *210:10 *832:D 0.00034043
21 *210:10 *840:A 0.00018544
22 *210:10 *215:10 0.000354078
23 *210:18 *792:B 0.000266508
24 *210:18 *211:26 7.62323e-05
25 *988:A *210:18 0.00012249
26 *205:24 *210:10 9.14454e-05
*RES
1 *832:X *210:10 17.5679 
2 *210:10 *210:18 14.9464 
3 *210:18 *838:A3 24.425 
4 *210:18 *833:B 25.3179 
5 *210:10 *840:C 9.83571 
*END

*D_NET *211 0.00431872
*CONN
*I *841:A1 I *D sky130_fd_sc_hd__o21ba_2
*I *839:A1 I *D sky130_fd_sc_hd__o21a_2
*I *834:B1 I *D sky130_fd_sc_hd__o21a_2
*I *835:B I *D sky130_fd_sc_hd__xnor2_2
*I *833:Y O *D sky130_fd_sc_hd__nand2_2
*CAP
1 *841:A1 0.000129858
2 *839:A1 0.000209857
3 *834:B1 4.05604e-05
4 *835:B 0.000471846
5 *833:Y 0.00029405
6 *211:32 0.000555684
7 *211:26 0.00061292
8 *834:B1 *828:A 0.000185118
9 *834:B1 *834:A1 0.000225982
10 *835:B *796:B 0.000143478
11 *835:B *840:D 3.63219e-05
12 *835:B *247:15 8.92059e-05
13 *835:B *247:31 5.52644e-05
14 *835:B *282:8 4.97967e-05
15 *839:A1 *834:A1 8.67814e-06
16 *839:A1 *839:A2 5.33005e-05
17 *839:A1 *944:A 2.77355e-05
18 *839:A1 *248:74 0.000145484
19 *839:A1 *248:108 7.6997e-05
20 *839:A1 *253:14 0
21 *841:A1 *213:18 9.15842e-06
22 *841:A1 *215:10 4.68325e-05
23 *211:32 *797:A 1.21258e-05
24 *211:32 *834:A1 6.89649e-05
25 *833:B *835:B 0.000380709
26 *903:D *834:B1 1.52217e-05
27 *903:D *211:32 0.000264526
28 *987:A *841:A1 4.27842e-06
29 *987:A *211:32 2.85321e-05
30 *210:18 *211:26 7.62323e-05
*RES
1 *833:Y *835:B 35.1179 
2 *835:B *211:26 12.7107 
3 *211:26 *211:32 6.21429 
4 *211:32 *834:B1 11.4786 
5 *211:32 *839:A1 22.5321 
6 *211:26 *841:A1 20.55 
*END

*D_NET *212 0.00319138
*CONN
*I *840:D I *D sky130_fd_sc_hd__and4_2
*I *836:X O *D sky130_fd_sc_hd__and2_2
*CAP
1 *840:D 0.00075865
2 *836:X 0.00075865
3 *840:D *789:B 0.000137259
4 *840:D *795:A 0.000331154
5 *840:D *796:B 7.58841e-05
6 *840:D *889:B 0.000188967
7 *840:D *215:10 9.67754e-05
8 *840:D *241:43 0.000224329
9 *840:D *247:15 0
10 *840:D *282:16 0
11 *840:D *283:46 0.000168983
12 *833:B *840:D 0.000171217
13 *835:B *840:D 3.63219e-05
14 *205:20 *840:D 0.000243193
*RES
1 *836:X *840:D 44.4929 
*END

*D_NET *213 0.00285503
*CONN
*I *841:A2 I *D sky130_fd_sc_hd__o21ba_2
*I *839:A2 I *D sky130_fd_sc_hd__o21a_2
*I *837:Y O *D sky130_fd_sc_hd__nand2_2
*CAP
1 *841:A2 0
2 *839:A2 0.000126093
3 *837:Y 0.000634757
4 *213:18 0.000760851
5 *839:A2 *839:B1 0.000104737
6 *839:A2 *841:B1_N 5.23822e-05
7 *839:A2 *905:CLK 0.000456589
8 *839:A2 *944:A 1.24368e-05
9 *213:18 *798:B 0
10 *213:18 *839:B1 9.91086e-05
11 *213:18 *889:C 8.08899e-05
12 *213:18 *905:CLK 2.38501e-05
13 *213:18 *215:10 2.10944e-05
14 *213:18 *215:19 0
15 *213:18 *365:177 0.000106036
16 *213:18 *365:181 8.75486e-05
17 *213:18 *365:193 5.03772e-05
18 *213:18 *365:213 2.49484e-05
19 *839:A1 *839:A2 5.33005e-05
20 *841:A1 *213:18 9.15842e-06
21 *905:D *839:A2 9.58689e-05
22 *905:D *213:18 5.49995e-05
*RES
1 *837:Y *213:18 30.7286 
2 *213:18 *839:A2 13.9429 
3 *213:18 *841:A2 9.3 
*END

*D_NET *214 0.00191219
*CONN
*I *839:B1 I *D sky130_fd_sc_hd__o21a_2
*I *838:X O *D sky130_fd_sc_hd__a31o_2
*CAP
1 *839:B1 0.000613132
2 *838:X 0.000613132
3 *839:B1 *841:B1_N 9.90431e-05
4 *839:B1 *889:B 9.60939e-05
5 *839:B1 *892:B 9.60939e-05
6 *839:B1 *215:10 0
7 *839:A2 *839:B1 0.000104737
8 *905:D *839:B1 0.000190848
9 *213:18 *839:B1 9.91086e-05
*RES
1 *838:X *839:B1 37.4393 
*END

*D_NET *215 0.0083708
*CONN
*I *853:B I *D sky130_fd_sc_hd__and3_2
*I *843:B I *D sky130_fd_sc_hd__and2_2
*I *844:B I *D sky130_fd_sc_hd__nor2_2
*I *862:B I *D sky130_fd_sc_hd__and4_2
*I *873:B I *D sky130_fd_sc_hd__and4_2
*I *875:B I *D sky130_fd_sc_hd__and4_2
*I *842:A I *D sky130_fd_sc_hd__nor2_2
*I *840:X O *D sky130_fd_sc_hd__and4_2
*CAP
1 *853:B 0.000224827
2 *843:B 0
3 *844:B 2.455e-05
4 *862:B 0
5 *873:B 0.000158466
6 *875:B 0
7 *842:A 0
8 *840:X 0.000516185
9 *215:57 4.4894e-05
10 *215:35 0.00054011
11 *215:27 0.000598938
12 *215:23 0.000282097
13 *215:19 0.000814401
14 *215:10 0.00102061
15 *844:B *228:16 0.000185643
16 *844:B *254:71 9.90431e-05
17 *853:B *798:B 7.80714e-06
18 *853:B *853:A 2.51343e-06
19 *853:B *853:C 0.000134667
20 *853:B *931:D 4.45768e-06
21 *853:B *222:10 2.58997e-05
22 *853:B *254:25 7.36794e-05
23 *853:B *254:36 7.41292e-05
24 *873:B *870:A 4.88515e-05
25 *873:B *873:C 0.000129944
26 *873:B *875:C 2.14658e-05
27 *873:B *875:D 2.49484e-05
28 *873:B *946:A 0.000101545
29 *873:B *222:39 7.43578e-06
30 *873:B *228:16 2.16719e-05
31 *215:10 *832:D 5.54817e-06
32 *215:10 *840:A 9.80835e-05
33 *215:10 *842:B 0.000103032
34 *215:19 *798:B 0.000344859
35 *215:19 *217:14 0.000106542
36 *215:19 *222:10 0.000387432
37 *215:19 *253:10 0
38 *215:19 *255:14 0
39 *215:23 *862:C 4.59075e-05
40 *215:23 *217:14 1.58163e-05
41 *215:23 *254:25 0.00014183
42 *215:27 *862:C 0.000300998
43 *215:27 *228:16 1.69961e-05
44 *215:27 *254:25 3.1889e-05
45 *215:35 *875:A 2.95726e-05
46 *215:35 *946:A 0
47 *215:35 *222:39 2.44318e-05
48 *215:35 *228:16 2.25554e-05
49 *215:35 *254:71 0.000131139
50 *215:57 *862:C 0
51 *215:57 *254:71 5.7661e-06
52 *839:B1 *215:10 0
53 *840:C *215:10 4.17702e-05
54 *840:D *215:10 9.67754e-05
55 *841:A1 *215:10 4.68325e-05
56 *903:D *215:10 8.83279e-05
57 *905:D *215:10 0.000134169
58 *906:D *215:19 3.25247e-05
59 *987:A *215:10 0.000357459
60 *205:20 *215:10 0.000180202
61 *205:24 *215:10 1.63801e-05
62 *210:10 *215:10 0.000354078
63 *213:18 *215:10 2.10944e-05
64 *213:18 *215:19 0
*RES
1 *840:X *215:10 28.3893 
2 *215:10 *842:A 13.8 
3 *215:10 *215:19 14.6964 
4 *215:19 *215:23 6.67857 
5 *215:23 *215:27 4.66071 
6 *215:27 *215:35 6.125 
7 *215:35 *875:B 9.3 
8 *215:35 *873:B 22.1393 
9 *215:27 *215:57 0.428571 
10 *215:57 *862:B 9.3 
11 *215:57 *844:B 11.0679 
12 *215:23 *843:B 9.3 
13 *215:19 *853:B 18.8179 
*END

*D_NET *216 0.000528436
*CONN
*I *842:B I *D sky130_fd_sc_hd__nor2_2
*I *841:X O *D sky130_fd_sc_hd__o21ba_2
*CAP
1 *842:B 0.000120591
2 *841:X 0.000120591
3 *842:B *253:10 1.41706e-05
4 *842:B *253:12 5.26091e-05
5 *842:B *253:14 2.89965e-05
6 *905:D *842:B 8.8445e-05
7 *215:10 *842:B 0.000103032
*RES
1 *841:X *842:B 31.0643 
*END

*D_NET *217 0.00851429
*CONN
*I *845:A I *D sky130_fd_sc_hd__nor2_2
*I *848:C I *D sky130_fd_sc_hd__and3_2
*I *847:A2 I *D sky130_fd_sc_hd__a21oi_2
*I *846:B I *D sky130_fd_sc_hd__xor2_2
*I *850:D I *D sky130_fd_sc_hd__and4_2
*I *843:X O *D sky130_fd_sc_hd__and2_2
*CAP
1 *845:A 3.82418e-05
2 *848:C 0.000507527
3 *847:A2 0
4 *846:B 0
5 *850:D 0.000304383
6 *843:X 0.000482953
7 *217:42 0.000710442
8 *217:20 0.000347374
9 *217:18 0.000869508
10 *217:14 0.0011448
11 *845:A *845:B 0
12 *848:C *847:B1 6.27987e-05
13 *848:C *848:A 0.000711197
14 *848:C *848:B 9.55545e-05
15 *848:C *849:B 0.000342488
16 *848:C *957:A 1.08359e-05
17 *848:C *220:12 2.47724e-05
18 *848:C *255:80 8.36572e-05
19 *850:D *852:C 5.68713e-05
20 *850:D *1007:A 7.83587e-05
21 *850:D *255:50 5.71472e-05
22 *850:D *256:20 0.000148189
23 *850:D *256:28 1.69961e-05
24 *850:D *257:29 0.000262882
25 *217:14 *798:B 0.000198691
26 *217:14 *845:B 3.65132e-05
27 *217:18 *935:D 0.000398303
28 *217:18 *953:A 0.000119431
29 *217:20 *256:20 0.000116829
30 *217:20 *257:29 6.74815e-05
31 *217:42 *847:B1 2.59355e-05
32 *217:42 *910:CLK 0
33 *217:42 *255:80 0.000131669
34 *217:42 *256:20 0.000309284
35 *217:42 *256:68 0.000146474
36 *217:42 *257:29 6.9019e-05
37 *907:D *217:14 0.000185643
38 *909:D *217:42 0.000177234
39 *989:A *850:D 5.24523e-05
40 *215:19 *217:14 0.000106542
41 *215:23 *217:14 1.58163e-05
*RES
1 *843:X *217:14 26.0321 
2 *217:14 *217:18 12.4286 
3 *217:18 *217:20 1.64286 
4 *217:20 *850:D 20.3536 
5 *217:20 *846:B 4.5 
6 *217:18 *217:42 11.3393 
7 *217:42 *847:A2 9.3 
8 *217:42 *848:C 31.3 
9 *217:14 *845:A 10.0321 
*END

*D_NET *218 0.00230336
*CONN
*I *845:B I *D sky130_fd_sc_hd__nor2_2
*I *844:Y O *D sky130_fd_sc_hd__nor2_2
*CAP
1 *845:B 0.000921926
2 *844:Y 0.000921926
3 *845:B *873:A 5.80706e-06
4 *845:B *247:45 3.2534e-05
5 *845:B *254:12 0.000219828
6 *845:B *254:58 0.000103455
7 *845:A *845:B 0
8 *907:D *845:B 6.13693e-05
9 *217:14 *845:B 3.65132e-05
*RES
1 *844:Y *845:B 40.4929 
*END

*D_NET *219 0.000989884
*CONN
*I *849:A I *D sky130_fd_sc_hd__nor2_2
*I *847:Y O *D sky130_fd_sc_hd__a21oi_2
*CAP
1 *849:A 0.000112213
2 *847:Y 0.000112213
3 *849:A *849:B 0.000344217
4 *849:A *935:CLK 2.59355e-05
5 *849:A *935:D 5.52238e-05
6 *849:A *250:32 0.000116481
7 *849:A *250:34 0.000166983
8 *849:A *250:40 5.66157e-05
*RES
1 *847:Y *849:A 32.5107 
*END

*D_NET *220 0.0030191
*CONN
*I *849:B I *D sky130_fd_sc_hd__nor2_2
*I *851:B I *D sky130_fd_sc_hd__xor2_2
*I *848:X O *D sky130_fd_sc_hd__and3_2
*CAP
1 *849:B 0.000339953
2 *851:B 4.291e-05
3 *848:X 0.000199032
4 *220:12 0.000581895
5 *849:B *848:A 1.18064e-05
6 *849:B *957:A 0.000304215
7 *849:B *250:32 1.17968e-05
8 *849:B *257:29 0.000524656
9 *849:B *373:8 8.86413e-05
10 *851:B *373:8 4.96155e-05
11 *220:12 *848:A 3.69047e-06
12 *220:12 *848:B 0.000149415
13 *220:12 *934:D 0
14 *848:C *849:B 0.000342488
15 *848:C *220:12 2.47724e-05
16 *849:A *849:B 0.000344217
*RES
1 *848:X *220:12 22.3179 
2 *220:12 *851:B 0.883929 
3 *220:12 *849:B 30.3179 
*END

*D_NET *221 0.00137208
*CONN
*I *854:A2 I *D sky130_fd_sc_hd__o21ba_2
*I *850:X O *D sky130_fd_sc_hd__and4_2
*CAP
1 *854:A2 0.000363094
2 *850:X 0.000363094
3 *854:A2 *852:C 0.000187042
4 *854:A2 *852:D 0.000368203
5 *854:A2 *854:B1_N 4.46186e-06
6 *854:A2 *250:40 0
7 *854:A2 *256:20 0
8 *854:A2 *258:18 3.12359e-05
9 *854:A2 *258:20 5.49489e-05
10 *908:D *854:A2 0
*RES
1 *850:X *854:A2 34.6893 
*END

*D_NET *222 0.00601524
*CONN
*I *875:C I *D sky130_fd_sc_hd__and4_2
*I *873:C I *D sky130_fd_sc_hd__and4_2
*I *853:C I *D sky130_fd_sc_hd__and3_2
*I *862:C I *D sky130_fd_sc_hd__and4_2
*I *852:X O *D sky130_fd_sc_hd__and4_2
*CAP
1 *875:C 4.23161e-05
2 *873:C 7.69341e-05
3 *853:C 0.000182943
4 *862:C 0.000728423
5 *852:X 0.00074614
6 *222:39 0.000443897
7 *222:10 0.00133286
8 *853:C *250:150 0.00018687
9 *853:C *254:36 0
10 *862:C *862:D 4.72818e-05
11 *862:C *228:16 0.000142856
12 *862:C *254:25 0.000203489
13 *873:C *228:16 7.6644e-05
14 *222:10 *907:CLK 0.000103032
15 *222:10 *911:CLK 2.26973e-05
16 *222:10 *911:RESET_B 0
17 *222:10 *250:150 4.75911e-05
18 *222:10 *255:14 7.82431e-05
19 *222:10 *365:193 3.11905e-05
20 *222:39 *228:16 0.000443654
21 *853:B *853:C 0.000134667
22 *853:B *222:10 2.58997e-05
23 *873:B *873:C 0.000129944
24 *873:B *875:C 2.14658e-05
25 *873:B *222:39 7.43578e-06
26 *149:14 *853:C 0
27 *149:14 *222:10 0
28 *215:19 *222:10 0.000387432
29 *215:23 *862:C 4.59075e-05
30 *215:27 *862:C 0.000300998
31 *215:35 *222:39 2.44318e-05
32 *215:57 *862:C 0
*RES
1 *852:X *222:10 28.2821 
2 *222:10 *862:C 21.3536 
3 *222:10 *853:C 18.4786 
4 *862:C *222:39 13.9429 
5 *222:39 *873:C 19.8714 
6 *222:39 *875:C 9.83571 
*END

*D_NET *223 0.00714366
*CONN
*I *859:D I *D sky130_fd_sc_hd__and4_2
*I *858:A3 I *D sky130_fd_sc_hd__a31oi_2
*I *855:B I *D sky130_fd_sc_hd__nand2_2
*I *856:B I *D sky130_fd_sc_hd__xor2_2
*I *854:B1_N I *D sky130_fd_sc_hd__o21ba_2
*I *853:X O *D sky130_fd_sc_hd__and3_2
*CAP
1 *859:D 0.00065565
2 *858:A3 0
3 *855:B 0
4 *856:B 0.000452062
5 *854:B1_N 0.000623608
6 *853:X 0.000231741
7 *223:29 0.000601644
8 *223:25 0.000149582
9 *223:23 0.00087162
10 *223:6 0.00107132
11 *854:B1_N *910:RESET_B 0.000159677
12 *854:B1_N *258:14 6.23031e-05
13 *854:B1_N *258:18 4.84872e-05
14 *856:B *848:A 1.76039e-05
15 *856:B *912:CLK 1.08345e-05
16 *859:D *857:A 0.000361099
17 *859:D *859:B 0.000309661
18 *859:D *859:C 1.74352e-05
19 *859:D *226:10 0.000428027
20 *859:D *250:100 0.000220824
21 *859:D *250:109 1.66666e-05
22 *859:D *260:34 6.28241e-05
23 *223:23 *910:RESET_B 0
24 *223:23 *250:89 0.000271797
25 *223:23 *250:100 0.000164292
26 *223:29 *857:B 2.41649e-05
27 *223:29 *259:33 0.000228508
28 *854:A2 *854:B1_N 4.46186e-06
29 *914:D *859:D 7.77652e-05
*RES
1 *853:X *223:6 11.8893 
2 *223:6 *854:B1_N 29.4071 
3 *223:6 *223:23 10.0893 
4 *223:23 *223:25 4.5 
5 *223:25 *223:29 3.42857 
6 *223:29 *856:B 16.8214 
7 *223:29 *855:B 9.3 
8 *223:25 *858:A3 9.3 
9 *223:23 *859:D 30.925 
*END

*D_NET *224 0.000567094
*CONN
*I *857:B I *D sky130_fd_sc_hd__xnor2_2
*I *855:Y O *D sky130_fd_sc_hd__nand2_2
*CAP
1 *857:B 0.000145765
2 *855:Y 0.000145765
3 *857:B *259:22 0.000153054
4 *857:B *259:33 9.83442e-05
5 *223:29 *857:B 2.41649e-05
*RES
1 *855:Y *857:B 30.9036 
*END

*D_NET *225 0.00194214
*CONN
*I *860:A I *D sky130_fd_sc_hd__nor2_2
*I *858:Y O *D sky130_fd_sc_hd__a31oi_2
*CAP
1 *860:A 0.000448679
2 *858:Y 0.000448679
3 *860:A *803:A 0
4 *860:A *857:A 0.000184495
5 *860:A *858:A2 3.18676e-05
6 *860:A *860:B 0
7 *860:A *914:RESET_B 3.34783e-05
8 *860:A *226:10 0
9 *860:A *260:10 0.000408189
10 *860:A *260:34 0.000222878
11 *860:A *365:327 9.97744e-05
12 axi_rdata[11] *860:A 0
13 *914:D *860:A 4.34856e-05
14 *1000:A *860:A 2.06178e-05
15 *149:14 *860:A 0
*RES
1 *858:Y *860:A 39.4929 
*END

*D_NET *226 0.00476811
*CONN
*I *860:B I *D sky130_fd_sc_hd__nor2_2
*I *863:A2 I *D sky130_fd_sc_hd__o21ba_2
*I *859:X O *D sky130_fd_sc_hd__and4_2
*CAP
1 *860:B 0.000339466
2 *863:A2 0.000868653
3 *859:X 0.000561589
4 *226:10 0.00176971
5 *860:B *806:B 5.52238e-05
6 *863:A2 *804:B 9.54798e-06
7 *226:10 *805:A 4.38128e-05
8 *226:10 *857:A 0
9 *226:10 *861:C 9.60939e-05
10 *226:10 *915:RESET_B 0.000227736
11 *226:10 *1012:A 2.89114e-05
12 *226:10 *260:34 0
13 axi_rdata[11] *860:B 4.0127e-05
14 axi_rdata[11] *226:10 0.000120436
15 *859:D *226:10 0.000428027
16 *860:A *860:B 0
17 *860:A *226:10 0
18 *915:D *863:A2 2.34372e-06
19 *968:A *863:A2 0
20 *1000:A *863:A2 0.000176439
21 *149:14 *863:A2 0
*RES
1 *859:X *226:10 26.1125 
2 *226:10 *863:A2 22.4572 
3 *226:10 *860:B 19.4339 
*END

*D_NET *227 0.00406768
*CONN
*I *874:C I *D sky130_fd_sc_hd__and4_2
*I *872:B I *D sky130_fd_sc_hd__and3_2
*I *862:D I *D sky130_fd_sc_hd__and4_2
*I *861:X O *D sky130_fd_sc_hd__and4_2
*CAP
1 *874:C 0.000141575
2 *872:B 0.000174073
3 *862:D 0.000517636
4 *861:X 0
5 *227:19 0.000729519
6 *227:4 0.000931507
7 *862:D *798:B 0
8 *862:D *914:RESET_B 0
9 *862:D *931:D 0
10 *862:D *931:RESET_B 0.000270989
11 *862:D *1006:A 0
12 *862:D *228:16 9.90431e-05
13 *862:D *254:36 0
14 *872:B *869:A 7.6644e-05
15 *872:B *1040:A 3.69697e-05
16 *872:B *228:16 9.60875e-05
17 *874:C *869:A 0.000358977
18 *874:C *228:30 2.37575e-05
19 *874:C *228:41 4.38128e-05
20 *874:C *230:27 1.74352e-05
21 *874:C *230:33 0.000116749
22 *227:19 *859:A 0.000142856
23 *227:19 *861:D 7.48301e-06
24 *227:19 *1006:A 6.4443e-05
25 *227:19 *228:30 0.000103403
26 *862:C *862:D 4.72818e-05
27 *918:D *872:B 6.74408e-05
*RES
1 *861:X *227:4 9.3 
2 *227:4 *862:D 28.3893 
3 *227:4 *227:19 5.46429 
4 *227:19 *872:B 21.1036 
5 *227:19 *874:C 14.2821 
*END

*D_NET *228 0.0102864
*CONN
*I *869:B I *D sky130_fd_sc_hd__and3_2
*I *864:B I *D sky130_fd_sc_hd__xor2_2
*I *863:B1_N I *D sky130_fd_sc_hd__o21ba_2
*I *865:A2 I *D sky130_fd_sc_hd__a21oi_2
*I *868:A1 I *D sky130_fd_sc_hd__a21oi_2
*I *867:A1 I *D sky130_fd_sc_hd__a21oi_2
*I *862:X O *D sky130_fd_sc_hd__and4_2
*CAP
1 *869:B 0
2 *864:B 2.98286e-05
3 *863:B1_N 0.00128384
4 *865:A2 0
5 *868:A1 0.000269887
6 *867:A1 0
7 *862:X 0.000484377
8 *228:73 0.00152338
9 *228:45 0.000442268
10 *228:41 0.000468437
11 *228:30 0.000356987
12 *228:16 0.000755019
13 *863:B1_N *804:A 0.00013073
14 *863:B1_N *804:B 0.000159909
15 *863:B1_N *805:B 8.25843e-06
16 *863:B1_N *863:A1 8.75059e-06
17 *863:B1_N *947:A 1.21258e-05
18 *863:B1_N *1012:A 0.000403241
19 *863:B1_N *1013:A 5.74514e-05
20 *868:A1 *809:A 0
21 *868:A1 *867:B1 9.90367e-05
22 *868:A1 *872:A 3.0285e-05
23 *868:A1 *874:B 5.80706e-06
24 *868:A1 *230:18 6.24629e-05
25 *868:A1 *230:27 5.89159e-05
26 *228:16 *869:A 7.90803e-05
27 *228:16 *870:B 0
28 *228:16 *873:D 0.000340073
29 *228:16 *875:A 9.80173e-05
30 *228:16 *946:A 4.98055e-06
31 *228:16 *1040:A 1.24368e-05
32 *228:16 *232:8 0
33 *228:16 *247:45 6.7152e-05
34 *228:16 *247:73 9.32123e-05
35 *228:16 *251:36 2.60251e-05
36 *228:16 *251:47 7.79781e-06
37 *228:16 *254:71 4.14279e-05
38 *228:30 *861:D 4.41726e-05
39 *228:30 *867:A2 5.33005e-05
40 *228:30 *869:C 6.19181e-05
41 *228:30 *1006:A 5.52302e-05
42 *228:30 *1040:A 6.71657e-05
43 *228:30 *230:33 2.44318e-05
44 *228:41 *861:D 7.8327e-05
45 *228:41 *867:B1 7.80714e-06
46 *228:41 *1040:A 6.8646e-06
47 *228:41 *230:33 2.89016e-05
48 *228:45 *867:B1 0.000114655
49 *228:73 *861:D 0.000106299
50 *228:73 *950:A 8.39e-05
51 *228:73 *1040:A 1.00375e-05
52 *228:73 *262:19 0.000133797
53 *844:B *228:16 0.000185643
54 *862:C *228:16 0.000142856
55 *862:D *228:16 9.90431e-05
56 *872:B *228:16 9.60875e-05
57 *873:B *228:16 2.16719e-05
58 *873:C *228:16 7.6644e-05
59 *874:C *228:30 2.37575e-05
60 *874:C *228:41 4.38128e-05
61 *915:D *863:B1_N 0.000270225
62 *917:D *228:41 7.8327e-05
63 *917:D *228:73 8.16036e-05
64 *918:D *228:16 9.02133e-05
65 *83:16 *228:45 1.92789e-05
66 *83:16 *228:73 0.000172637
67 *215:27 *228:16 1.69961e-05
68 *215:35 *228:16 2.25554e-05
69 *222:39 *228:16 0.000443654
70 *227:19 *228:30 0.000103403
*RES
1 *862:X *228:16 33.3714 
2 *228:16 *228:30 14.7321 
3 *228:30 *867:A1 9.3 
4 *228:30 *228:41 7.28571 
5 *228:41 *228:45 7.91071 
6 *228:45 *868:A1 23.5143 
7 *228:45 *865:A2 9.3 
8 *228:41 *228:73 12.2143 
9 *228:73 *863:B1_N 28.3893 
10 *228:73 *864:B 0.473214 
11 *228:16 *869:B 9.3 
*END

*D_NET *229 0.000976206
*CONN
*I *867:B1 I *D sky130_fd_sc_hd__a21oi_2
*I *865:Y O *D sky130_fd_sc_hd__a21oi_2
*CAP
1 *867:B1 0.000263222
2 *865:Y 0.000263222
3 *867:B1 *251:47 0.000125717
4 *868:A1 *867:B1 9.90367e-05
5 *917:D *867:B1 0.000102545
6 *228:41 *867:B1 7.80714e-06
7 *228:45 *867:B1 0.000114655
*RES
1 *865:Y *867:B1 32.2429 
*END

*D_NET *230 0.00484384
*CONN
*I *874:D I *D sky130_fd_sc_hd__and4_2
*I *867:A2 I *D sky130_fd_sc_hd__a21oi_2
*I *869:C I *D sky130_fd_sc_hd__and3_2
*I *868:A2 I *D sky130_fd_sc_hd__a21oi_2
*I *866:X O *D sky130_fd_sc_hd__and2_2
*CAP
1 *874:D 0
2 *867:A2 1.69531e-05
3 *869:C 0.000150212
4 *868:A2 0
5 *866:X 0.000755206
6 *230:33 0.000552074
7 *230:27 0.000586097
8 *230:18 0.000956395
9 *867:A2 *861:D 5.33005e-05
10 *869:C *1006:A 0
11 *869:C *1040:A 0.00019384
12 *230:18 *866:B 9.24825e-05
13 *230:18 *871:A 0
14 *230:18 *874:B 0.000173921
15 *230:18 *964:A 2.89114e-05
16 *230:18 *1018:A 0
17 *230:18 *266:12 6.62783e-05
18 *230:18 *266:21 2.89114e-05
19 *230:18 *266:25 7.03295e-05
20 *230:18 *266:31 0.000273152
21 *230:18 *267:33 0.000138931
22 *230:27 *869:A 9.22103e-06
23 *230:27 *874:B 4.87854e-05
24 *230:27 *266:31 9.22103e-06
25 *230:33 *859:A 0
26 *230:33 *861:D 9.41642e-05
27 *230:33 *1040:A 5.41794e-05
28 *868:A1 *230:18 6.24629e-05
29 *868:A1 *230:27 5.89159e-05
30 *874:C *230:27 1.74352e-05
31 *874:C *230:33 0.000116749
32 *918:D *869:C 6.71612e-05
33 *228:30 *867:A2 5.33005e-05
34 *228:30 *869:C 6.19181e-05
35 *228:30 *230:33 2.44318e-05
36 *228:41 *230:33 2.89016e-05
*RES
1 *866:X *230:18 34.2643 
2 *230:18 *868:A2 9.3 
3 *230:18 *230:27 3.21429 
4 *230:27 *230:33 9.875 
5 *230:33 *869:C 17.4964 
6 *230:33 *867:A2 14.3357 
7 *230:27 *874:D 9.3 
*END

*D_NET *231 0.00300676
*CONN
*I *870:A I *D sky130_fd_sc_hd__nor2_2
*I *868:Y O *D sky130_fd_sc_hd__a21oi_2
*CAP
1 *870:A 0.000834317
2 *868:Y 0.000834317
3 *870:A *869:A 0.000227539
4 *870:A *872:A 3.71924e-05
5 *870:A *873:A 5.71472e-05
6 *870:A *875:D 0.000470003
7 *870:A *876:B1_N 5.52238e-05
8 *870:A *919:CLK 9.60939e-05
9 *870:A *235:23 8.17274e-05
10 *870:A *266:21 0
11 *870:A *266:25 1.04232e-05
12 *870:A *266:31 0.000253919
13 *873:B *870:A 4.88515e-05
14 *919:D *870:A 0
*RES
1 *868:Y *870:A 43.5464 
*END

*D_NET *232 0.000985825
*CONN
*I *876:A2 I *D sky130_fd_sc_hd__o21ba_2
*I *870:B I *D sky130_fd_sc_hd__nor2_2
*I *869:X O *D sky130_fd_sc_hd__and3_2
*CAP
1 *876:A2 4.50802e-05
2 *870:B 0.000129823
3 *869:X 7.80564e-05
4 *232:8 0.00025296
5 *870:B *247:73 0
6 *876:A2 *876:A1 0.000285712
7 *876:A2 *247:73 6.05161e-06
8 *918:D *870:B 0.000124152
9 *918:D *232:8 6.39901e-05
10 *228:16 *870:B 0
11 *228:16 *232:8 0
*RES
1 *869:X *232:8 15.4429 
2 *232:8 *870:B 16.6571 
3 *232:8 *876:A2 15.5679 
*END

*D_NET *233 0.00167103
*CONN
*I *872:C I *D sky130_fd_sc_hd__and3_2
*I *871:X O *D sky130_fd_sc_hd__and3_2
*CAP
1 *872:C 0.000723117
2 *871:X 0.000723117
3 *872:C *872:A 0.00018372
4 *872:C *918:CLK 1.21258e-05
5 *872:C *920:CLK 0
6 *872:C *266:12 0
7 *872:C *267:33 0
8 *918:D *872:C 2.89524e-05
*RES
1 *871:X *872:C 37.2607 
*END

*D_NET *234 0.000924831
*CONN
*I *873:D I *D sky130_fd_sc_hd__and4_2
*I *872:X O *D sky130_fd_sc_hd__and3_2
*CAP
1 *873:D 0.000161541
2 *872:X 0.000161541
3 *873:D *876:B1_N 0.000127446
4 *873:D *946:A 1.99099e-05
5 *873:D *251:10 1.91414e-05
6 *873:D *251:36 6.92434e-05
7 *918:D *873:D 2.59355e-05
8 *228:16 *873:D 0.000340073
*RES
1 *872:X *873:D 32.5107 
*END

*D_NET *235 0.00800327
*CONN
*I *879:C I *D sky130_fd_sc_hd__and3_2
*I *884:A1_N I *D sky130_fd_sc_hd__o2bb2a_2
*I *877:B I *D sky130_fd_sc_hd__xor2_2
*I *878:A2 I *D sky130_fd_sc_hd__a21oi_2
*I *885:A1 I *D sky130_fd_sc_hd__a21oi_2
*I *891:B I *D sky130_fd_sc_hd__and4_2
*I *876:B1_N I *D sky130_fd_sc_hd__o21ba_2
*I *873:X O *D sky130_fd_sc_hd__and4_2
*CAP
1 *879:C 0
2 *884:A1_N 4.81292e-05
3 *877:B 0.000256247
4 *878:A2 2.23854e-05
5 *885:A1 5.05286e-05
6 *891:B 0.000791123
7 *876:B1_N 8.11675e-05
8 *873:X 0
9 *235:75 0.000526427
10 *235:67 0.000330757
11 *235:63 0.000200622
12 *235:25 0.00129101
13 *235:23 0.00114693
14 *235:4 0.000612942
15 *876:B1_N *251:10 7.83659e-05
16 *876:B1_N *251:36 4.73656e-05
17 *877:B *878:B1 0.000139907
18 *877:B *879:A 5.33334e-05
19 *877:B *268:76 8.71278e-05
20 *884:A1_N *879:A 5.71472e-05
21 *884:A1_N *879:B 3.9846e-05
22 *884:A1_N *884:A2_N 0.000110381
23 *884:A1_N *239:14 6.58013e-05
24 *885:A1 *241:37 0.00014285
25 *885:A1 *242:18 7.43578e-06
26 *891:B *815:B 2.24813e-05
27 *891:B *818:B 0.000385261
28 *891:B *885:B1 1.94879e-05
29 *891:B *889:C 0
30 *891:B *891:A 0.00010096
31 *891:B *891:C 3.45371e-05
32 *891:B *945:A 3.84077e-05
33 *891:B *237:14 0
34 *891:B *241:31 8.35642e-05
35 *891:B *272:16 5.44994e-05
36 *891:B *347:18 6.15693e-05
37 *891:B *374:24 0.000105033
38 *235:23 *875:D 0
39 *235:23 *919:CLK 2.44318e-05
40 *235:25 *884:A2_N 0
41 *235:25 *885:B1 8.6229e-06
42 *235:25 *237:8 0
43 *235:25 *237:14 0
44 *235:25 *241:37 0
45 *235:63 *239:14 0.00010096
46 *235:67 *879:B 3.18676e-05
47 *235:67 *884:A2_N 0
48 *235:67 *239:14 2.14658e-05
49 *235:75 *876:A1 1.21258e-05
50 *235:75 *879:A 0.000136737
51 *235:75 *923:CLK 7.80714e-06
52 *235:75 *251:74 9.41642e-05
53 *235:75 *267:12 0.00010326
54 *870:A *876:B1_N 5.52238e-05
55 *870:A *235:23 8.17274e-05
56 *873:D *876:B1_N 0.000127446
57 *919:D *235:23 0
58 *984:A *891:B 0.000103806
*RES
1 *873:X *235:4 9.3 
2 *235:4 *876:B1_N 20.4786 
3 *235:4 *235:23 12 
4 *235:23 *235:25 8.01786 
5 *235:25 *891:B 27.572 
6 *235:25 *885:A1 15.1571 
7 *235:23 *235:63 7.5 
8 *235:63 *235:67 0.964286 
9 *235:67 *235:75 15.1429 
10 *235:75 *878:A2 9.72857 
11 *235:75 *877:B 4.90179 
12 *235:67 *884:A1_N 11.2018 
13 *235:63 *879:C 9.3 
*END

*D_NET *236 0.00191987
*CONN
*I *875:D I *D sky130_fd_sc_hd__and4_2
*I *874:X O *D sky130_fd_sc_hd__and4_2
*CAP
1 *875:D 0.000351626
2 *874:X 0.000351626
3 *875:D *946:A 0.000208271
4 *875:D *251:10 0.000121573
5 *875:D *251:36 0.000266092
6 *875:D *251:47 0.000125731
7 *870:A *875:D 0.000470003
8 *873:B *875:D 2.49484e-05
9 *235:23 *875:D 0
*RES
1 *874:X *875:D 37.0643 
*END

*D_NET *237 0.00675796
*CONN
*I *881:D I *D sky130_fd_sc_hd__and4_2
*I *889:A I *D sky130_fd_sc_hd__and3_2
*I *886:B I *D sky130_fd_sc_hd__and3_2
*I *875:X O *D sky130_fd_sc_hd__and4_2
*CAP
1 *881:D 0.000693816
2 *889:A 0.000301479
3 *886:B 0.00025196
4 *875:X 0.000256147
5 *237:14 0.00103644
6 *237:8 0.00143297
7 *881:D *1029:A 0.000488493
8 *886:B *886:A 0.000114587
9 *886:B *886:C 9.33978e-07
10 *889:A *838:A1 3.04665e-05
11 *889:A *838:B1 0.000178847
12 *889:A *892:B 0.000111813
13 *889:A *283:33 0.000224596
14 *237:8 *247:45 0
15 *237:14 *885:B1 0
16 *237:14 *886:A 9.16074e-05
17 *237:14 *247:15 0
18 *237:14 *247:45 0
19 *237:14 *364:26 0
20 *825:A_N *889:A 0.000172501
21 *825:A_N *237:14 4.25809e-05
22 *838:A2 *889:A 0.000537029
23 *838:A3 *889:A 5.33005e-05
24 *891:B *237:14 0
25 *899:D *237:14 0
26 *977:A *881:D 6.55175e-05
27 *100:8 *881:D 0.000446597
28 *205:88 *889:A 1.08359e-05
29 *206:16 *889:A 0.000215448
30 *235:25 *237:8 0
31 *235:25 *237:14 0
*RES
1 *875:X *237:8 18.4786 
2 *237:8 *237:14 12.4643 
3 *237:14 *886:B 12.3 
4 *237:14 *889:A 27.8536 
5 *237:8 *881:D 27.925 
*END

*D_NET *238 0.000381994
*CONN
*I *880:A I *D sky130_fd_sc_hd__nor2_2
*I *878:Y O *D sky130_fd_sc_hd__a21oi_2
*CAP
1 *880:A 9.31553e-05
2 *878:Y 9.31553e-05
3 *880:A *880:B 6.20948e-05
4 *880:A *918:RESET_B 7.83587e-05
5 *880:A *920:CLK 5.52302e-05
6 *880:A *267:33 0
7 *921:D *880:A 0
*RES
1 *878:Y *880:A 29.7786 
*END

*D_NET *239 0.00262049
*CONN
*I *880:B I *D sky130_fd_sc_hd__nor2_2
*I *882:A2 I *D sky130_fd_sc_hd__o21ba_2
*I *879:X O *D sky130_fd_sc_hd__and3_2
*CAP
1 *880:B 0.000295927
2 *882:A2 1.69531e-05
3 *879:X 0.000393087
4 *239:14 0.000705968
5 *880:B *878:B1 0.000195562
6 *880:B *918:RESET_B 0.00016964
7 *880:B *920:CLK 0.00013135
8 *880:B *923:CLK 7.79781e-06
9 *880:B *251:76 5.72433e-05
10 *880:B *267:33 6.42338e-05
11 *882:A2 *882:A1 5.33005e-05
12 *882:A2 *251:89 5.33005e-05
13 *239:14 *878:B1 0.000113773
14 *239:14 *879:A 5.52238e-05
15 *239:14 *923:CLK 5.68044e-05
16 *880:A *880:B 6.20948e-05
17 *884:A1_N *239:14 6.58013e-05
18 *235:63 *239:14 0.00010096
19 *235:67 *239:14 2.14658e-05
*RES
1 *879:X *239:14 19.5143 
2 *239:14 *882:A2 14.3357 
3 *239:14 *880:B 21.4964 
*END

*D_NET *240 0.00135926
*CONN
*I *882:B1_N I *D sky130_fd_sc_hd__o21ba_2
*I *884:B1 I *D sky130_fd_sc_hd__o2bb2a_2
*I *881:X O *D sky130_fd_sc_hd__and4_2
*CAP
1 *882:B1_N 0.000103686
2 *884:B1 0
3 *881:X 0.000334076
4 *240:10 0.000437762
5 *882:B1_N *878:B1 2.59795e-05
6 *882:B1_N *881:B 0
7 *882:B1_N *882:A1 5.52302e-05
8 *882:B1_N *918:RESET_B 2.84494e-05
9 *882:B1_N *922:CLK 8.58864e-05
10 *882:B1_N *251:89 5.52302e-05
11 *882:B1_N *268:25 0
12 *882:B1_N *365:79 3.69697e-05
13 *240:10 *878:B1 1.19402e-05
14 *240:10 *881:B 0
15 *240:10 *884:A2_N 0
16 *240:10 *945:A 3.92757e-05
17 *923:D *240:10 0
18 *977:A *240:10 0.000144773
*RES
1 *881:X *240:10 19.2286 
2 *240:10 *884:B1 13.8 
3 *240:10 *882:B1_N 16.8893 
*END

*D_NET *241 0.00904761
*CONN
*I *884:A2_N I *D sky130_fd_sc_hd__o2bb2a_2
*I *885:A2 I *D sky130_fd_sc_hd__a21oi_2
*I *886:C I *D sky130_fd_sc_hd__and3_2
*I *889:B I *D sky130_fd_sc_hd__and3_2
*I *891:C I *D sky130_fd_sc_hd__and4_2
*I *883:X O *D sky130_fd_sc_hd__and4_2
*CAP
1 *884:A2_N 0.000325243
2 *885:A2 0
3 *886:C 5.5035e-05
4 *889:B 0.000405349
5 *891:C 0.000237934
6 *883:X 0
7 *241:43 0.00107823
8 *241:37 0.000982448
9 *241:31 0.00131938
10 *241:6 0.000867475
11 *884:A2_N *813:B 0.00012624
12 *884:A2_N *879:B 0.00018372
13 *884:A2_N *923:CLK 0.000175512
14 *884:A2_N *269:18 0
15 *889:B *892:B 0.000148371
16 *889:B *243:12 0.000223448
17 *889:B *282:16 7.80714e-06
18 *891:C *891:A 5.33005e-05
19 *891:C *893:B 2.89114e-05
20 *891:C *1028:A 0.000176084
21 *891:C *272:16 1.98839e-05
22 *891:C *272:44 1.4487e-05
23 *891:C *365:54 0.000298525
24 *241:31 *814:A 4.15526e-05
25 *241:31 *818:B 0
26 *241:31 *881:C 7.1223e-05
27 *241:31 *883:A 0.00011802
28 *241:31 *365:54 7.83805e-05
29 *241:37 *945:A 0
30 *241:37 *1024:A 5.71472e-05
31 *241:37 *242:18 0.000144466
32 *241:43 *247:8 0.000102207
33 *241:43 *247:15 0
34 *241:43 *247:45 0
35 *241:43 *282:29 9.46064e-05
36 *241:43 *283:46 1.46624e-05
37 *241:43 *365:213 0
38 axi_rdata[27] *891:C 5.71946e-05
39 axi_rdata[27] *241:31 2.2355e-05
40 axi_rdata[28] *241:37 0.000361914
41 axi_rdata[3] *241:37 4.03318e-05
42 *839:B1 *889:B 9.60939e-05
43 *840:D *889:B 0.000188967
44 *840:D *241:43 0.000224329
45 *884:A1_N *884:A2_N 0.000110381
46 *885:A1 *241:37 0.00014285
47 *886:B *886:C 9.33978e-07
48 *891:B *891:C 3.45371e-05
49 *891:B *241:31 8.35642e-05
50 *979:A *241:31 0.000154301
51 *984:A *891:C 8.02048e-05
52 *235:25 *884:A2_N 0
53 *235:25 *241:37 0
54 *235:67 *884:A2_N 0
55 *240:10 *884:A2_N 0
*RES
1 *883:X *241:6 13.8 
2 *241:6 *891:C 20.6214 
3 *241:6 *241:31 9.42377 
4 *241:31 *241:37 13.4911 
5 *241:37 *241:43 17.0893 
6 *241:43 *889:B 20.5857 
7 *241:43 *886:C 14.3357 
8 *241:37 *885:A2 9.3 
9 *241:31 *884:A2_N 21.6661 
*END

*D_NET *242 0.003933
*CONN
*I *887:A I *D sky130_fd_sc_hd__nor2_2
*I *885:Y O *D sky130_fd_sc_hd__a21oi_2
*CAP
1 *887:A 0
2 *885:Y 0.00141115
3 *242:18 0.00141115
4 *242:18 *786:A 0.000125371
5 *242:18 *788:B 0
6 *242:18 *815:B 6.59118e-05
7 *242:18 *818:B 7.05143e-06
8 *242:18 *823:D 3.67142e-05
9 *242:18 *885:B1 0
10 *242:18 *886:A 0
11 *242:18 *896:RESET_B 5.00201e-05
12 *242:18 *898:RESET_B 1.41706e-05
13 *242:18 *1024:A 6.05161e-06
14 *242:18 *1028:A 2.09897e-05
15 *242:18 *249:16 9.46929e-05
16 *242:18 *315:77 4.48113e-05
17 axi_rdata[3] *242:18 0.000493016
18 *885:A1 *242:18 7.43578e-06
19 *985:A *242:18 0
20 *241:37 *242:18 0.000144466
*RES
1 *885:Y *242:18 45.6214 
2 *242:18 *887:A 9.3 
*END

*D_NET *243 0.00758563
*CONN
*I *890:A2 I *D sky130_fd_sc_hd__o21ba_2
*I *887:B I *D sky130_fd_sc_hd__nor2_2
*I *886:X O *D sky130_fd_sc_hd__and3_2
*CAP
1 *890:A2 0.000175335
2 *887:B 0.000417333
3 *886:X 0.00088595
4 *243:12 0.00147862
5 *887:B *816:B 0.000146508
6 *887:B *822:A 0.000712377
7 *887:B *892:A 1.82462e-05
8 *887:B *966:A 9.60939e-05
9 *887:B *347:18 6.77427e-05
10 *890:A2 *890:B1_N 4.58194e-05
11 *890:A2 *927:CLK 0.000151291
12 *243:12 *790:B 0.000310292
13 *243:12 *890:B1_N 3.97677e-05
14 *243:12 *892:A 0.00035013
15 *243:12 *892:B 0.00128752
16 *243:12 *282:16 2.84398e-05
17 *243:12 *282:29 6.09572e-05
18 *889:B *243:12 0.000223448
19 *898:D *887:B 0.00073129
20 *924:D *887:B 5.33005e-05
21 *926:D *887:B 0.000305176
*RES
1 *886:X *243:12 37.5143 
2 *243:12 *887:B 33.3357 
3 *243:12 *890:A2 12.7464 
*END

*D_NET *244 0.00689579
*CONN
*I *891:D I *D sky130_fd_sc_hd__and4_2
*I *889:C I *D sky130_fd_sc_hd__and3_2
*I *888:X O *D sky130_fd_sc_hd__and2_2
*CAP
1 *891:D 0.00019585
2 *889:C 0.00180557
3 *888:X 0.000618831
4 *244:14 0.00262026
5 *889:C *798:B 0
6 *889:C *817:B 0
7 *889:C *374:24 0.000257799
8 *891:D *891:A 0.000129568
9 *891:D *347:18 0
10 *891:D *365:54 1.07987e-05
11 *244:14 *888:A 5.52302e-05
12 *244:14 *365:54 2.06178e-05
13 *244:14 *374:24 4.64488e-06
14 *244:14 *378:12 0.000102197
15 axi_rdata[31] *889:C 0.000226888
16 axi_rdata[31] *244:14 0.000104587
17 *891:B *889:C 0
18 *981:A *244:14 0.000397924
19 *983:A *889:C 0.000234643
20 *983:A *244:14 2.94937e-05
21 *213:18 *889:C 8.08899e-05
*RES
1 *888:X *244:14 27.3935 
2 *244:14 *889:C 23.3909 
3 *244:14 *891:D 20.1475 
*END

*D_NET *245 0.00432934
*CONN
*I *890:B1_N I *D sky130_fd_sc_hd__o21ba_2
*I *892:B I *D sky130_fd_sc_hd__xor2_2
*I *889:X O *D sky130_fd_sc_hd__and3_2
*CAP
1 *890:B1_N 0.000109276
2 *892:B 0.000692991
3 *889:X 0.000583714
4 *890:B1_N *892:A 0.000130284
5 *890:B1_N *927:CLK 0.000225609
6 *892:B *838:A1 3.04665e-05
7 *892:B *838:B1 0.00018077
8 *892:B *954:A 1.38323e-05
9 *892:B *283:33 0.000255068
10 *838:A3 *892:B 5.33005e-05
11 *839:B1 *892:B 9.60939e-05
12 *889:A *892:B 0.000111813
13 *889:B *892:B 0.000148371
14 *890:A2 *890:B1_N 4.58194e-05
15 *982:A *892:B 0.000269428
16 *985:A *892:B 5.52238e-05
17 *243:12 *890:B1_N 3.97677e-05
18 *243:12 *892:B 0.00128752
*RES
1 *889:X *892:B 27.0589 
2 *892:B *890:B1_N 12.2375 
*END

*D_NET *246 0.000838544
*CONN
*I *893:B I *D sky130_fd_sc_hd__xor2_2
*I *891:X O *D sky130_fd_sc_hd__and4_2
*CAP
1 *893:B 0.000191463
2 *891:X 0.000191463
3 *893:B *1024:A 1.92789e-05
4 *893:B *272:44 0.000269428
5 *893:B *374:24 7.94202e-05
6 axi_rdata[27] *893:B 3.18676e-05
7 *891:C *893:B 2.89114e-05
8 *981:A *893:B 0
9 *984:A *893:B 2.67113e-05
*RES
1 *891:X *893:B 23.1393 
*END

*D_NET *247 0.0082347
*CONN
*I *943:A I *D sky130_fd_sc_hd__clkbuf_16
*I *942:A I *D sky130_fd_sc_hd__clkbuf_16
*I *941:A I *D sky130_fd_sc_hd__clkbuf_16
*I *940:A I *D sky130_fd_sc_hd__clkbuf_16
*I *939:X O *D sky130_fd_sc_hd__clkbuf_16
*CAP
1 *943:A 0.000125711
2 *942:A 0.000113829
3 *941:A 0.000131997
4 *940:A 0.000133076
5 *939:X 8.83769e-05
6 *247:73 0.000345185
7 *247:57 0.000963028
8 *247:45 0.0016407
9 *247:31 0.000548245
10 *247:17 0.000227539
11 *247:15 0.00104477
12 *247:8 0.00119447
13 *941:A *1004:A 2.59355e-05
14 *942:A *250:150 1.79523e-05
15 *943:A *876:A1 4.45492e-05
16 *943:A *251:8 5.33005e-05
17 *247:15 *789:B 0.000131773
18 *247:15 *283:46 0.000192123
19 *247:45 *873:A 0
20 *247:45 *254:58 0
21 *247:57 *250:150 2.8845e-05
22 *247:73 *876:A1 3.72171e-05
23 axi_rdata[0] *941:A 2.07903e-05
24 axi_rdata[0] *247:31 4.67036e-05
25 *825:A_N *247:15 0
26 *833:B *247:17 7.1959e-05
27 *833:B *247:31 4.50518e-05
28 *835:B *247:15 8.92059e-05
29 *835:B *247:31 5.52644e-05
30 *840:D *247:15 0
31 *845:B *247:45 3.2534e-05
32 *870:B *247:73 0
33 *876:A2 *247:73 6.05161e-06
34 *992:A *940:A 5.90491e-05
35 *149:14 *247:57 1.36364e-05
36 *206:16 *247:15 0.000443262
37 *228:16 *247:45 6.7152e-05
38 *228:16 *247:73 9.32123e-05
39 *237:8 *247:45 0
40 *237:14 *247:15 0
41 *237:14 *247:45 0
42 *241:43 *247:8 0.000102207
43 *241:43 *247:15 0
44 *241:43 *247:45 0
*RES
1 *939:X *247:8 15.5679 
2 *247:8 *247:15 18.2857 
3 *247:15 *247:17 1.5625 
4 *247:17 *940:A 11.5946 
5 *247:15 *247:31 6.49107 
6 *247:31 *941:A 11.5946 
7 *247:8 *247:45 9.99107 
8 *247:45 *247:57 14.1566 
9 *247:57 *942:A 11.0366 
10 *247:45 *247:73 8.10714 
11 *247:73 *943:A 11.5411 
*END

*D_NET *248 0.0095301
*CONN
*I *906:CLK I *D sky130_fd_sc_hd__dfrtp_2
*I *932:CLK I *D sky130_fd_sc_hd__dfrtp_2
*I *930:CLK I *D sky130_fd_sc_hd__dfrtp_2
*I *905:CLK I *D sky130_fd_sc_hd__dfrtp_2
*I *944:A I *D sky130_fd_sc_hd__inv_4
*I *902:CLK I *D sky130_fd_sc_hd__dfrtp_2
*I *903:CLK I *D sky130_fd_sc_hd__dfrtp_2
*I *900:CLK I *D sky130_fd_sc_hd__dfrtp_2
*I *901:CLK I *D sky130_fd_sc_hd__dfrtp_2
*I *940:X O *D sky130_fd_sc_hd__clkbuf_16
*CAP
1 *906:CLK 3.3415e-05
2 *932:CLK 0
3 *930:CLK 0.000120282
4 *905:CLK 0.000342455
5 *944:A 0.000110843
6 *902:CLK 0
7 *903:CLK 0.000128372
8 *900:CLK 0.000221197
9 *901:CLK 0.000223703
10 *940:X 9.11629e-05
11 *248:112 0.000639091
12 *248:108 0.000904875
13 *248:78 0.000473223
14 *248:74 0.000635084
15 *248:20 0.000697794
16 *248:14 0.000564493
17 *248:10 0.000367
18 *248:8 0.000537444
19 *900:CLK *791:B 0
20 *900:CLK *278:14 0.000144725
21 *900:CLK *356:24 0
22 *901:CLK *278:31 0.000116262
23 *901:CLK *278:44 4.1331e-06
24 *903:CLK *792:A 4.98351e-05
25 *930:CLK *930:D 5.71472e-05
26 *930:CLK *933:D 0
27 *248:8 *793:B 0.000262834
28 *248:10 *280:16 0.000254207
29 *248:14 *792:B 9.89573e-05
30 *248:14 *900:RESET_B 0.000195698
31 *248:14 *280:16 5.63598e-05
32 *248:20 *791:B 0.000267731
33 *248:20 *278:31 5.49544e-05
34 *248:112 *932:D 0.000256783
35 *826:B *900:CLK 1.03183e-05
36 *826:B *901:CLK 5.58875e-06
37 *828:B *901:CLK 0
38 *828:B *248:14 0
39 *828:B *248:20 0.000141729
40 *839:A1 *944:A 2.77355e-05
41 *839:A1 *248:74 0.000145484
42 *839:A1 *248:108 7.6997e-05
43 *839:A2 *905:CLK 0.000456589
44 *839:A2 *944:A 1.24368e-05
45 *900:D *900:CLK 7.94632e-05
46 *901:D *901:CLK 2.84109e-05
47 *902:D *248:8 4.82354e-05
48 *902:D *248:10 9.86355e-05
49 *902:D *248:74 2.50656e-05
50 *905:D *905:CLK 0.000177726
51 *986:A *248:20 9.77264e-06
52 *988:A *248:8 5.33005e-05
53 *989:A *930:CLK 0.000198705
54 *213:18 *905:CLK 2.38501e-05
*RES
1 *940:X *248:8 16.3893 
2 *248:8 *248:10 4.67857 
3 *248:10 *248:14 8.875 
4 *248:14 *248:20 9.83036 
5 *248:20 *901:CLK 18.2911 
6 *248:20 *900:CLK 17.9875 
7 *248:14 *903:CLK 11.6214 
8 *248:10 *902:CLK 13.8 
9 *248:8 *248:74 4.67857 
10 *248:74 *248:78 4.92857 
11 *248:78 *944:A 11.0857 
12 *248:78 *905:CLK 16.7107 
13 *248:74 *248:108 10.0893 
14 *248:108 *248:112 9.17857 
15 *248:112 *930:CLK 21.3893 
16 *248:112 *932:CLK 9.3 
17 *248:108 *906:CLK 9.83571 
*END

*D_NET *249 0.0160078
*CONN
*I *928:CLK I *D sky130_fd_sc_hd__dfrtp_2
*I *895:CLK I *D sky130_fd_sc_hd__dfrtp_2
*I *898:CLK I *D sky130_fd_sc_hd__dfrtp_2
*I *945:A I *D sky130_fd_sc_hd__clkbuf_4
*I *924:CLK I *D sky130_fd_sc_hd__dfrtp_2
*I *927:CLK I *D sky130_fd_sc_hd__dfrtp_2
*I *925:CLK I *D sky130_fd_sc_hd__dfrtp_2
*I *929:CLK I *D sky130_fd_sc_hd__dfrtp_2
*I *904:CLK I *D sky130_fd_sc_hd__dfrtp_2
*I *926:CLK I *D sky130_fd_sc_hd__dfrtp_2
*I *897:CLK I *D sky130_fd_sc_hd__dfrtp_2
*I *899:CLK I *D sky130_fd_sc_hd__dfrtp_2
*I *896:CLK I *D sky130_fd_sc_hd__dfrtp_2
*I *941:X O *D sky130_fd_sc_hd__clkbuf_16
*CAP
1 *928:CLK 0
2 *895:CLK 8.20998e-05
3 *898:CLK 0.000300742
4 *945:A 0.000919688
5 *924:CLK 9.12662e-05
6 *927:CLK 0.000358475
7 *925:CLK 0
8 *929:CLK 0
9 *904:CLK 0.000235191
10 *926:CLK 6.56848e-05
11 *897:CLK 0
12 *899:CLK 4.99364e-05
13 *896:CLK 0.000283261
14 *941:X 0.00017081
15 *249:141 0.000452668
16 *249:137 0.000185156
17 *249:108 0.00111443
18 *249:95 0.000561047
19 *249:66 0.000685187
20 *249:64 0.000520275
21 *249:60 0.000237837
22 *249:49 0.000180766
23 *249:16 0.00118137
24 *249:10 0.00100502
25 *249:8 0.000258944
26 *895:CLK *820:A 0.000212526
27 *895:CLK *364:26 0.000235408
28 *896:CLK *823:D 3.98547e-05
29 *896:CLK *824:A3 0.000100248
30 *896:CLK *1035:A 1.25366e-05
31 *896:CLK *263:12 7.74135e-05
32 *896:CLK *263:14 5.33005e-05
33 *898:CLK *789:B 0
34 *898:CLK *890:A1 0.000146991
35 *898:CLK *894:B 0
36 *898:CLK *1038:A 0.000389878
37 *898:CLK *347:18 0
38 *898:CLK *365:10 9.43558e-05
39 *899:CLK *823:D 2.89114e-05
40 *904:CLK *796:A 9.8126e-05
41 *904:CLK *905:RESET_B 0.000112045
42 *904:CLK *282:8 9.58632e-05
43 *904:CLK *283:31 6.90779e-05
44 *924:CLK *816:B 5.91336e-05
45 *926:CLK *822:A 8.55871e-05
46 *926:CLK *960:A 4.11572e-05
47 *927:CLK *927:RESET_B 0.000142856
48 *945:A *813:B 0.000228558
49 *945:A *347:18 0
50 *249:10 *892:A 0.000195655
51 *249:16 *823:D 6.45648e-05
52 *249:49 *892:A 0.000146853
53 *249:60 *892:A 0.000191568
54 *249:64 *929:RESET_B 6.3629e-05
55 *249:66 *905:RESET_B 0.000173313
56 *249:66 *929:D 9.59306e-05
57 *249:66 *929:RESET_B 0.000116339
58 *249:95 *816:B 0
59 *249:95 *892:A 0.000165742
60 *249:108 *816:B 0
61 *249:108 *347:18 0
62 *249:137 *928:D 4.58194e-05
63 *249:141 *890:A1 0.000190934
64 *249:141 *1038:A 0.000182368
65 axi_rdata[2] *898:CLK 1.74352e-05
66 axi_rdata[31] *945:A 4.1879e-05
67 axi_rdata[3] *945:A 0.000140857
68 axi_rdata[3] *249:108 1.53146e-05
69 axi_wready *898:CLK 7.43578e-06
70 *890:A2 *927:CLK 0.000151291
71 *890:B1_N *927:CLK 0.000225609
72 *891:B *945:A 3.84077e-05
73 *897:D *249:10 3.34295e-05
74 *897:D *249:16 0.000150625
75 *898:D *249:10 0.000101531
76 *904:D *904:CLK 5.10039e-05
77 *924:D *924:CLK 7.32272e-05
78 *924:D *249:10 0.000421827
79 *924:D *249:16 0.000204141
80 *924:D *249:49 0.000139954
81 *924:D *249:60 0.000183139
82 *924:D *249:95 0.000204885
83 *924:D *249:108 0.000115467
84 *925:D *249:64 8.86129e-06
85 *926:D *926:CLK 9.75679e-05
86 *979:A *945:A 0
87 *981:A *924:CLK 0.000166416
88 *14:13 *896:CLK 0.00012535
89 *205:14 *896:CLK 9.29164e-05
90 *206:16 *904:CLK 0.000168919
91 *240:10 *945:A 3.92757e-05
92 *241:37 *945:A 0
93 *242:18 *249:16 9.46929e-05
*RES
1 *941:X *249:8 14.3357 
2 *249:8 *249:10 5.58929 
3 *249:10 *249:16 15.6071 
4 *249:16 *896:CLK 24.55 
5 *249:16 *899:CLK 10.6929 
6 *249:10 *897:CLK 13.8 
7 *249:8 *249:49 1.94643 
8 *249:49 *926:CLK 15.5679 
9 *249:49 *249:60 2.55357 
10 *249:60 *249:64 5.85714 
11 *249:64 *249:66 8.75 
12 *249:66 *904:CLK 24.1036 
13 *249:66 *929:CLK 9.3 
14 *249:64 *925:CLK 9.3 
15 *249:60 *249:95 2.85714 
16 *249:95 *927:CLK 20.5143 
17 *249:95 *249:108 2.25 
18 *249:108 *924:CLK 16.8 
19 *249:108 *945:A 26.9786 
20 *941:X *249:137 11.0679 
21 *249:137 *249:141 7.05357 
22 *249:141 *898:CLK 21.7464 
23 *249:141 *895:CLK 16.8 
24 *249:137 *928:CLK 9.3 
*END

*D_NET *250 0.0111863
*CONN
*I *911:CLK I *D sky130_fd_sc_hd__dfrtp_2
*I *907:CLK I *D sky130_fd_sc_hd__dfrtp_2
*I *915:CLK I *D sky130_fd_sc_hd__dfrtp_2
*I *913:CLK I *D sky130_fd_sc_hd__dfrtp_2
*I *912:CLK I *D sky130_fd_sc_hd__dfrtp_2
*I *914:CLK I *D sky130_fd_sc_hd__dfrtp_2
*I *931:CLK I *D sky130_fd_sc_hd__dfrtp_2
*I *909:CLK I *D sky130_fd_sc_hd__dfrtp_2
*I *935:CLK I *D sky130_fd_sc_hd__dfrtp_2
*I *908:CLK I *D sky130_fd_sc_hd__dfrtp_2
*I *933:CLK I *D sky130_fd_sc_hd__dfrtp_2
*I *934:CLK I *D sky130_fd_sc_hd__dfrtp_2
*I *910:CLK I *D sky130_fd_sc_hd__dfrtp_2
*I *942:X O *D sky130_fd_sc_hd__clkbuf_16
*CAP
1 *911:CLK 1.66263e-06
2 *907:CLK 0.000125304
3 *915:CLK 0.000259155
4 *913:CLK 0
5 *912:CLK 0.00019724
6 *914:CLK 0
7 *931:CLK 0.000143308
8 *909:CLK 2.9238e-05
9 *935:CLK 0.000265129
10 *908:CLK 0
11 *933:CLK 0.000187722
12 *934:CLK 0
13 *910:CLK 0.000203318
14 *942:X 0.000283918
15 *250:150 0.000456556
16 *250:115 0.000627379
17 *250:109 0.000768276
18 *250:100 0.000197971
19 *250:89 0.000387044
20 *250:85 0.000645156
21 *250:40 0.000517665
22 *250:34 0.00068454
23 *250:32 0.000206459
24 *250:10 0.000448726
25 *250:6 0.000426259
26 *909:CLK *909:RESET_B 5.33005e-05
27 *910:CLK *801:A 8.36638e-05
28 *910:CLK *848:B 0
29 *910:CLK *934:D 0
30 *910:CLK *255:80 1.02504e-05
31 *910:CLK *256:68 0
32 *912:CLK *804:B 7.57312e-05
33 *912:CLK *1013:A 2.42564e-05
34 *912:CLK *259:22 0
35 *915:CLK *913:RESET_B 4.50675e-05
36 *915:CLK *260:34 9.41642e-05
37 *933:CLK *799:B 8.6229e-06
38 *933:CLK *1007:A 2.79421e-05
39 *933:CLK *255:50 6.02358e-05
40 *933:CLK *255:65 2.42445e-05
41 *933:CLK *256:20 4.43256e-05
42 *935:CLK *935:D 9.89999e-05
43 *250:6 *847:B1 6.13752e-05
44 *250:6 *848:A 1.24368e-05
45 *250:10 *848:A 4.18895e-05
46 *250:10 *255:80 0.000306317
47 *250:40 *256:20 2.59355e-05
48 *250:40 *257:29 6.34847e-05
49 *250:115 *856:A 6.50024e-05
50 axi_rdata[15] *933:CLK 0.000137983
51 *849:A *935:CLK 2.59355e-05
52 *849:A *250:32 0.000116481
53 *849:A *250:34 0.000166983
54 *849:A *250:40 5.66157e-05
55 *849:B *250:32 1.17968e-05
56 *853:C *250:150 0.00018687
57 *854:A2 *250:40 0
58 *856:B *912:CLK 1.08345e-05
59 *859:D *250:100 0.000220824
60 *859:D *250:109 1.66666e-05
61 *908:D *250:40 0.000198656
62 *909:D *935:CLK 5.33005e-05
63 *910:D *910:CLK 6.05161e-06
64 *912:D *912:CLK 7.57312e-05
65 *913:D *912:CLK 3.4846e-06
66 *915:D *915:CLK 0.000134905
67 *915:D *250:115 3.83239e-06
68 *942:A *250:150 1.79523e-05
69 *989:A *933:CLK 0.000194117
70 *1000:A *912:CLK 0
71 *149:14 *907:CLK 8.3124e-05
72 *149:14 *915:CLK 3.16834e-05
73 *149:14 *250:89 0.000195595
74 *149:14 *250:100 0.000227724
75 *149:14 *250:109 6.62844e-05
76 *149:14 *250:150 1.5325e-05
77 *217:42 *910:CLK 0
78 *222:10 *907:CLK 0.000103032
79 *222:10 *911:CLK 2.26973e-05
80 *222:10 *250:150 4.75911e-05
81 *223:23 *250:89 0.000271797
82 *223:23 *250:100 0.000164292
83 *247:57 *250:150 2.8845e-05
*RES
1 *942:X *250:6 11.0679 
2 *250:6 *250:10 4.25 
3 *250:10 *910:CLK 22.2107 
4 *250:10 *934:CLK 9.3 
5 *250:6 *250:32 6.44643 
6 *250:32 *250:34 2.25 
7 *250:34 *250:40 11.1429 
8 *250:40 *933:CLK 23.0321 
9 *250:40 *908:CLK 9.3 
10 *250:34 *935:CLK 18.05 
11 *250:32 *909:CLK 14.3357 
12 *942:X *250:85 11.4786 
13 *250:85 *250:89 8.875 
14 *250:89 *931:CLK 15.9786 
15 *250:89 *250:100 4.98214 
16 *250:100 *914:CLK 13.8 
17 *250:100 *250:109 1.64286 
18 *250:109 *250:115 9.875 
19 *250:115 *912:CLK 22.5143 
20 *250:115 *913:CLK 9.3 
21 *250:109 *915:CLK 19.175 
22 *250:85 *250:150 10.0982 
23 *250:150 *907:CLK 17.0411 
24 *250:150 *911:CLK 14.0768 
*END

*D_NET *251 0.00884144
*CONN
*I *920:CLK I *D sky130_fd_sc_hd__dfrtp_2
*I *921:CLK I *D sky130_fd_sc_hd__dfrtp_2
*I *922:CLK I *D sky130_fd_sc_hd__dfrtp_2
*I *923:CLK I *D sky130_fd_sc_hd__dfrtp_2
*I *916:CLK I *D sky130_fd_sc_hd__dfrtp_2
*I *917:CLK I *D sky130_fd_sc_hd__dfrtp_2
*I *918:CLK I *D sky130_fd_sc_hd__dfrtp_2
*I *919:CLK I *D sky130_fd_sc_hd__dfrtp_2
*I *946:A I *D sky130_fd_sc_hd__inv_4
*I *943:X O *D sky130_fd_sc_hd__clkbuf_16
*CAP
1 *920:CLK 0.000352786
2 *921:CLK 1.36727e-05
3 *922:CLK 0.00011736
4 *923:CLK 0.000191015
5 *916:CLK 0.000162983
6 *917:CLK 0
7 *918:CLK 4.69622e-05
8 *919:CLK 6.105e-05
9 *946:A 0.000206251
10 *943:X 0.000507183
11 *251:89 0.000244943
12 *251:76 0.000393763
13 *251:74 0.000474249
14 *251:47 0.000492588
15 *251:36 0.000475589
16 *251:10 0.000316237
17 *251:8 0.000622514
18 *916:CLK *807:A 0
19 *916:CLK *1014:A 5.52302e-05
20 *916:CLK *264:12 0
21 *918:CLK *872:A 4.87953e-05
22 *920:CLK *879:A 2.24646e-05
23 *920:CLK *918:RESET_B 4.16984e-05
24 *920:CLK *267:12 1.17968e-05
25 *920:CLK *267:33 0.000173804
26 *921:CLK *810:A 2.89114e-05
27 *921:CLK *882:A1 2.28598e-05
28 *922:CLK *918:RESET_B 0
29 *922:CLK *268:25 0
30 *923:CLK *878:B1 0
31 *923:CLK *879:A 0.00017309
32 *251:8 *876:A1 0.000173863
33 *251:47 *869:A 0
34 *251:47 *872:A 0
35 *251:47 *1040:A 0
36 *251:47 *264:12 0
37 *251:74 *876:A1 6.05161e-06
38 *251:74 *879:A 5.33005e-05
39 *251:74 *267:33 1.38323e-05
40 *251:76 *879:A 0.000162832
41 *251:89 *810:A 0.000201714
42 *251:89 *882:A1 0.000102474
43 *251:89 *919:RESET_B 4.10403e-05
44 *251:89 *267:12 6.05161e-06
45 *867:B1 *251:47 0.000125717
46 *870:A *919:CLK 9.60939e-05
47 *872:C *918:CLK 1.21258e-05
48 *872:C *920:CLK 0
49 *873:B *946:A 0.000101545
50 *873:D *946:A 1.99099e-05
51 *873:D *251:10 1.91414e-05
52 *873:D *251:36 6.92434e-05
53 *875:D *946:A 0.000208271
54 *875:D *251:10 0.000121573
55 *875:D *251:36 0.000266092
56 *875:D *251:47 0.000125731
57 *876:B1_N *251:10 7.83659e-05
58 *876:B1_N *251:36 4.73656e-05
59 *880:A *920:CLK 5.52302e-05
60 *880:B *920:CLK 0.00013135
61 *880:B *923:CLK 7.79781e-06
62 *880:B *251:76 5.72433e-05
63 *882:A2 *251:89 5.33005e-05
64 *882:B1_N *922:CLK 8.58864e-05
65 *882:B1_N *251:89 5.52302e-05
66 *884:A2_N *923:CLK 0.000175512
67 *917:D *251:47 6.14499e-05
68 *918:D *918:CLK 0.000136958
69 *921:D *920:CLK 4.01768e-05
70 *922:D *922:CLK 3.25247e-05
71 *923:D *923:CLK 4.57352e-05
72 *943:A *251:8 5.33005e-05
73 *83:16 *916:CLK 0.000166983
74 *83:16 *251:47 0.000150618
75 *215:35 *946:A 0
76 *228:16 *946:A 4.98055e-06
77 *228:16 *251:36 2.60251e-05
78 *228:16 *251:47 7.79781e-06
79 *235:23 *919:CLK 2.44318e-05
80 *235:75 *923:CLK 7.80714e-06
81 *235:75 *251:74 9.41642e-05
82 *239:14 *923:CLK 5.68044e-05
*RES
1 *943:X *251:8 20.0857 
2 *251:8 *251:10 1.64286 
3 *251:10 *946:A 18.3714 
4 *251:10 *919:CLK 15.1571 
5 *251:8 *251:36 3.46429 
6 *251:36 *918:CLK 15.1571 
7 *251:36 *251:47 7.41071 
8 *251:47 *917:CLK 13.8 
9 *251:47 *916:CLK 17.4071 
10 *943:X *251:74 14.7464 
11 *251:74 *251:76 2.25 
12 *251:76 *923:CLK 18.7821 
13 *251:76 *251:89 8.32143 
14 *251:89 *922:CLK 20.8536 
15 *251:89 *921:CLK 9.83571 
16 *251:74 *920:CLK 21.7107 
*END

*D_NET *252 0.0088006
*CONN
*I *820:A I *D sky130_fd_sc_hd__or2_2
*I *959:A I *D sky130_fd_sc_hd__dlygate4sd3_1
*I *823:A I *D sky130_fd_sc_hd__and4_2
*I *819:A I *D sky130_fd_sc_hd__nand2_2
*I *824:A1 I *D sky130_fd_sc_hd__a31o_2
*I *787:A I *D sky130_fd_sc_hd__xor2_2
*I *896:Q O *D sky130_fd_sc_hd__dfrtp_2
*CAP
1 *820:A 0.0013632
2 *959:A 0
3 *823:A 0
4 *819:A 3.75939e-05
5 *824:A1 0.00021765
6 *787:A 8.13534e-05
7 *896:Q 0
8 *252:56 0.00156374
9 *252:25 0.000473282
10 *252:23 0.000241772
11 *252:10 0.000684728
12 *252:4 0.000780184
13 *787:A *787:B 1.02504e-05
14 *819:A *819:B 5.46383e-06
15 *819:A *823:D 0
16 *820:A *820:B 0.000385341
17 *820:A *1045:A 0
18 *820:A *345:18 3.48705e-05
19 *820:A *364:26 0.000196322
20 *820:A *378:12 0
21 *824:A1 *824:A2 0.000148826
22 *824:A1 *1032:A 0.000169793
23 *824:A1 *263:14 2.67489e-05
24 *252:10 *896:RESET_B 4.27935e-05
25 *252:10 *364:26 9.97876e-05
26 *252:23 *823:D 5.52238e-05
27 *252:25 *823:D 0.0001827
28 *252:25 *263:14 7.02974e-05
29 *252:56 *786:A 2.59355e-05
30 *252:56 *364:26 0.000140444
31 axi_bvalid *820:A 0
32 axi_rdata[29] *820:A 0.0003573
33 axi_rdata[9] *824:A1 3.00761e-05
34 uart_tx *820:A 0
35 *895:CLK *820:A 0.000212526
36 *895:D *820:A 8.95645e-05
37 *896:D *252:10 0.000126416
38 *938:A *820:A 0
39 *14:13 *787:A 8.54057e-05
40 *14:13 *252:10 0.000134088
41 *25:13 *787:A 7.95987e-05
42 *25:13 *252:10 0.000195862
43 *98:8 *820:A 0.000451463
*RES
1 *896:Q *252:4 9.3 
2 *252:4 *252:10 16.0714 
3 *252:10 *787:A 16.05 
4 *252:10 *252:23 5.03571 
5 *252:23 *252:25 3.82143 
6 *252:25 *824:A1 23.3893 
7 *252:25 *819:A 10.0321 
8 *252:23 *823:A 9.3 
9 *252:4 *252:56 3.82143 
10 *252:56 *959:A 9.3 
11 *252:56 *820:A 44.925 
*END

*D_NET *253 0.00711364
*CONN
*I *952:A I *D sky130_fd_sc_hd__dlygate4sd3_1
*I *841:B1_N I *D sky130_fd_sc_hd__o21ba_2
*I *797:A I *D sky130_fd_sc_hd__xor2_2
*I *840:A I *D sky130_fd_sc_hd__and4_2
*I *906:Q O *D sky130_fd_sc_hd__dfrtp_2
*CAP
1 *952:A 0
2 *841:B1_N 4.26164e-05
3 *797:A 0.000854153
4 *840:A 0.000289489
5 *906:Q 0.000625171
6 *253:14 0.00127735
7 *253:12 0.000264415
8 *253:10 0.000713266
9 *797:A *797:B 0.000453842
10 *797:A *834:A1 0.000484088
11 *840:A *834:A1 0.000331566
12 *840:A *965:A 0.000321678
13 *840:A *279:23 7.58841e-05
14 *253:10 *906:RESET_B 0.000133695
15 gpio_out[5] *797:A 1.16543e-05
16 *839:A1 *253:14 0
17 *839:A2 *841:B1_N 5.23822e-05
18 *839:B1 *841:B1_N 9.90431e-05
19 *842:B *253:10 1.41706e-05
20 *842:B *253:12 5.26091e-05
21 *842:B *253:14 2.89965e-05
22 *902:D *840:A 4.36989e-05
23 *905:D *253:14 3.08498e-05
24 *906:D *253:10 0.000136395
25 *205:24 *840:A 0.00048098
26 *210:10 *840:A 0.00018544
27 *211:32 *797:A 1.21258e-05
28 *215:10 *840:A 9.80835e-05
29 *215:19 *253:10 0
*RES
1 *906:Q *253:10 22.0321 
2 *253:10 *253:12 1.94643 
3 *253:12 *253:14 2.55357 
4 *253:14 *840:A 24.3357 
5 *253:14 *797:A 29.4786 
6 *253:12 *841:B1_N 15.175 
7 *253:10 *952:A 13.8 
*END

*D_NET *254 0.00465589
*CONN
*I *873:A I *D sky130_fd_sc_hd__and4_2
*I *875:A I *D sky130_fd_sc_hd__and4_2
*I *844:A I *D sky130_fd_sc_hd__nor2_2
*I *862:A I *D sky130_fd_sc_hd__and4_2
*I *956:A I *D sky130_fd_sc_hd__dlygate4sd3_1
*I *853:A I *D sky130_fd_sc_hd__and3_2
*I *798:A I *D sky130_fd_sc_hd__xor2_2
*I *843:A I *D sky130_fd_sc_hd__and2_2
*I *907:Q O *D sky130_fd_sc_hd__dfrtp_2
*CAP
1 *873:A 0.000290909
2 *875:A 2.46059e-05
3 *844:A 0
4 *862:A 0
5 *956:A 0.000275446
6 *853:A 3.84052e-05
7 *798:A 0
8 *843:A 0
9 *907:Q 0
10 *254:71 9.34147e-05
11 *254:60 6.88089e-05
12 *254:58 0.000433102
13 *254:36 0.000457529
14 *254:25 0.000255187
15 *254:12 0.000406389
16 *254:4 0.000437073
17 *853:A *931:D 9.90367e-05
18 *873:A *931:RESET_B 0
19 *956:A *876:A1 0
20 *956:A *931:D 0.000230482
21 *254:12 *798:B 6.95112e-05
22 *254:12 *931:RESET_B 0
23 *254:25 *798:B 0.000147708
24 *254:36 *798:B 9.54798e-06
25 *254:58 *931:RESET_B 0
26 *844:B *254:71 9.90431e-05
27 *845:B *873:A 5.80706e-06
28 *845:B *254:12 0.000219828
29 *845:B *254:58 0.000103455
30 *853:B *853:A 2.51343e-06
31 *853:B *254:25 7.36794e-05
32 *853:B *254:36 7.41292e-05
33 *853:C *254:36 0
34 *862:C *254:25 0.000203489
35 *862:D *254:36 0
36 *870:A *873:A 5.71472e-05
37 *215:23 *254:25 0.00014183
38 *215:27 *254:25 3.1889e-05
39 *215:35 *875:A 2.95726e-05
40 *215:35 *254:71 0.000131139
41 *215:57 *254:71 5.7661e-06
42 *228:16 *875:A 9.80173e-05
43 *228:16 *254:71 4.14279e-05
44 *247:45 *873:A 0
45 *247:45 *254:58 0
*RES
1 *907:Q *254:4 9.3 
2 *254:4 *254:12 15.375 
3 *254:12 *843:A 9.3 
4 *254:12 *254:25 8.64286 
5 *254:25 *798:A 13.8 
6 *254:25 *254:36 7.66071 
7 *254:36 *853:A 10.2464 
8 *254:36 *956:A 14.3714 
9 *254:4 *254:58 7.39286 
10 *254:58 *254:60 4.5 
11 *254:60 *862:A 9.3 
12 *254:60 *254:71 2.625 
13 *254:71 *844:A 9.3 
14 *254:71 *875:A 10.2464 
15 *254:58 *873:A 18.1214 
*END

*D_NET *255 0.00754334
*CONN
*I *848:A I *D sky130_fd_sc_hd__and3_2
*I *847:A1 I *D sky130_fd_sc_hd__a21oi_2
*I *846:A I *D sky130_fd_sc_hd__xor2_2
*I *799:A I *D sky130_fd_sc_hd__xor2_2
*I *961:A I *D sky130_fd_sc_hd__dlygate4sd3_1
*I *852:A I *D sky130_fd_sc_hd__and4_2
*I *850:A I *D sky130_fd_sc_hd__and4_2
*I *908:Q O *D sky130_fd_sc_hd__dfrtp_2
*CAP
1 *848:A 0.000491845
2 *847:A1 0
3 *846:A 2.1025e-05
4 *799:A 5.28858e-05
5 *961:A 0.000106618
6 *852:A 0
7 *850:A 0.00037988
8 *908:Q 0.000250468
9 *255:80 0.000945785
10 *255:65 0.0006427
11 *255:50 0.00046957
12 *255:16 0.000236614
13 *255:14 0.00046277
14 *799:A *799:B 0.000107409
15 *799:A *1007:A 0.000186662
16 *846:A *802:A 5.71472e-05
17 *848:A *847:B1 2.66715e-05
18 *848:A *848:B 3.47797e-05
19 *850:A *852:B 0.000260909
20 *850:A *256:28 0.00010096
21 *255:14 *365:193 0.000205856
22 *255:16 *852:B 0.000100262
23 *255:16 *852:C 2.44318e-05
24 *255:16 *852:D 1.39726e-05
25 *255:50 *1042:A 9.71118e-06
26 *255:50 *256:28 5.52302e-05
27 *255:50 *365:287 0
28 *255:65 *799:B 0.000123137
29 *255:65 *1010:A 9.52291e-05
30 *255:65 *365:287 0
31 *255:80 *934:D 0
32 *255:80 *934:RESET_B 0
33 *255:80 *256:20 0.000169462
34 *255:80 *365:285 0
35 *255:80 *365:287 0
36 axi_rdata[12] *961:A 0.000196314
37 *848:C *848:A 0.000711197
38 *848:C *255:80 8.36572e-05
39 *849:B *848:A 1.18064e-05
40 *850:D *255:50 5.71472e-05
41 *856:B *848:A 1.76039e-05
42 *910:CLK *255:80 1.02504e-05
43 *933:CLK *255:50 6.02358e-05
44 *933:CLK *255:65 2.42445e-05
45 *989:A *255:65 1.27784e-05
46 *989:A *255:80 0.000138671
47 *149:14 *255:14 1.31939e-05
48 *215:19 *255:14 0
49 *217:42 *255:80 0.000131669
50 *220:12 *848:A 3.69047e-06
51 *222:10 *255:14 7.82431e-05
52 *250:6 *848:A 1.24368e-05
53 *250:10 *848:A 4.18895e-05
54 *250:10 *255:80 0.000306317
*RES
1 *908:Q *255:14 23.3714 
2 *255:14 *255:16 2.17857 
3 *255:16 *850:A 12.7107 
4 *255:16 *852:A 9.3 
5 *255:14 *961:A 20.8536 
6 *850:A *255:50 18.0321 
7 *255:50 *799:A 15.9964 
8 *255:50 *255:65 3.80357 
9 *255:65 *846:A 14.3357 
10 *255:65 *255:80 14.9107 
11 *255:80 *847:A1 9.3 
12 *255:80 *848:A 30.2286 
*END

*D_NET *256 0.00982809
*CONN
*I *848:B I *D sky130_fd_sc_hd__and3_2
*I *847:B1 I *D sky130_fd_sc_hd__a21oi_2
*I *852:B I *D sky130_fd_sc_hd__and4_2
*I *850:B I *D sky130_fd_sc_hd__and4_2
*I *955:A I *D sky130_fd_sc_hd__dlygate4sd3_1
*I *800:A I *D sky130_fd_sc_hd__xor2_2
*I *909:Q O *D sky130_fd_sc_hd__dfrtp_2
*CAP
1 *848:B 0.000388855
2 *847:B1 0.00024905
3 *852:B 4.79979e-05
4 *850:B 0
5 *955:A 0
6 *800:A 0.000423571
7 *909:Q 0.000487497
8 *256:68 0.000788337
9 *256:28 0.000815711
10 *256:20 0.000897214
11 *256:6 0.00109501
12 *800:A *1008:A 0.000303794
13 *848:B *934:D 0
14 *848:B *957:A 0.000265851
15 *848:B *257:29 7.6644e-05
16 *852:B *852:C 0.000304153
17 *852:B *257:29 5.52302e-05
18 *256:6 *909:RESET_B 0.00013324
19 *256:6 *365:283 2.51935e-05
20 *256:20 *257:29 0.000216806
21 *256:28 *933:D 0
22 *256:28 *1007:A 0.000391093
23 *256:28 *257:29 5.52238e-05
24 *256:68 *909:RESET_B 8.36572e-05
25 *256:68 *257:29 0.00019384
26 axi_rdata[13] *800:A 0.000165982
27 axi_rdata[15] *256:20 5.52238e-05
28 *848:A *847:B1 2.66715e-05
29 *848:A *848:B 3.47797e-05
30 *848:C *847:B1 6.27987e-05
31 *848:C *848:B 9.55545e-05
32 *850:A *852:B 0.000260909
33 *850:A *256:28 0.00010096
34 *850:D *256:20 0.000148189
35 *850:D *256:28 1.69961e-05
36 *854:A2 *256:20 0
37 *908:D *256:20 0.000102396
38 *910:CLK *848:B 0
39 *910:CLK *256:68 0
40 *910:D *848:B 0
41 *933:CLK *256:20 4.43256e-05
42 *989:A *256:20 0.000255138
43 *217:20 *256:20 0.000116829
44 *217:42 *847:B1 2.59355e-05
45 *217:42 *256:20 0.000309284
46 *217:42 *256:68 0.000146474
47 *220:12 *848:B 0.000149415
48 *250:6 *847:B1 6.13752e-05
49 *250:40 *256:20 2.59355e-05
50 *255:16 *852:B 0.000100262
51 *255:50 *256:28 5.52302e-05
52 *255:80 *256:20 0.000169462
*RES
1 *909:Q *256:6 15.175 
2 *256:6 *256:20 30.3393 
3 *256:20 *256:28 18.0714 
4 *256:28 *800:A 19.0679 
5 *256:28 *955:A 9.3 
6 *256:20 *850:B 9.3 
7 *256:20 *852:B 12.7107 
8 *256:6 *256:68 8 
9 *256:68 *847:B1 17.6571 
10 *256:68 *848:B 21.8714 
*END

*D_NET *257 0.00637592
*CONN
*I *957:A I *D sky130_fd_sc_hd__dlygate4sd3_1
*I *852:C I *D sky130_fd_sc_hd__and4_2
*I *850:C I *D sky130_fd_sc_hd__and4_2
*I *801:A I *D sky130_fd_sc_hd__xor2_2
*I *910:Q O *D sky130_fd_sc_hd__dfrtp_2
*CAP
1 *957:A 0.000245333
2 *852:C 0.000100713
3 *850:C 0
4 *801:A 0.000435098
5 *910:Q 0.00039396
6 *257:29 0.000532587
7 *257:23 0.000677208
8 *257:6 0.000829057
9 *852:C *852:D 1.33343e-05
10 *957:A *373:8 5.52302e-05
11 *257:6 *910:RESET_B 2.13102e-05
12 *257:29 *1007:A 6.2169e-06
13 *848:B *957:A 0.000265851
14 *848:B *257:29 7.6644e-05
15 *848:C *957:A 1.08359e-05
16 *849:B *957:A 0.000304215
17 *849:B *257:29 0.000524656
18 *850:D *852:C 5.68713e-05
19 *850:D *257:29 0.000262882
20 *852:B *852:C 0.000304153
21 *852:B *257:29 5.52302e-05
22 *854:A2 *852:C 0.000187042
23 *908:D *257:29 5.64954e-05
24 *909:D *257:29 0.000175519
25 *910:CLK *801:A 8.36638e-05
26 *910:D *801:A 1.15281e-05
27 *217:20 *257:29 6.74815e-05
28 *217:42 *257:29 6.9019e-05
29 *250:40 *257:29 6.34847e-05
30 *255:16 *852:C 2.44318e-05
31 *256:20 *257:29 0.000216806
32 *256:28 *257:29 5.52238e-05
33 *256:68 *257:29 0.00019384
*RES
1 *910:Q *257:6 13.5321 
2 *257:6 *801:A 15.3536 
3 *257:6 *257:23 4.5 
4 *257:23 *257:29 18.9286 
5 *257:29 *850:C 9.3 
6 *257:29 *852:C 13.1393 
7 *257:23 *957:A 20.2643 
*END

*D_NET *258 0.00434794
*CONN
*I *953:A I *D sky130_fd_sc_hd__dlygate4sd3_1
*I *852:D I *D sky130_fd_sc_hd__and4_2
*I *854:A1 I *D sky130_fd_sc_hd__o21ba_2
*I *802:A I *D sky130_fd_sc_hd__xor2_2
*I *911:Q O *D sky130_fd_sc_hd__dfrtp_2
*CAP
1 *953:A 9.8346e-05
2 *852:D 0.000254539
3 *854:A1 0
4 *802:A 0.000598223
5 *911:Q 0.000324461
6 *258:20 0.000642212
7 *258:18 0.000430457
8 *258:14 0.000554736
9 *802:A *799:B 0.000474602
10 *802:A *1010:A 5.52238e-05
11 *852:D *799:B 4.10843e-05
12 *852:D *911:RESET_B 0
13 *852:D *365:193 0
14 *258:14 *909:RESET_B 3.27774e-05
15 *258:20 *799:B 6.85252e-05
16 *846:A *802:A 5.71472e-05
17 *852:C *852:D 1.33343e-05
18 *854:A2 *852:D 0.000368203
19 *854:A2 *258:18 3.12359e-05
20 *854:A2 *258:20 5.49489e-05
21 *854:B1_N *258:14 6.23031e-05
22 *854:B1_N *258:18 4.84872e-05
23 *911:D *852:D 3.69047e-06
24 *995:A *852:D 0
25 *217:18 *953:A 0.000119431
26 *255:16 *852:D 1.39726e-05
*RES
1 *911:Q *258:14 18.5857 
2 *258:14 *258:18 7.05357 
3 *258:18 *258:20 1.35714 
4 *258:20 *802:A 20.1393 
5 *258:20 *854:A1 9.3 
6 *258:18 *852:D 23.8536 
7 *258:14 *953:A 15.9786 
*END

*D_NET *259 0.00552245
*CONN
*I *803:A I *D sky130_fd_sc_hd__xor2_2
*I *856:A I *D sky130_fd_sc_hd__xor2_2
*I *858:A1 I *D sky130_fd_sc_hd__a31oi_2
*I *859:A I *D sky130_fd_sc_hd__and4_2
*I *861:A I *D sky130_fd_sc_hd__and4_2
*I *855:A I *D sky130_fd_sc_hd__nand2_2
*I *912:Q O *D sky130_fd_sc_hd__dfrtp_2
*CAP
1 *803:A 0.000237966
2 *856:A 0.000258016
3 *858:A1 0
4 *859:A 0.000271472
5 *861:A 0
6 *855:A 0
7 *912:Q 0.000125013
8 *259:37 0.00047143
9 *259:33 0.000390529
10 *259:22 0.000459069
11 *259:16 0.000857744
12 *259:8 0.00069421
13 *859:A *858:B1 0.000144773
14 *859:A *861:C 9.22103e-06
15 *859:A *861:D 8.90199e-05
16 *859:A *914:RESET_B 0
17 *859:A *1006:A 5.83304e-05
18 *859:A *1040:A 0
19 *259:8 *805:B 0.000102207
20 *259:33 *858:A2 5.52302e-05
21 *259:37 *858:A2 0.000114723
22 *259:37 *858:B1 0.000185643
23 axi_rdata[11] *859:A 3.2534e-05
24 *857:B *259:22 0.000153054
25 *857:B *259:33 9.83442e-05
26 *860:A *803:A 0
27 *912:CLK *259:22 0
28 *913:D *259:22 9.24395e-05
29 *914:D *803:A 0
30 *914:D *259:16 0
31 *915:D *803:A 7.06451e-05
32 *915:D *259:16 0.000106539
33 *149:14 *259:16 7.9317e-06
34 *149:14 *259:22 0
35 *223:29 *259:33 0.000228508
36 *227:19 *859:A 0.000142856
37 *230:33 *859:A 0
38 *250:115 *856:A 6.50024e-05
*RES
1 *912:Q *259:8 15.5679 
2 *259:8 *259:16 5.84821 
3 *259:16 *259:22 10.1696 
4 *259:22 *855:A 9.3 
5 *259:22 *259:33 4.375 
6 *259:33 *259:37 4.25 
7 *259:37 *861:A 9.3 
8 *259:37 *859:A 24.675 
9 *259:33 *858:A1 9.3 
10 *259:16 *856:A 17.9161 
11 *259:8 *803:A 17.8714 
*END

*D_NET *260 0.00549989
*CONN
*I *858:A2 I *D sky130_fd_sc_hd__a31oi_2
*I *859:B I *D sky130_fd_sc_hd__and4_2
*I *861:B I *D sky130_fd_sc_hd__and4_2
*I *947:A I *D sky130_fd_sc_hd__dlygate4sd3_1
*I *804:A I *D sky130_fd_sc_hd__xor2_2
*I *913:Q O *D sky130_fd_sc_hd__dfrtp_2
*CAP
1 *858:A2 0.000194679
2 *859:B 0.000215974
3 *861:B 0.000239481
4 *947:A 6.88185e-05
5 *804:A 8.32476e-05
6 *913:Q 0
7 *260:34 0.00054534
8 *260:10 0.00029554
9 *260:4 0.000428038
10 *804:A *863:A1 0.000356028
11 *858:A2 *858:B1 0.000273269
12 *859:B *859:C 0.000100625
13 *861:B *861:C 2.56601e-05
14 *861:B *914:RESET_B 2.56601e-05
15 *947:A *863:A1 0.000387404
16 *947:A *1012:A 0.000358977
17 *260:10 *912:RESET_B 0.000146474
18 *260:10 *365:327 8.07951e-05
19 *260:34 *857:A 0.000101545
20 *260:34 *861:C 0
21 *260:34 *914:RESET_B 3.34366e-05
22 *260:34 *915:RESET_B 0
23 *859:D *859:B 0.000309661
24 *859:D *260:34 6.28241e-05
25 *860:A *858:A2 3.18676e-05
26 *860:A *260:10 0.000408189
27 *860:A *260:34 0.000222878
28 *863:B1_N *804:A 0.00013073
29 *863:B1_N *947:A 1.21258e-05
30 *914:D *260:10 9.65075e-05
31 *915:CLK *260:34 9.41642e-05
32 *226:10 *260:34 0
33 *259:33 *858:A2 5.52302e-05
34 *259:37 *858:A2 0.000114723
*RES
1 *913:Q *260:4 9.3 
2 *260:4 *260:10 14.2857 
3 *260:10 *804:A 12.7107 
4 *260:10 *947:A 13.1214 
5 *260:4 *260:34 14.5714 
6 *260:34 *861:B 19.3357 
7 *260:34 *859:B 13.9786 
8 *861:B *858:A2 23.6536 
*END

*D_NET *261 0.00274856
*CONN
*I *858:B1 I *D sky130_fd_sc_hd__a31oi_2
*I *805:A I *D sky130_fd_sc_hd__xor2_2
*I *861:C I *D sky130_fd_sc_hd__and4_2
*I *859:C I *D sky130_fd_sc_hd__and4_2
*I *914:Q O *D sky130_fd_sc_hd__dfrtp_2
*CAP
1 *858:B1 7.33948e-05
2 *805:A 0.000211232
3 *861:C 0.000305375
4 *859:C 0.000156453
5 *914:Q 0.000156453
6 *261:16 0.000443213
7 *805:A *806:B 0
8 *805:A *1012:A 0
9 *861:C *861:D 5.71472e-05
10 *861:C *914:RESET_B 0
11 *861:C *915:RESET_B 9.00983e-05
12 axi_rdata[11] *805:A 0.000167256
13 axi_rdata[11] *861:C 0.000191403
14 *858:A2 *858:B1 0.000273269
15 *859:A *858:B1 0.000144773
16 *859:A *861:C 9.22103e-06
17 *859:B *859:C 0.000100625
18 *859:D *859:C 1.74352e-05
19 *861:B *861:C 2.56601e-05
20 *226:10 *805:A 4.38128e-05
21 *226:10 *861:C 9.60939e-05
22 *259:37 *858:B1 0.000185643
23 *260:34 *861:C 0
*RES
1 *914:Q *859:C 20.7786 
2 *914:Q *261:16 9.3 
3 *261:16 *861:C 22.7464 
4 *261:16 *805:A 22.9071 
5 *861:C *858:B1 22.0286 
*END

*D_NET *262 0.00308157
*CONN
*I *950:A I *D sky130_fd_sc_hd__dlygate4sd3_1
*I *806:A I *D sky130_fd_sc_hd__xor2_2
*I *861:D I *D sky130_fd_sc_hd__and4_2
*I *915:Q O *D sky130_fd_sc_hd__dfrtp_2
*CAP
1 *950:A 4.11676e-05
2 *806:A 0.000174007
3 *861:D 0.000331714
4 *915:Q 0
5 *262:19 0.000306422
6 *262:6 0.000422962
7 *861:D *1006:A 0.000230482
8 *861:D *1040:A 0.000342495
9 *950:A *1040:A 0.000144512
10 *262:19 *1040:A 0.000239243
11 axi_rdata[11] *861:D 0.00010096
12 *859:A *861:D 8.90199e-05
13 *861:C *861:D 5.71472e-05
14 *867:A2 *861:D 5.33005e-05
15 *227:19 *861:D 7.48301e-06
16 *228:30 *861:D 4.41726e-05
17 *228:41 *861:D 7.8327e-05
18 *228:73 *861:D 0.000106299
19 *228:73 *950:A 8.39e-05
20 *228:73 *262:19 0.000133797
21 *230:33 *861:D 9.41642e-05
*RES
1 *915:Q *262:6 13.8 
2 *262:6 *861:D 24.05 
3 *262:6 *262:19 3.16071 
4 *262:19 *806:A 16.4071 
5 *262:19 *950:A 15.7464 
*END

*D_NET *263 0.00882579
*CONN
*I *820:B I *D sky130_fd_sc_hd__or2_2
*I *788:A I *D sky130_fd_sc_hd__xor2_2
*I *823:B I *D sky130_fd_sc_hd__and4_2
*I *819:B I *D sky130_fd_sc_hd__nand2_2
*I *824:A2 I *D sky130_fd_sc_hd__a31o_2
*I *897:Q O *D sky130_fd_sc_hd__dfrtp_2
*CAP
1 *820:B 0.001194
2 *788:A 4.01639e-05
3 *823:B 0
4 *819:B 1.95116e-05
5 *824:A2 0.000176612
6 *897:Q 0
7 *263:51 0.00163388
8 *263:14 0.000330699
9 *263:12 0.000418087
10 *263:4 0.000683229
11 *820:B *790:A 9.20633e-05
12 *820:B *1045:A 7.83587e-05
13 *820:B *345:18 0.000518495
14 *820:B *347:18 0.000122091
15 *824:A2 *824:A3 9.71197e-05
16 *824:A2 *824:B1 0.000197858
17 *824:A2 *1032:A 1.12578e-05
18 *824:A2 *315:52 3.49456e-06
19 *263:12 *824:A3 1.03904e-05
20 *263:12 *315:52 0.000194564
21 *263:14 *823:D 5.17614e-05
22 *263:14 *824:B1 0.000303542
23 *263:51 *786:A 5.22575e-05
24 *263:51 *790:B 0.000522451
25 *263:51 *315:52 0.000137471
26 axi_bvalid *820:B 0.000315165
27 axi_rdata[0] *263:51 0.000522451
28 axi_rdata[1] *820:B 9.77821e-05
29 axi_rdata[9] *824:A2 1.12669e-05
30 *819:A *819:B 5.46383e-06
31 *820:A *820:B 0.000385341
32 *824:A1 *824:A2 0.000148826
33 *824:A1 *263:14 2.67489e-05
34 *896:CLK *263:12 7.74135e-05
35 *896:CLK *263:14 5.33005e-05
36 *985:A *820:B 5.09643e-05
37 *14:13 *263:12 9.8126e-05
38 *98:8 *820:B 7.32955e-05
39 *252:25 *263:14 7.02974e-05
*RES
1 *897:Q *263:4 9.3 
2 *263:4 *263:12 13.3393 
3 *263:12 *263:14 3.82143 
4 *263:14 *824:A2 22.675 
5 *263:14 *819:B 9.72857 
6 *263:12 *823:B 9.3 
7 *263:4 *263:51 18.8036 
8 *263:51 *788:A 9.83571 
9 *263:51 *820:B 48.425 
*END

*D_NET *264 0.00576665
*CONN
*I *951:A I *D sky130_fd_sc_hd__dlygate4sd3_1
*I *866:A I *D sky130_fd_sc_hd__and2_2
*I *807:A I *D sky130_fd_sc_hd__xor2_2
*I *865:A1 I *D sky130_fd_sc_hd__a21oi_2
*I *872:A I *D sky130_fd_sc_hd__and3_2
*I *916:Q O *D sky130_fd_sc_hd__dfrtp_2
*CAP
1 *951:A 0.000186812
2 *866:A 0.000420956
3 *807:A 0.000382351
4 *865:A1 0
5 *872:A 0.000396323
6 *916:Q 0
7 *264:12 0.000683701
8 *264:8 0.00102876
9 *264:4 0.0009668
10 *807:A *808:A 0
11 *807:A *864:A 5.33433e-05
12 *807:A *916:RESET_B 0
13 *807:A *1014:A 0
14 *866:A *809:B 0
15 *872:A *874:B 2.09897e-05
16 *951:A *864:A 0.000334028
17 *951:A *1016:A 0.000186662
18 *264:12 *809:A 0
19 *264:12 *865:B1 0
20 *264:12 *874:B 0
21 *264:12 *916:RESET_B 0
22 axi_rdata[20] *866:A 4.6979e-05
23 axi_rdata[20] *264:8 2.23758e-05
24 *868:A1 *872:A 3.0285e-05
25 *870:A *872:A 3.71924e-05
26 *872:C *872:A 0.00018372
27 *916:CLK *807:A 0
28 *916:CLK *264:12 0
29 *916:D *807:A 0.000177234
30 *918:CLK *872:A 4.87953e-05
31 *918:D *872:A 4.10304e-05
32 *973:A *951:A 0.00051831
33 *83:16 *807:A 0
34 *251:47 *872:A 0
35 *251:47 *264:12 0
*RES
1 *916:Q *264:4 9.3 
2 *264:4 *264:8 10.7857 
3 *264:8 *264:12 4.91071 
4 *264:12 *872:A 21.5143 
5 *264:12 *865:A1 13.8 
6 *264:8 *807:A 18.2107 
7 *264:4 *866:A 24.0679 
8 *807:A *951:A 25.85 
*END

*D_NET *265 0.00277195
*CONN
*I *866:B I *D sky130_fd_sc_hd__and2_2
*I *808:A I *D sky130_fd_sc_hd__xor2_2
*I *964:A I *D sky130_fd_sc_hd__dlygate4sd3_1
*I *871:A I *D sky130_fd_sc_hd__and3_2
*I *917:Q O *D sky130_fd_sc_hd__dfrtp_2
*CAP
1 *866:B 9.49534e-05
2 *808:A 0.000536213
3 *964:A 0.000255982
4 *871:A 0.0002296
5 *917:Q 0.000557691
6 *265:6 0.000412107
7 *808:A *807:B 1.24368e-05
8 *808:A *808:B 0
9 *808:A *865:B1 2.65105e-05
10 *808:A *916:RESET_B 0
11 *808:A *1016:A 0
12 *871:A *809:A 5.48488e-05
13 *871:A *865:B1 0
14 *871:A *267:33 1.19309e-05
15 *964:A *865:B1 4.27935e-05
16 *265:6 *865:B1 5.52238e-05
17 axi_rdata[20] *808:A 0.000287849
18 *807:A *808:A 0
19 *972:A *808:A 2.89016e-05
20 *973:A *808:A 4.35141e-05
21 *230:18 *866:B 9.24825e-05
22 *230:18 *871:A 0
23 *230:18 *964:A 2.89114e-05
*RES
1 *917:Q *265:6 9.83571 
2 *265:6 *871:A 22.675 
3 *265:6 *964:A 12.3 
4 *917:Q *808:A 37.35 
5 *964:A *866:B 20.7786 
*END

*D_NET *266 0.00339125
*CONN
*I *809:A I *D sky130_fd_sc_hd__xor2_2
*I *868:B1 I *D sky130_fd_sc_hd__a21oi_2
*I *874:A I *D sky130_fd_sc_hd__and4_2
*I *869:A I *D sky130_fd_sc_hd__and3_2
*I *871:B I *D sky130_fd_sc_hd__and3_2
*I *918:Q O *D sky130_fd_sc_hd__dfrtp_2
*CAP
1 *809:A 0.000149633
2 *868:B1 0
3 *874:A 0
4 *869:A 0.000325628
5 *871:B 0
6 *918:Q 0.000174561
7 *266:31 0.000383918
8 *266:25 0.000140457
9 *266:21 0.000270064
10 *266:12 0.000212825
11 *809:A *874:B 0
12 *809:A *267:33 0
13 *869:A *874:B 5.17614e-05
14 *869:A *1040:A 2.28428e-05
15 *266:12 *267:33 7.83587e-05
16 *266:31 *874:B 7.43578e-06
17 *868:A1 *809:A 0
18 *870:A *869:A 0.000227539
19 *870:A *266:21 0
20 *870:A *266:25 1.04232e-05
21 *870:A *266:31 0.000253919
22 *871:A *809:A 5.48488e-05
23 *872:B *869:A 7.6644e-05
24 *872:C *266:12 0
25 *874:C *869:A 0.000358977
26 *918:D *869:A 5.52238e-05
27 *228:16 *869:A 7.90803e-05
28 *230:18 *266:12 6.62783e-05
29 *230:18 *266:21 2.89114e-05
30 *230:18 *266:25 7.03295e-05
31 *230:18 *266:31 0.000273152
32 *230:27 *869:A 9.22103e-06
33 *230:27 *266:31 9.22103e-06
34 *251:47 *869:A 0
35 *264:12 *809:A 0
*RES
1 *918:Q *266:12 21.1036 
2 *266:12 *871:B 9.3 
3 *266:12 *266:21 0.964286 
4 *266:21 *266:25 1.78571 
5 *266:25 *266:31 3.55357 
6 *266:31 *869:A 26.0321 
7 *266:31 *874:A 9.3 
8 *266:25 *868:B1 9.3 
9 *266:21 *809:A 21.1571 
*END

*D_NET *267 0.00820647
*CONN
*I *810:A I *D sky130_fd_sc_hd__xor2_2
*I *871:C I *D sky130_fd_sc_hd__and3_2
*I *874:B I *D sky130_fd_sc_hd__and4_2
*I *876:A1 I *D sky130_fd_sc_hd__o21ba_2
*I *919:Q O *D sky130_fd_sc_hd__dfrtp_2
*CAP
1 *810:A 0.00108461
2 *871:C 0
3 *874:B 0.000469208
4 *876:A1 0.000706931
5 *919:Q 0
6 *267:33 0.000918706
7 *267:12 0.00131681
8 *267:4 0.00124499
9 *810:A *882:A1 0.0001032
10 *267:12 *879:A 0.000148196
11 *267:12 *919:RESET_B 1.97756e-05
12 *267:33 *879:A 9.60939e-05
13 axi_rdata[25] *810:A 4.57445e-05
14 *809:A *874:B 0
15 *809:A *267:33 0
16 *868:A1 *874:B 5.80706e-06
17 *869:A *874:B 5.17614e-05
18 *871:A *267:33 1.19309e-05
19 *872:A *874:B 2.09897e-05
20 *872:C *267:33 0
21 *876:A2 *876:A1 0.000285712
22 *880:A *267:33 0
23 *880:B *267:33 6.42338e-05
24 *919:D *876:A1 0.000351156
25 *920:CLK *267:12 1.17968e-05
26 *920:CLK *267:33 0.000173804
27 *921:CLK *810:A 2.89114e-05
28 *943:A *876:A1 4.45492e-05
29 *956:A *876:A1 0
30 *230:18 *874:B 0.000173921
31 *230:18 *267:33 0.000138931
32 *230:27 *874:B 4.87854e-05
33 *235:75 *876:A1 1.21258e-05
34 *235:75 *267:12 0.00010326
35 *247:73 *876:A1 3.72171e-05
36 *251:8 *876:A1 0.000173863
37 *251:74 *876:A1 6.05161e-06
38 *251:74 *267:33 1.38323e-05
39 *251:89 *810:A 0.000201714
40 *251:89 *267:12 6.05161e-06
41 *264:12 *874:B 0
42 *266:12 *267:33 7.83587e-05
43 *266:31 *874:B 7.43578e-06
*RES
1 *919:Q *267:4 9.3 
2 *267:4 *267:12 12.1964 
3 *267:12 *876:A1 23.8357 
4 *267:12 *267:33 17.8214 
5 *267:33 *874:B 24.8714 
6 *267:33 *871:C 9.3 
7 *267:4 *810:A 32.3893 
*END

*D_NET *268 0.00681095
*CONN
*I *878:A1 I *D sky130_fd_sc_hd__a21oi_2
*I *879:A I *D sky130_fd_sc_hd__and3_2
*I *811:A I *D sky130_fd_sc_hd__xor2_2
*I *881:A I *D sky130_fd_sc_hd__and4_2
*I *883:A I *D sky130_fd_sc_hd__and4_2
*I *877:A I *D sky130_fd_sc_hd__xor2_2
*I *920:Q O *D sky130_fd_sc_hd__dfrtp_2
*CAP
1 *878:A1 0
2 *879:A 0.000200001
3 *811:A 0.00017956
4 *881:A 0
5 *883:A 0.000165478
6 *877:A 0.000251324
7 *920:Q 0.000748159
8 *268:76 0.00033244
9 *268:25 0.000478782
10 *268:14 0.00100079
11 *883:A *818:B 2.13173e-05
12 *883:A *881:C 0.000250498
13 *883:A *1022:A 9.59532e-06
14 *883:A *1023:A 4.6025e-06
15 *883:A *365:54 2.11419e-05
16 *268:14 *810:B 0.000186354
17 *268:14 *920:RESET_B 0
18 *268:25 *881:B 2.03438e-05
19 *268:25 *920:RESET_B 0.000214342
20 *268:25 *365:54 0.000165026
21 *268:25 *365:64 0.00025938
22 *268:25 *365:107 0.000117196
23 *268:76 *878:B1 0.000139907
24 axi_rdata[22] *811:A 0.000178847
25 axi_rdata[25] *811:A 0.00012401
26 axi_rdata[26] *883:A 2.26973e-05
27 axi_rdata[26] *268:25 0.000310669
28 *877:B *879:A 5.33334e-05
29 *877:B *268:76 8.71278e-05
30 *882:B1_N *268:25 0
31 *884:A1_N *879:A 5.71472e-05
32 *920:CLK *879:A 2.24646e-05
33 *921:D *268:25 6.26466e-05
34 *922:CLK *268:25 0
35 *922:D *268:25 0
36 *923:CLK *879:A 0.00017309
37 *974:A *811:A 9.0145e-05
38 *979:A *883:A 9.21289e-05
39 *235:75 *879:A 0.000136737
40 *239:14 *879:A 5.52238e-05
41 *241:31 *883:A 0.00011802
42 *251:74 *879:A 5.33005e-05
43 *251:76 *879:A 0.000162832
44 *267:12 *879:A 0.000148196
45 *267:33 *879:A 9.60939e-05
*RES
1 *920:Q *268:14 26.6571 
2 *268:14 *877:A 11.0679 
3 *268:14 *268:25 14.3393 
4 *268:25 *883:A 21.7971 
5 *268:25 *881:A 13.8 
6 *920:Q *811:A 31.5464 
7 *877:A *268:76 12.3 
8 *268:76 *879:A 25.2821 
9 *268:76 *878:A1 9.3 
*END

*D_NET *269 0.00562078
*CONN
*I *883:B I *D sky130_fd_sc_hd__and4_2
*I *812:A I *D sky130_fd_sc_hd__xor2_2
*I *881:B I *D sky130_fd_sc_hd__and4_2
*I *878:B1 I *D sky130_fd_sc_hd__a21oi_2
*I *879:B I *D sky130_fd_sc_hd__and3_2
*I *921:Q O *D sky130_fd_sc_hd__dfrtp_2
*CAP
1 *883:B 0.000146383
2 *812:A 7.76385e-05
3 *881:B 0.000364383
4 *878:B1 0.000228778
5 *879:B 0.000163452
6 *921:Q 0.00013345
7 *269:18 0.000533535
8 *269:12 0.000661705
9 *269:10 0.000513489
10 *878:B1 *918:RESET_B 0.000229519
11 *878:B1 *365:79 7.83587e-05
12 *883:B *814:A 0.000135028
13 *269:10 *812:B 0
14 *269:10 *270:10 0
15 *269:12 *884:B2 0.000128419
16 *269:12 *270:8 0.000123902
17 *269:12 *365:79 9.16671e-05
18 *269:18 *884:B2 0.000255972
19 *269:18 *365:79 0.000117801
20 axi_rdata[25] *269:10 0
21 axi_rdata[26] *881:B 0.000129814
22 *877:B *878:B1 0.000139907
23 *880:B *878:B1 0.000195562
24 *882:B1_N *878:B1 2.59795e-05
25 *882:B1_N *881:B 0
26 *884:A1_N *879:B 3.9846e-05
27 *884:A2_N *879:B 0.00018372
28 *884:A2_N *269:18 0
29 *923:CLK *878:B1 0
30 *923:D *879:B 0.000140933
31 *977:A *881:B 5.71472e-05
32 *977:A *883:B 0.00034127
33 *979:A *881:B 6.52967e-05
34 *235:67 *879:B 3.18676e-05
35 *239:14 *878:B1 0.000113773
36 *240:10 *878:B1 1.19402e-05
37 *240:10 *881:B 0
38 *268:25 *881:B 2.03438e-05
39 *268:76 *878:B1 0.000139907
*RES
1 *921:Q *269:10 20.2464 
2 *269:10 *269:12 6.69643 
3 *269:12 *269:18 4.375 
4 *269:18 *879:B 13.1393 
5 *269:18 *878:B1 24.9429 
6 *269:12 *881:B 22.9071 
7 *269:10 *812:A 10.675 
8 *881:B *883:B 22.0107 
*END

*D_NET *270 0.00508684
*CONN
*I *882:A1 I *D sky130_fd_sc_hd__o21ba_2
*I *813:A I *D sky130_fd_sc_hd__xor2_2
*I *883:C I *D sky130_fd_sc_hd__and4_2
*I *881:C I *D sky130_fd_sc_hd__and4_2
*I *922:Q O *D sky130_fd_sc_hd__dfrtp_2
*CAP
1 *882:A1 0.000508583
2 *813:A 0.000242226
3 *883:C 0
4 *881:C 0.00024973
5 *922:Q 0.000214457
6 *270:12 0.000315339
7 *270:10 0.000485497
8 *270:8 0.000900703
9 *813:A *813:B 8.18667e-05
10 *813:A *1022:A 2.89114e-05
11 *881:C *818:B 8.94618e-05
12 *881:C *1022:A 0.000134019
13 *882:A1 *919:RESET_B 0.000147374
14 *882:A1 *365:107 0
15 *270:10 *884:B2 3.52028e-05
16 *270:10 *271:8 2.11543e-05
17 *270:10 *365:64 0
18 *270:10 *365:107 0
19 *270:12 *1022:A 9.95103e-05
20 axi_rdata[26] *881:C 4.89952e-05
21 axi_rdata[27] *813:A 0.000100388
22 axi_rdata[27] *881:C 0.000132297
23 axi_rdata[27] *270:10 1.1594e-05
24 axi_rdata[27] *270:12 0.000137129
25 *810:A *882:A1 0.0001032
26 *882:A2 *882:A1 5.33005e-05
27 *882:B1_N *882:A1 5.52302e-05
28 *883:A *881:C 0.000250498
29 *921:CLK *882:A1 2.28598e-05
30 *922:D *882:A1 0.000225616
31 *979:A *881:C 9.40958e-05
32 *241:31 *881:C 7.1223e-05
33 *251:89 *882:A1 0.000102474
34 *269:10 *270:10 0
35 *269:12 *270:8 0.000123902
*RES
1 *922:Q *270:8 16.8 
2 *270:8 *270:10 3.16071 
3 *270:10 *270:12 1.94643 
4 *270:12 *881:C 24.2257 
5 *270:12 *883:C 13.8 
6 *270:10 *813:A 18.4429 
7 *270:8 *882:A1 23.7464 
*END

*D_NET *271 0.0028804
*CONN
*I *884:B2 I *D sky130_fd_sc_hd__o2bb2a_2
*I *883:D I *D sky130_fd_sc_hd__and4_2
*I *814:A I *D sky130_fd_sc_hd__xor2_2
*I *923:Q O *D sky130_fd_sc_hd__dfrtp_2
*CAP
1 *884:B2 0.000457317
2 *883:D 4.36033e-05
3 *814:A 0.000218103
4 *923:Q 0
5 *271:8 0.000337232
6 *271:6 0.000532843
7 *814:A *1023:A 9.90431e-05
8 *814:A *365:54 1.66761e-05
9 *884:B2 *365:64 2.93957e-05
10 *271:8 *365:54 3.95444e-05
11 *271:8 *365:64 5.99221e-05
12 axi_rdata[27] *814:A 7.55804e-05
13 axi_rdata[27] *271:8 0.00016003
14 *883:B *814:A 0.000135028
15 *977:A *814:A 0.000140481
16 *977:A *883:D 5.33005e-05
17 *241:31 *814:A 4.15526e-05
18 *269:12 *884:B2 0.000128419
19 *269:18 *884:B2 0.000255972
20 *270:10 *884:B2 3.52028e-05
21 *270:10 *271:8 2.11543e-05
*RES
1 *923:Q *271:6 13.8 
2 *271:6 *271:8 2.55357 
3 *271:8 *814:A 19.0857 
4 *271:8 *883:D 14.3357 
5 *271:6 *884:B2 20.3 
*END

*D_NET *272 0.00704122
*CONN
*I *815:A I *D sky130_fd_sc_hd__xor2_2
*I *888:A I *D sky130_fd_sc_hd__and2_2
*I *885:B1 I *D sky130_fd_sc_hd__a21oi_2
*I *886:A I *D sky130_fd_sc_hd__and3_2
*I *924:Q O *D sky130_fd_sc_hd__dfrtp_2
*CAP
1 *815:A 0
2 *888:A 0.00016357
3 *885:B1 0.000159788
4 *886:A 0.000446577
5 *924:Q 7.79341e-05
6 *272:44 0.000824403
7 *272:16 0.00139882
8 *272:12 0.00153123
9 *885:B1 *364:26 2.78729e-05
10 *885:B1 *374:24 2.26973e-05
11 *886:A *788:B 0.000381973
12 *886:A *364:26 4.09856e-05
13 *888:A *818:A 8.07231e-05
14 *272:12 *891:A 0.000120221
15 *272:12 *924:RESET_B 2.89016e-05
16 *272:12 *365:54 0.000118573
17 *272:16 *891:A 0.000183713
18 *272:44 *1024:A 5.12937e-05
19 axi_rdata[31] *272:16 0.000615956
20 *886:B *886:A 0.000114587
21 *891:B *885:B1 1.94879e-05
22 *891:B *272:16 5.44994e-05
23 *891:C *272:16 1.98839e-05
24 *891:C *272:44 1.4487e-05
25 *893:B *272:44 0.000269428
26 *970:A *886:A 5.52238e-05
27 *981:A *888:A 0
28 *981:A *272:12 2.59355e-05
29 *984:A *272:16 1.10073e-05
30 *984:A *272:44 2.59921e-05
31 *235:25 *885:B1 8.6229e-06
32 *237:14 *885:B1 0
33 *237:14 *886:A 9.16074e-05
34 *242:18 *885:B1 0
35 *242:18 *886:A 0
36 *244:14 *888:A 5.52302e-05
*RES
1 *924:Q *272:12 20.4786 
2 *272:12 *272:16 15.3036 
3 *272:16 *886:A 24.1036 
4 *272:16 *885:B1 16.9607 
5 *272:12 *272:44 9.19643 
6 *272:44 *888:A 21.0857 
7 *272:44 *815:A 9.3 
*END

*D_NET *273 0.00472663
*CONN
*I *888:B I *D sky130_fd_sc_hd__and2_2
*I *949:A I *D sky130_fd_sc_hd__dlygate4sd3_1
*I *816:A I *D sky130_fd_sc_hd__xor2_2
*I *925:Q O *D sky130_fd_sc_hd__dfrtp_2
*CAP
1 *888:B 0.00022365
2 *949:A 0.000768826
3 *816:A 0.000501529
4 *925:Q 0.00013933
5 *273:22 0.00135468
6 *816:A *816:B 5.45912e-05
7 *888:B *817:B 1.60269e-05
8 *888:B *818:A 0.000124868
9 *888:B *962:A 0.000121003
10 *888:B *378:12 0
11 *949:A *817:B 6.63961e-05
12 *949:A *894:B 3.14078e-05
13 *949:A *897:RESET_B 0.000110076
14 *949:A *962:A 0.000737257
15 *949:A *374:24 5.33433e-05
16 axi_rdata[30] *888:B 0
17 uart_tx *949:A 0.000370351
18 *895:D *949:A 5.33005e-05
*RES
1 *925:Q *816:A 20.6893 
2 *816:A *273:22 19.2643 
3 *273:22 *949:A 31.2821 
4 *273:22 *888:B 18.4786 
*END

*D_NET *274 0.00640142
*CONN
*I *966:A I *D sky130_fd_sc_hd__dlygate4sd3_1
*I *789:A I *D sky130_fd_sc_hd__xor2_2
*I *824:A3 I *D sky130_fd_sc_hd__a31o_2
*I *823:C I *D sky130_fd_sc_hd__and4_2
*I *898:Q O *D sky130_fd_sc_hd__dfrtp_2
*CAP
1 *966:A 0.000356104
2 *789:A 0.000165369
3 *824:A3 0.000375159
4 *823:C 0
5 *898:Q 0
6 *274:40 0.000819149
7 *274:10 0.00107241
8 *274:4 0.000994922
9 *789:A *1015:A 0.000122091
10 *824:A3 *1035:A 0.000135193
11 *824:A3 *315:52 0.000518568
12 *966:A *1038:A 5.52238e-05
13 *274:10 *1034:A 9.60875e-05
14 *274:10 *1035:A 0.000136767
15 *274:40 *898:RESET_B 9.42929e-05
16 axi_rdata[2] *789:A 1.14477e-05
17 *821:A *789:A 0.000122751
18 *821:A *966:A 7.11841e-05
19 *821:B *789:A 0.000119135
20 *822:B *966:A 0.000172193
21 *824:A2 *824:A3 9.71197e-05
22 *887:B *966:A 9.60939e-05
23 *896:CLK *824:A3 0.000100248
24 *897:D *789:A 5.01117e-05
25 *897:D *966:A 0.000125219
26 *924:D *966:A 4.43256e-05
27 *14:13 *824:A3 1.21531e-05
28 *14:13 *274:10 0.000131769
29 *203:18 *274:10 0.000206219
30 *203:18 *274:40 8.9732e-05
31 *263:12 *824:A3 1.03904e-05
*RES
1 *898:Q *274:4 9.3 
2 *274:4 *274:10 15.0714 
3 *274:10 *823:C 13.8 
4 *274:10 *824:A3 22.425 
5 *274:4 *274:40 8.32143 
6 *274:40 *789:A 18.2821 
7 *274:40 *966:A 21.6036 
*END

*D_NET *275 0.00398608
*CONN
*I *817:A I *D sky130_fd_sc_hd__xor2_2
*I *963:A I *D sky130_fd_sc_hd__dlygate4sd3_1
*I *891:A I *D sky130_fd_sc_hd__and4_2
*I *926:Q O *D sky130_fd_sc_hd__dfrtp_2
*CAP
1 *817:A 0.000111618
2 *963:A 0.000180015
3 *891:A 0.000596882
4 *926:Q 0
5 *275:6 0.00108525
6 *275:4 0.000419969
7 *891:A *890:A1 0.000311983
8 *891:A *1038:A 7.74068e-05
9 *891:A *347:18 0
10 *891:A *365:30 3.81995e-05
11 *891:A *365:44 4.75812e-05
12 *891:A *365:54 2.90297e-05
13 *963:A *928:RESET_B 4.3143e-05
14 *963:A *365:10 5.86251e-05
15 *963:A *365:12 0.00014104
16 *963:A *365:23 1.6806e-05
17 *963:A *374:24 0.000233294
18 *891:B *891:A 0.00010096
19 *891:C *891:A 5.33005e-05
20 *891:D *891:A 0.000129568
21 *925:D *891:A 0
22 *984:A *891:A 7.48301e-06
23 *272:12 *891:A 0.000120221
24 *272:16 *891:A 0.000183713
*RES
1 *926:Q *275:4 9.3 
2 *275:4 *275:6 3.41071 
3 *275:6 *891:A 30.8714 
4 *275:6 *963:A 24.1929 
5 *275:4 *817:A 11.3893 
*END

*D_NET *276 0.0046832
*CONN
*I *818:A I *D sky130_fd_sc_hd__xor2_2
*I *962:A I *D sky130_fd_sc_hd__dlygate4sd3_1
*I *927:Q O *D sky130_fd_sc_hd__dfrtp_2
*CAP
1 *818:A 0.000507616
2 *962:A 0.000512995
3 *927:Q 0.00102061
4 *818:A *815:B 1.95431e-05
5 *818:A *378:12 0
6 *962:A *345:18 0.00112662
7 axi_rdata[30] *962:A 0.000106926
8 uart_tx *962:A 0.000317604
9 *888:A *818:A 8.07231e-05
10 *888:B *818:A 0.000124868
11 *888:B *962:A 0.000121003
12 *949:A *962:A 0.000737257
13 *980:A *818:A 7.43578e-06
*RES
1 *927:Q *962:A 46.7786 
2 *927:Q *818:A 36.4036 
*END

*D_NET *277 0.00473769
*CONN
*I *824:B1 I *D sky130_fd_sc_hd__a31o_2
*I *790:A I *D sky130_fd_sc_hd__xor2_2
*I *823:D I *D sky130_fd_sc_hd__and4_2
*I *899:Q O *D sky130_fd_sc_hd__dfrtp_2
*CAP
1 *824:B1 0.000332625
2 *790:A 0.000402616
3 *823:D 0.00112911
4 *899:Q 0
5 *277:4 0.0011991
6 *790:A *898:RESET_B 0
7 *824:B1 *796:B 1.34741e-05
8 axi_rdata[1] *790:A 3.67257e-05
9 axi_rdata[3] *790:A 0.000493428
10 axi_rdata[9] *824:B1 7.74135e-05
11 *819:A *823:D 0
12 *820:B *790:A 9.20633e-05
13 *824:A2 *824:B1 0.000197858
14 *896:CLK *823:D 3.98547e-05
15 *899:CLK *823:D 2.89114e-05
16 *985:A *790:A 0
17 *242:18 *823:D 3.67142e-05
18 *249:16 *823:D 6.45648e-05
19 *252:23 *823:D 5.52238e-05
20 *252:25 *823:D 0.0001827
21 *263:14 *823:D 5.17614e-05
22 *263:14 *824:B1 0.000303542
*RES
1 *899:Q *277:4 9.3 
2 *277:4 *823:D 20.5679 
3 *277:4 *790:A 27.2286 
4 *823:D *824:B1 32.7607 
*END

*D_NET *278 0.00469202
*CONN
*I *791:A I *D sky130_fd_sc_hd__xor2_2
*I *832:A I *D sky130_fd_sc_hd__and4_2
*I *830:A1 I *D sky130_fd_sc_hd__a31o_2
*I *829:A I *D sky130_fd_sc_hd__and4_2
*I *827:A I *D sky130_fd_sc_hd__xor2_2
*I *826:A I *D sky130_fd_sc_hd__nand2_2
*I *900:Q O *D sky130_fd_sc_hd__dfrtp_2
*CAP
1 *791:A 0.000164313
2 *832:A 6.21598e-05
3 *830:A1 8.3516e-05
4 *829:A 0
5 *827:A 0
6 *826:A 0
7 *900:Q 0.000187619
8 *278:51 0.000158807
9 *278:44 0.000173199
10 *278:31 0.000295838
11 *278:14 0.000720448
12 *278:6 0.00093661
13 *791:A *791:B 0
14 *791:A *1033:A 2.84026e-05
15 *830:A1 *830:A2 0.000101233
16 *830:A1 *830:B1 3.84349e-05
17 *832:A *830:A2 1.83136e-05
18 *832:A *279:29 2.70242e-05
19 *278:31 *791:B 6.84493e-05
20 *278:44 *828:A 0
21 *278:44 *830:A2 4.85049e-06
22 *278:51 *830:A2 1.83053e-05
23 *826:B *278:31 0.000158569
24 *826:B *278:44 2.48938e-05
25 *828:B *278:44 0
26 *829:D *832:A 9.97684e-05
27 *830:A3 *830:A1 2.30861e-05
28 *830:A3 *278:44 3.29297e-05
29 *900:CLK *278:14 0.000144725
30 *901:CLK *278:31 0.000116262
31 *901:CLK *278:44 4.1331e-06
32 *901:D *278:44 9.80029e-05
33 *986:A *278:14 0
34 *986:A *278:31 7.01075e-05
35 *990:A *791:A 5.65955e-05
36 *205:28 *832:A 0.000300743
37 *205:28 *278:44 5.49544e-05
38 *205:28 *278:51 4.33908e-05
39 *205:30 *278:44 0.000321378
40 *248:20 *278:31 5.49544e-05
*RES
1 *900:Q *278:6 11.4786 
2 *278:6 *278:14 16.3929 
3 *278:14 *826:A 9.3 
4 *278:14 *278:31 8.78571 
5 *278:31 *827:A 13.8 
6 *278:31 *278:44 9.71429 
7 *278:44 *829:A 9.3 
8 *278:44 *278:51 0.535714 
9 *278:51 *830:A1 20.55 
10 *278:51 *832:A 12.3 
11 *278:6 *791:A 20.7821 
*END

*D_NET *279 0.00489774
*CONN
*I *965:A I *D sky130_fd_sc_hd__dlygate4sd3_1
*I *832:B I *D sky130_fd_sc_hd__and4_2
*I *829:B I *D sky130_fd_sc_hd__and4_2
*I *830:A2 I *D sky130_fd_sc_hd__a31o_2
*I *792:A I *D sky130_fd_sc_hd__xor2_2
*I *901:Q O *D sky130_fd_sc_hd__dfrtp_2
*CAP
1 *965:A 0.000123706
2 *832:B 0
3 *829:B 0
4 *830:A2 0.000102533
5 *792:A 0.000221664
6 *901:Q 2.94296e-05
7 *279:29 0.000179587
8 *279:27 0.000239892
9 *279:23 0.000493662
10 *279:8 0.000458211
11 *792:A *1033:A 9.79406e-05
12 *279:8 *792:B 0.000139907
13 *279:8 *1033:A 0.000139907
14 *279:23 *900:RESET_B 0
15 *279:23 *1033:A 1.17968e-05
16 *279:27 *832:D 0.000306309
17 *279:27 *834:A1 5.50052e-05
18 *279:27 *280:16 4.17433e-05
19 *279:27 *280:18 5.65955e-05
20 *279:29 *280:18 0.000311975
21 *829:D *279:29 0.000268585
22 *830:A1 *830:A2 0.000101233
23 *830:A3 *830:A2 5.32071e-05
24 *832:A *830:A2 1.83136e-05
25 *832:A *279:29 2.70242e-05
26 *840:A *965:A 0.000321678
27 *840:A *279:23 7.58841e-05
28 *902:D *279:23 4.70626e-05
29 *903:CLK *792:A 4.98351e-05
30 *903:D *792:A 0.000147706
31 *903:D *965:A 0.000284823
32 *903:D *279:23 0.000451145
33 *994:A *792:A 0
34 *205:24 *279:27 1.8226e-05
35 *278:44 *830:A2 4.85049e-06
36 *278:51 *830:A2 1.83053e-05
*RES
1 *901:Q *279:8 15.1571 
2 *279:8 *792:A 18.55 
3 *279:8 *279:23 5.89286 
4 *279:23 *279:27 8.32143 
5 *279:27 *279:29 3.41071 
6 *279:29 *830:A2 20.5857 
7 *279:29 *829:B 9.3 
8 *279:27 *832:B 9.3 
9 *279:23 *965:A 18.175 
*END

*D_NET *280 0.00486788
*CONN
*I *793:A I *D sky130_fd_sc_hd__xor2_2
*I *832:C I *D sky130_fd_sc_hd__and4_2
*I *829:C I *D sky130_fd_sc_hd__and4_2
*I *830:B1 I *D sky130_fd_sc_hd__a31o_2
*I *902:Q O *D sky130_fd_sc_hd__dfrtp_2
*CAP
1 *793:A 0.000329562
2 *832:C 0
3 *829:C 0
4 *830:B1 5.76859e-05
5 *902:Q 0.000167411
6 *280:18 0.000299567
7 *280:16 0.00108025
8 *280:6 0.00133535
9 *793:A *281:12 0.000128896
10 *280:6 *902:RESET_B 0.00013324
11 axi_rdata[5] *793:A 0.00023157
12 *828:B *280:16 0
13 *830:A1 *830:B1 3.84349e-05
14 *987:A *793:A 0.00023904
15 *988:A *793:A 7.58938e-05
16 *208:8 *830:B1 3.0102e-05
17 *248:10 *280:16 0.000254207
18 *248:14 *280:16 5.63598e-05
19 *279:27 *280:16 4.17433e-05
20 *279:27 *280:18 5.65955e-05
21 *279:29 *280:18 0.000311975
*RES
1 *902:Q *280:6 11.4786 
2 *280:6 *280:16 19.8929 
3 *280:16 *280:18 3.41071 
4 *280:18 *830:B1 19.6393 
5 *280:18 *829:C 9.3 
6 *280:16 *832:C 9.3 
7 *280:6 *793:A 27.5321 
*END

*D_NET *281 0.00438253
*CONN
*I *794:A I *D sky130_fd_sc_hd__xor2_2
*I *948:A I *D sky130_fd_sc_hd__dlygate4sd3_1
*I *832:D I *D sky130_fd_sc_hd__and4_2
*I *903:Q O *D sky130_fd_sc_hd__dfrtp_2
*CAP
1 *794:A 0.000230533
2 *948:A 3.7201e-05
3 *832:D 0.000231883
4 *903:Q 0.000372653
5 *281:20 0.00056854
6 *281:12 0.00090264
7 *794:A *792:B 6.57032e-05
8 *794:A *794:B 4.70821e-05
9 *281:12 *903:RESET_B 4.90118e-05
10 *281:20 *792:B 1.02821e-05
11 *281:20 *901:RESET_B 0.000125731
12 *281:20 *1033:A 0.000267377
13 *793:A *281:12 0.000128896
14 *903:D *832:D 3.3116e-05
15 *903:D *281:20 0.000121929
16 *987:A *832:D 2.43391e-05
17 *987:A *281:20 0.000127357
18 *988:A *281:12 0.000245079
19 *994:A *281:20 0.000115206
20 *205:24 *832:D 2.56811e-05
21 *210:10 *832:D 0.00034043
22 *215:10 *832:D 5.54817e-06
23 *279:27 *832:D 0.000306309
*RES
1 *903:Q *281:12 24.4607 
2 *281:12 *281:20 12.6071 
3 *281:20 *832:D 19.4429 
4 *281:20 *948:A 14.3357 
5 *281:12 *794:A 12.7107 
*END

*D_NET *282 0.0103831
*CONN
*I *960:A I *D sky130_fd_sc_hd__dlygate4sd3_1
*I *795:A I *D sky130_fd_sc_hd__xor2_2
*I *835:A I *D sky130_fd_sc_hd__xnor2_2
*I *837:A I *D sky130_fd_sc_hd__nand2_2
*I *836:A I *D sky130_fd_sc_hd__and2_2
*I *838:A1 I *D sky130_fd_sc_hd__a31o_2
*I *904:Q O *D sky130_fd_sc_hd__dfrtp_2
*CAP
1 *960:A 0.00111642
2 *795:A 0.000637166
3 *835:A 0
4 *837:A 0
5 *836:A 0.000216927
6 *838:A1 8.87843e-06
7 *904:Q 0
8 *282:29 0.000411435
9 *282:16 0.000406455
10 *282:10 0.000242117
11 *282:8 0.0016326
12 *282:4 0.0020728
13 *795:A *796:A 8.22674e-05
14 *795:A *796:B 0.000516995
15 *795:A *1032:A 4.88284e-05
16 *836:A *837:B 0.00018372
17 *960:A *822:A 4.69063e-05
18 *960:A *897:RESET_B 7.54643e-05
19 *960:A *928:D 0.000285278
20 *960:A *1038:A 0.000172722
21 *960:A *347:18 0.000361608
22 *282:29 *365:177 7.15687e-05
23 *282:29 *365:181 5.4447e-05
24 *282:29 *365:213 2.88517e-05
25 *833:B *282:8 5.74499e-06
26 *833:B *282:10 4.51148e-05
27 *833:B *282:16 3.11088e-05
28 *835:B *282:8 4.97967e-05
29 *838:A3 *282:16 0.000389447
30 *840:D *795:A 0.000331154
31 *840:D *282:16 0
32 *889:A *838:A1 3.04665e-05
33 *889:B *282:16 7.80714e-06
34 *892:B *838:A1 3.04665e-05
35 *904:CLK *282:8 9.58632e-05
36 *904:D *282:8 2.71018e-05
37 *926:CLK *960:A 4.11572e-05
38 *926:D *960:A 0.00022197
39 *203:18 *795:A 7.85863e-05
40 *206:16 *795:A 0.0001399
41 *241:43 *282:29 9.46064e-05
42 *243:12 *282:16 2.84398e-05
43 *243:12 *282:29 6.09572e-05
*RES
1 *904:Q *282:4 9.3 
2 *282:4 *282:8 11.125 
3 *282:8 *282:10 0.946429 
4 *282:10 *282:16 10.0179 
5 *282:16 *838:A1 14.1036 
6 *282:16 *282:29 9.48214 
7 *282:29 *836:A 13.1393 
8 *282:29 *837:A 9.3 
9 *282:10 *835:A 9.3 
10 *282:8 *795:A 41.5857 
11 *282:4 *960:A 37.3714 
*END

*D_NET *283 0.00773526
*CONN
*I *954:A I *D sky130_fd_sc_hd__dlygate4sd3_1
*I *836:B I *D sky130_fd_sc_hd__and2_2
*I *837:B I *D sky130_fd_sc_hd__nand2_2
*I *838:B1 I *D sky130_fd_sc_hd__a31o_2
*I *796:A I *D sky130_fd_sc_hd__xor2_2
*I *905:Q O *D sky130_fd_sc_hd__dfrtp_2
*CAP
1 *954:A 0.000201737
2 *836:B 0
3 *837:B 7.92387e-05
4 *838:B1 4.50915e-05
5 *796:A 0.000971533
6 *905:Q 0.000106125
7 *283:46 0.000290282
8 *283:33 0.000310426
9 *283:31 0.000356088
10 *283:8 0.00117772
11 *796:A *795:B 0.000129868
12 *796:A *796:B 9.28247e-05
13 *796:A *1035:A 0.000162346
14 *283:8 *905:RESET_B 0.000136727
15 axi_rdata[9] *796:A 0
16 *795:A *796:A 8.22674e-05
17 *836:A *837:B 0.00018372
18 *838:A2 *954:A 1.33343e-05
19 *838:A2 *283:33 1.54142e-05
20 *840:D *283:46 0.000168983
21 *889:A *838:B1 0.000178847
22 *889:A *283:33 0.000224596
23 *892:B *838:B1 0.00018077
24 *892:B *954:A 1.38323e-05
25 *892:B *283:33 0.000255068
26 *899:D *954:A 0
27 *904:CLK *796:A 9.8126e-05
28 *904:CLK *283:31 6.90779e-05
29 *982:A *954:A 0.000139913
30 *991:A *796:A 0
31 *14:13 *796:A 0
32 *14:13 *954:A 0.000148911
33 *203:18 *796:A 0.000146765
34 *205:14 *796:A 0.000216302
35 *205:20 *796:A 9.41642e-05
36 *205:77 *796:A 0.000179024
37 *205:88 *796:A 0.000325122
38 *205:88 *283:31 0.000265255
39 *206:16 *796:A 0.000371524
40 *206:16 *283:31 9.74588e-05
41 *241:43 *283:46 1.46624e-05
42 *247:15 *283:46 0.000192123
*RES
1 *905:Q *283:8 15.1571 
2 *283:8 *796:A 45.4429 
3 *283:8 *283:31 7.96429 
4 *283:31 *283:33 2.58929 
5 *283:33 *838:B1 11.0679 
6 *283:33 *283:46 13.9821 
7 *283:46 *837:B 11.0679 
8 *283:46 *836:B 9.3 
9 *283:31 *954:A 22.4429 
*END

*D_NET *284 0.00184784
*CONN
*I *787:B I *D sky130_fd_sc_hd__xor2_2
*I *967:X O *D sky130_fd_sc_hd__clkdlybuf4s25_1
*CAP
1 *787:B 0.000443494
2 *967:X 0.000443494
3 *787:B *1034:A 0.000144995
4 *787:B *316:12 0.000486441
5 *787:A *787:B 1.02504e-05
6 *14:13 *787:B 4.98055e-06
7 *25:13 *787:B 0.000314188
*RES
1 *967:X *787:B 27.0143 
*END

*D_NET *285 0.00316809
*CONN
*I *805:B I *D sky130_fd_sc_hd__xor2_2
*I *968:X O *D sky130_fd_sc_hd__clkdlybuf4s25_1
*CAP
1 *805:B 0.00115779
2 *968:X 0.00115779
3 *805:B *804:B 8.90448e-05
4 *805:B *912:RESET_B 0.000263204
5 *805:B *1013:A 0.000384398
6 *863:B1_N *805:B 8.25843e-06
7 *915:D *805:B 0
8 *84:16 *805:B 5.39629e-06
9 *259:8 *805:B 0.000102207
*RES
1 *968:X *805:B 36.9875 
*END

*D_NET *286 0.00226448
*CONN
*I *857:A I *D sky130_fd_sc_hd__xnor2_2
*I *947:X O *D sky130_fd_sc_hd__dlygate4sd3_1
*CAP
1 *857:A 0.00080867
2 *947:X 0.00080867
3 *859:D *857:A 0.000361099
4 *860:A *857:A 0.000184495
5 *226:10 *857:A 0
6 *260:34 *857:A 0.000101545
*RES
1 *947:X *857:A 40.9393 
*END

*D_NET *287 0.00199006
*CONN
*I *834:A1 I *D sky130_fd_sc_hd__o21a_2
*I *948:X O *D sky130_fd_sc_hd__dlygate4sd3_1
*CAP
1 *834:A1 0.000298399
2 *948:X 0.000298399
3 *834:A1 *828:A 2.12087e-05
4 *797:A *834:A1 0.000484088
5 *834:A2 *834:A1 2.85321e-05
6 *834:B1 *834:A1 0.000225982
7 *839:A1 *834:A1 8.67814e-06
8 *840:A *834:A1 0.000331566
9 *902:D *834:A1 0.000169233
10 *211:32 *834:A1 6.89649e-05
11 *279:27 *834:A1 5.50052e-05
*RES
1 *948:X *834:A1 37.1536 
*END

*D_NET *288 0.0020798
*CONN
*I *890:A1 I *D sky130_fd_sc_hd__o21ba_2
*I *949:X O *D sky130_fd_sc_hd__dlygate4sd3_1
*CAP
1 *890:A1 0.0003676
2 *949:X 0.0003676
3 *890:A1 *897:RESET_B 5.39629e-06
4 *890:A1 *1038:A 0.000122018
5 *890:A1 *365:10 0.000120689
6 *890:A1 *365:12 0.00015726
7 *890:A1 *365:23 0.000103767
8 *890:A1 *365:30 0.000185567
9 *891:A *890:A1 0.000311983
10 *898:CLK *890:A1 0.000146991
11 *249:141 *890:A1 0.000190934
*RES
1 *949:X *890:A1 39.4929 
*END

*D_NET *289 0.00214726
*CONN
*I *863:A1 I *D sky130_fd_sc_hd__o21ba_2
*I *950:X O *D sky130_fd_sc_hd__dlygate4sd3_1
*CAP
1 *863:A1 0.00059016
2 *950:X 0.00059016
3 *863:A1 *804:B 7.27054e-05
4 *863:A1 *1012:A 0.000142053
5 *804:A *863:A1 0.000356028
6 *863:B1_N *863:A1 8.75059e-06
7 *947:A *863:A1 0.000387404
*RES
1 *950:X *863:A1 30.2429 
*END

*D_NET *290 0.00162643
*CONN
*I *864:A I *D sky130_fd_sc_hd__xor2_2
*I *951:X O *D sky130_fd_sc_hd__dlygate4sd3_1
*CAP
1 *864:A 0.000590955
2 *951:X 0.000590955
3 *864:A *1016:A 5.71472e-05
4 *807:A *864:A 5.33433e-05
5 *951:A *864:A 0.000334028
*RES
1 *951:X *864:A 28.6 
*END

*D_NET *291 0.00138182
*CONN
*I *806:B I *D sky130_fd_sc_hd__xor2_2
*I *969:X O *D sky130_fd_sc_hd__clkdlybuf4s25_1
*CAP
1 *806:B 0.000562465
2 *969:X 0.000562465
3 *806:B *1012:A 0.000123903
4 *806:B *1040:A 0
5 axi_rdata[11] *806:B 0
6 *805:A *806:B 0
7 *860:B *806:B 5.52238e-05
8 *969:A *806:B 7.77652e-05
*RES
1 *969:X *806:B 26.9071 
*END

*D_NET *292 0.00490695
*CONN
*I *788:B I *D sky130_fd_sc_hd__xor2_2
*I *970:X O *D sky130_fd_sc_hd__clkdlybuf4s25_1
*CAP
1 *788:B 0.00121579
2 *970:X 0.00121579
3 *788:B *790:B 0.00018244
4 *788:B *816:B 5.52238e-05
5 *788:B *904:RESET_B 7.48554e-05
6 *788:B *929:D 8.17626e-05
7 *788:B *1004:A 0.000774054
8 *788:B *364:26 0
9 axi_rdata[0] *788:B 0.000869837
10 *886:A *788:B 0.000381973
11 *970:A *788:B 5.52238e-05
12 *985:A *788:B 0
13 *25:13 *788:B 0
14 *242:18 *788:B 0
*RES
1 *970:X *788:B 47.6036 
*END

*D_NET *293 0.000894419
*CONN
*I *807:B I *D sky130_fd_sc_hd__xor2_2
*I *971:X O *D sky130_fd_sc_hd__clkdlybuf4s25_1
*CAP
1 *807:B 0.000398368
2 *971:X 0.000398368
3 *808:A *807:B 1.24368e-05
4 *971:A *807:B 3.18676e-05
5 *973:A *807:B 5.33786e-05
*RES
1 *971:X *807:B 23.7643 
*END

*D_NET *294 0.00182804
*CONN
*I *808:B I *D sky130_fd_sc_hd__xor2_2
*I *972:X O *D sky130_fd_sc_hd__clkdlybuf4s25_1
*CAP
1 *808:B 0.00058551
2 *972:X 0.00058551
3 *808:B *1017:A 0.000363837
4 *808:A *808:B 0
5 *972:A *808:B 0.000293182
*RES
1 *972:X *808:B 20.8804 
*END

*D_NET *295 0.00160389
*CONN
*I *809:B I *D sky130_fd_sc_hd__xor2_2
*I *973:X O *D sky130_fd_sc_hd__clkdlybuf4s25_1
*CAP
1 *809:B 0.000686706
2 *973:X 0.000686706
3 *809:B *1018:A 0.000230475
4 *866:A *809:B 0
*RES
1 *973:X *809:B 30.9161 
*END

*D_NET *296 0.00116839
*CONN
*I *810:B I *D sky130_fd_sc_hd__xor2_2
*I *974:X O *D sky130_fd_sc_hd__clkdlybuf4s25_1
*CAP
1 *810:B 0.000421109
2 *974:X 0.000421109
3 *810:B *920:RESET_B 1.41029e-05
4 *920:D *810:B 0.000125717
5 *268:14 *810:B 0.000186354
*RES
1 *974:X *810:B 26.5411 
*END

*D_NET *297 0.00134168
*CONN
*I *811:B I *D sky130_fd_sc_hd__xor2_2
*I *975:X O *D sky130_fd_sc_hd__clkdlybuf4s25_1
*CAP
1 *811:B 0.00035027
2 *975:X 0.00035027
3 *811:B *812:B 0.000125724
4 *811:B *1019:A 0.000387432
5 axi_bresp[0] *811:B 0
6 axi_rdata[25] *811:B 0.00012798
*RES
1 *975:X *811:B 27.2286 
*END

*D_NET *298 0.00251413
*CONN
*I *812:B I *D sky130_fd_sc_hd__xor2_2
*I *976:X O *D sky130_fd_sc_hd__clkdlybuf4s25_1
*CAP
1 *812:B 0.000518252
2 *976:X 0.000518252
3 *812:B *1019:A 0.00019197
4 *812:B *1021:A 0
5 axi_rdata[24] *812:B 0.000276358
6 axi_rdata[25] *812:B 0.000883571
7 *811:B *812:B 0.000125724
8 *269:10 *812:B 0
*RES
1 *976:X *812:B 32.2464 
*END

*D_NET *299 0.00253996
*CONN
*I *813:B I *D sky130_fd_sc_hd__xor2_2
*I *977:X O *D sky130_fd_sc_hd__clkdlybuf4s25_1
*CAP
1 *813:B 0.00100049
2 *977:X 0.00100049
3 *813:B *923:RESET_B 4.70821e-05
4 *813:B *1022:A 5.52302e-05
5 *813:A *813:B 8.18667e-05
6 *884:A2_N *813:B 0.00012624
7 *945:A *813:B 0.000228558
*RES
1 *977:X *813:B 32.3804 
*END

*D_NET *300 0.00134687
*CONN
*I *797:B I *D sky130_fd_sc_hd__xor2_2
*I *978:X O *D sky130_fd_sc_hd__clkdlybuf4s25_1
*CAP
1 *797:B 0.000331732
2 *978:X 0.000331732
3 *797:B *1042:A 5.66971e-05
4 gpio_out[5] *797:B 0.000139104
5 *797:A *797:B 0.000453842
6 *830:A3 *797:B 3.37618e-05
*RES
1 *978:X *797:B 26.9696 
*END

*D_NET *301 0.00254199
*CONN
*I *814:B I *D sky130_fd_sc_hd__xor2_2
*I *979:X O *D sky130_fd_sc_hd__clkdlybuf4s25_1
*CAP
1 *814:B 0.000777428
2 *979:X 0.000777428
3 *814:B *1022:A 0
4 *814:B *1023:A 3.34672e-05
5 *980:A *814:B 0.000953662
*RES
1 *979:X *814:B 29.4071 
*END

*D_NET *302 0.00420511
*CONN
*I *815:B I *D sky130_fd_sc_hd__xor2_2
*I *980:X O *D sky130_fd_sc_hd__clkdlybuf4s25_1
*CAP
1 *815:B 0.000491388
2 *980:X 0.000491388
3 *815:B *818:B 0.00130802
4 *815:B *1028:A 0.00089161
5 *815:B *374:24 5.91832e-05
6 axi_rdata[28] *815:B 0.000680835
7 axi_rdata[3] *815:B 5.01876e-06
8 *818:A *815:B 1.95431e-05
9 *891:B *815:B 2.24813e-05
10 *979:A *815:B 0
11 *984:A *815:B 0.000169731
12 *242:18 *815:B 6.59118e-05
*RES
1 *980:X *815:B 29.5293 
*END

*D_NET *303 0.00331488
*CONN
*I *816:B I *D sky130_fd_sc_hd__xor2_2
*I *981:X O *D sky130_fd_sc_hd__clkdlybuf4s25_1
*CAP
1 *816:B 0.001194
2 *981:X 0.001194
3 *816:B *929:RESET_B 2.74795e-05
4 *816:B *1038:A 6.0557e-05
5 *816:B *347:18 0.000298893
6 *788:B *816:B 5.52238e-05
7 *816:A *816:B 5.45912e-05
8 *887:B *816:B 0.000146508
9 *924:CLK *816:B 5.91336e-05
10 *924:D *816:B 0.000139907
11 *925:D *816:B 5.03772e-05
12 *926:D *816:B 1.03483e-05
13 *981:A *816:B 2.38671e-05
14 *249:95 *816:B 0
15 *249:108 *816:B 0
*RES
1 *981:X *816:B 37.3625 
*END

*D_NET *304 0.00711558
*CONN
*I *789:B I *D sky130_fd_sc_hd__xor2_2
*I *982:X O *D sky130_fd_sc_hd__clkdlybuf4s25_1
*CAP
1 *789:B 0.00284392
2 *982:X 0.00284392
3 *789:B *894:B 0
4 *789:B *347:18 0.00034664
5 *789:B *356:24 0.000623003
6 *840:D *789:B 0.000137259
7 *898:CLK *789:B 0
8 *994:A *789:B 0.000189072
9 *247:15 *789:B 0.000131773
*RES
1 *982:X *789:B 44.7206 
*END

*D_NET *305 0.00532612
*CONN
*I *817:B I *D sky130_fd_sc_hd__xor2_2
*I *983:X O *D sky130_fd_sc_hd__clkdlybuf4s25_1
*CAP
1 *817:B 0.00166191
2 *983:X 0.00166191
3 *817:B *1025:A 0.00015244
4 *817:B *378:12 2.6044e-05
5 gpio_out[1] *817:B 0.000483377
6 *888:B *817:B 1.60269e-05
7 *889:C *817:B 0
8 *949:A *817:B 6.63961e-05
9 *983:A *817:B 0.00112468
10 *14:13 *817:B 6.57026e-05
11 *205:88 *817:B 6.76337e-05
*RES
1 *983:X *817:B 33.4712 
*END

*D_NET *306 0.00310954
*CONN
*I *818:B I *D sky130_fd_sc_hd__xor2_2
*I *984:X O *D sky130_fd_sc_hd__clkdlybuf4s25_1
*CAP
1 *818:B 0.000600752
2 *984:X 0.000600752
3 *818:B *1023:A 6.99087e-05
4 axi_rdata[3] *818:B 2.70189e-05
5 *815:B *818:B 0.00130802
6 *881:C *818:B 8.94618e-05
7 *883:A *818:B 2.13173e-05
8 *891:B *818:B 0.000385261
9 *979:A *818:B 0
10 *241:31 *818:B 0
11 *242:18 *818:B 7.05143e-06
*RES
1 *984:X *818:B 28.8807 
*END

*D_NET *307 0.00454731
*CONN
*I *790:B I *D sky130_fd_sc_hd__xor2_2
*I *985:X O *D sky130_fd_sc_hd__clkdlybuf4s25_1
*CAP
1 *790:B 0.000819336
2 *985:X 0.000819336
3 axi_rdata[0] *790:B 0.000291583
4 *788:B *790:B 0.00018244
5 *985:A *790:B 0.00160187
6 *243:12 *790:B 0.000310292
7 *263:51 *790:B 0.000522451
*RES
1 *985:X *790:B 43.2107 
*END

*D_NET *308 0.00266052
*CONN
*I *791:B I *D sky130_fd_sc_hd__xor2_2
*I *986:X O *D sky130_fd_sc_hd__clkdlybuf4s25_1
*CAP
1 *791:B 0.000890275
2 *986:X 0.000890275
3 *791:B *792:B 0
4 *791:B *900:RESET_B 0
5 *791:B *1031:A 2.76813e-05
6 *791:B *1033:A 0
7 axi_rdata[4] *791:B 5.58941e-05
8 *791:A *791:B 0
9 *826:B *791:B 1.39841e-05
10 *828:B *791:B 5.15925e-05
11 *900:CLK *791:B 0
12 *986:A *791:B 0.000394636
13 *248:20 *791:B 0.000267731
14 *278:31 *791:B 6.84493e-05
*RES
1 *986:X *791:B 32.1214 
*END

*D_NET *309 0.00388189
*CONN
*I *792:B I *D sky130_fd_sc_hd__xor2_2
*I *987:X O *D sky130_fd_sc_hd__clkdlybuf4s25_1
*CAP
1 *792:B 0.00112176
2 *987:X 0.00112176
3 *792:B *793:B 0.000565931
4 *792:B *794:B 7.89303e-05
5 *792:B *900:RESET_B 2.7505e-05
6 *792:B *1033:A 0.000177293
7 *791:B *792:B 0
8 *794:A *792:B 6.57032e-05
9 *828:B *792:B 0
10 *988:A *792:B 0.000207362
11 *210:18 *792:B 0.000266508
12 *248:14 *792:B 9.89573e-05
13 *279:8 *792:B 0.000139907
14 *281:20 *792:B 1.02821e-05
*RES
1 *987:X *792:B 47.425 
*END

*D_NET *310 0.00437702
*CONN
*I *793:B I *D sky130_fd_sc_hd__xor2_2
*I *988:X O *D sky130_fd_sc_hd__clkdlybuf4s25_1
*CAP
1 *793:B 0.00112392
2 *988:X 0.00112392
3 *793:B *794:B 0.000250641
4 *793:B *903:RESET_B 0.000387208
5 *792:B *793:B 0.000565931
6 *902:D *793:B 2.0172e-05
7 *988:A *793:B 0.000246509
8 *990:A *793:B 3.34295e-05
9 *992:A *793:B 0.00036246
10 *248:8 *793:B 0.000262834
*RES
1 *988:X *793:B 41.55 
*END

*D_NET *311 0.00377102
*CONN
*I *798:B I *D sky130_fd_sc_hd__xor2_2
*I *989:X O *D sky130_fd_sc_hd__clkdlybuf4s25_1
*CAP
1 *798:B 0.00134906
2 *989:X 0.00134906
3 *798:B *930:D 0.00023818
4 *798:B *931:RESET_B 0
5 *798:B *1007:A 5.65955e-05
6 *798:B *365:213 0
7 *853:B *798:B 7.80714e-06
8 *862:D *798:B 0
9 *889:C *798:B 0
10 *213:18 *798:B 0
11 *215:19 *798:B 0.000344859
12 *217:14 *798:B 0.000198691
13 *254:12 *798:B 6.95112e-05
14 *254:25 *798:B 0.000147708
15 *254:36 *798:B 9.54798e-06
*RES
1 *989:X *798:B 45.6214 
*END

*D_NET *312 0.00576759
*CONN
*I *794:B I *D sky130_fd_sc_hd__xor2_2
*I *990:X O *D sky130_fd_sc_hd__clkdlybuf4s25_1
*CAP
1 *794:B 0.000354155
2 *990:X 0.00155002
3 *312:18 0.00190417
4 axi_rdata[7] *794:B 0.000572156
5 *792:B *794:B 7.89303e-05
6 *793:B *794:B 0.000250641
7 *794:A *794:B 4.70821e-05
8 *988:A *794:B 0.000622006
9 *990:A *794:B 0.000388438
*RES
1 *990:X *312:18 45.4071 
2 *312:18 *794:B 22.9554 
*END

*D_NET *313 0.00124673
*CONN
*I *795:B I *D sky130_fd_sc_hd__xor2_2
*I *991:X O *D sky130_fd_sc_hd__clkdlybuf4s25_1
*CAP
1 *795:B 0.000452286
2 *991:X 0.000452286
3 *795:B *1035:A 0.000183377
4 *796:A *795:B 0.000129868
5 *991:A *795:B 2.89114e-05
*RES
1 *991:X *795:B 24.5857 
*END

*D_NET *314 0.00248734
*CONN
*I *796:B I *D sky130_fd_sc_hd__xor2_2
*I *992:X O *D sky130_fd_sc_hd__clkdlybuf4s25_1
*CAP
1 *796:B 0.000607
2 *992:X 0.000607
3 axi_rdata[9] *796:B 0.000409413
4 *795:A *796:B 0.000516995
5 *796:A *796:B 9.28247e-05
6 *824:B1 *796:B 1.34741e-05
7 *833:B *796:B 2.12733e-05
8 *835:B *796:B 0.000143478
9 *840:D *796:B 7.58841e-05
*RES
1 *992:X *796:B 32.3089 
*END

*D_NET *315 0.0120602
*CONN
*I *900:RESET_B I *D sky130_fd_sc_hd__dfrtp_2
*I *901:RESET_B I *D sky130_fd_sc_hd__dfrtp_2
*I *896:RESET_B I *D sky130_fd_sc_hd__dfrtp_2
*I *899:RESET_B I *D sky130_fd_sc_hd__dfrtp_2
*I *898:RESET_B I *D sky130_fd_sc_hd__dfrtp_2
*I *903:RESET_B I *D sky130_fd_sc_hd__dfrtp_2
*I *902:RESET_B I *D sky130_fd_sc_hd__dfrtp_2
*I *895:RESET_B I *D sky130_fd_sc_hd__dfrtp_2
*I *897:RESET_B I *D sky130_fd_sc_hd__dfrtp_2
*I *1001:A I *D sky130_fd_sc_hd__buf_12
*I *993:X O *D sky130_fd_sc_hd__buf_4
*CAP
1 *900:RESET_B 0.000275236
2 *901:RESET_B 0.000374777
3 *896:RESET_B 0.000122903
4 *899:RESET_B 0
5 *898:RESET_B 0.000158814
6 *903:RESET_B 0.000137034
7 *902:RESET_B 0.000222376
8 *895:RESET_B 0
9 *897:RESET_B 0.00178045
10 *1001:A 0.000135427
11 *993:X 0.000136229
12 *315:77 0.000206822
13 *315:75 0.000170911
14 *315:52 0.000700832
15 *315:12 0.00153903
16 *315:10 0.000200343
17 *896:RESET_B *786:A 6.54574e-05
18 *896:RESET_B *364:26 8.79458e-05
19 *897:RESET_B *786:A 2.81497e-05
20 *897:RESET_B *894:B 0.000272371
21 *900:RESET_B *1033:A 6.63266e-05
22 *901:RESET_B *1033:A 4.57695e-05
23 *1001:A *356:24 0.000128146
24 *315:10 *1025:A 1.20109e-05
25 *315:10 *356:24 0.00011185
26 *315:12 *356:24 0.000263414
27 *315:52 *786:A 0.000152296
28 axi_rdata[3] *898:RESET_B 0
29 uart_tx *1001:A 0.000126439
30 uart_tx *315:10 0.000145988
31 uart_tx *315:12 0.000272664
32 *790:A *898:RESET_B 0
33 *791:B *900:RESET_B 0
34 *792:B *900:RESET_B 2.7505e-05
35 *793:B *903:RESET_B 0.000387208
36 *824:A2 *315:52 3.49456e-06
37 *824:A3 *315:52 0.000518568
38 *890:A1 *897:RESET_B 5.39629e-06
39 *895:D *897:RESET_B 1.92789e-05
40 *896:D *315:52 5.17614e-05
41 *897:D *897:RESET_B 7.0071e-05
42 *903:D *901:RESET_B 0.000125731
43 *949:A *897:RESET_B 0.000110076
44 *960:A *897:RESET_B 7.54643e-05
45 *985:A *896:RESET_B 0.000259665
46 *985:A *898:RESET_B 0.00026768
47 *985:A *315:77 0.000117189
48 *992:A *903:RESET_B 0.000387208
49 *203:18 *898:RESET_B 4.96254e-05
50 *206:16 *315:52 0.000562451
51 *242:18 *896:RESET_B 5.00201e-05
52 *242:18 *898:RESET_B 1.41706e-05
53 *242:18 *315:77 4.48113e-05
54 *248:14 *900:RESET_B 0.000195698
55 *252:10 *896:RESET_B 4.27935e-05
56 *263:12 *315:52 0.000194564
57 *263:51 *315:52 0.000137471
58 *274:40 *898:RESET_B 9.42929e-05
59 *279:23 *900:RESET_B 0
60 *280:6 *902:RESET_B 0.00013324
61 *281:12 *903:RESET_B 4.90118e-05
62 *281:20 *901:RESET_B 0.000125731
*RES
1 *993:X *315:10 16.6929 
2 *315:10 *315:12 3.46429 
3 *315:12 *1001:A 16.8 
4 *315:12 *897:RESET_B 21.5446 
5 *315:10 *895:RESET_B 4.5 
6 *897:RESET_B *315:52 12.7411 
7 *315:52 *902:RESET_B 2.11607 
8 *315:52 *903:RESET_B 14.4554 
9 *897:RESET_B *315:75 4.5 
10 *315:75 *315:77 1.64286 
11 *315:77 *898:RESET_B 8.84821 
12 *315:77 *899:RESET_B 4.5 
13 *315:75 *896:RESET_B 8.84821 
14 *902:RESET_B *901:RESET_B 11.5268 
15 *901:RESET_B *900:RESET_B 14.9464 
*END

*D_NET *316 0.00807415
*CONN
*I *894:B I *D sky130_fd_sc_hd__xor2_2
*I *994:X O *D sky130_fd_sc_hd__clkdlybuf4s25_1
*CAP
1 *894:B 0.0017972
2 *994:X 0.00107064
3 *316:12 0.00286784
4 *894:B *1015:A 8.42067e-05
5 *894:B *1026:A 0
6 *894:B *1036:A 3.93986e-05
7 *894:B *1045:A 0
8 *894:B *347:18 0
9 *894:B *365:10 0.000175519
10 *894:B *374:24 0.00010096
11 *316:12 *1033:A 5.71472e-05
12 *316:12 *1034:A 5.33433e-05
13 axi_bvalid *894:B 0
14 axi_rdata[0] *316:12 0.000176226
15 axi_rdata[7] *316:12 5.95659e-05
16 axi_rdata[8] *316:12 2.47833e-05
17 *787:B *316:12 0.000486441
18 *789:B *894:B 0
19 *897:RESET_B *894:B 0.000272371
20 *898:CLK *894:B 0
21 *949:A *894:B 3.14078e-05
22 *967:A *316:12 0.000140513
23 *990:A *316:12 0.000636591
24 *25:13 *316:12 0
*RES
1 *994:X *316:12 39.9786 
2 *316:12 *894:B 34.6339 
*END

*D_NET *317 0.000397647
*CONN
*I *1002:A I *D sky130_fd_sc_hd__clkdlybuf4s25_1
*I *936:X O *D sky130_fd_sc_hd__buf_2
*CAP
1 *1002:A 0.000198823
2 *936:X 0.000198823
*RES
1 *936:X *1002:A 30.9036 
*END

*D_NET *318 0.00124384
*CONN
*I *1003:A I *D sky130_fd_sc_hd__clkdlybuf4s25_1
*I *937:X O *D sky130_fd_sc_hd__buf_2
*CAP
1 *1003:A 0.000434029
2 *937:X 0.000434029
3 *1003:A *801:B 7.6644e-05
4 *1003:A *802:B 0.000270236
5 axi_awready *1003:A 0
6 *937:A *1003:A 2.89016e-05
7 *998:A *1003:A 0
*RES
1 *937:X *1003:A 35.7607 
*END

*D_NET *319 0.00174445
*CONN
*I *1004:A I *D sky130_fd_sc_hd__clkdlybuf4s25_1
*I *787:X O *D sky130_fd_sc_hd__xor2_2
*CAP
1 *1004:A 0.000439308
2 *787:X 0.000439308
3 *1004:A *364:26 3.99088e-05
4 axi_rdata[0] *1004:A 2.59355e-05
5 *788:B *1004:A 0.000774054
6 *899:D *1004:A 0
7 *941:A *1004:A 2.59355e-05
8 *25:13 *1004:A 0
*RES
1 *787:X *1004:A 38.2786 
*END

*D_NET *320 0.000581841
*CONN
*I *1005:A I *D sky130_fd_sc_hd__clkdlybuf4s25_1
*I *797:X O *D sky130_fd_sc_hd__xor2_2
*CAP
1 *1005:A 0.00015565
2 *797:X 0.00015565
3 *1005:A *800:B 6.66813e-05
4 gpio_out[4] *1005:A 0.000141941
5 *996:A *1005:A 6.19198e-05
*RES
1 *797:X *1005:A 31.5107 
*END

*D_NET *321 0.00145727
*CONN
*I *1006:A I *D sky130_fd_sc_hd__clkdlybuf4s25_1
*I *798:X O *D sky130_fd_sc_hd__xor2_2
*CAP
1 *1006:A 0.000344507
2 *798:X 0.000344507
3 *1006:A *931:RESET_B 0.000213091
4 *859:A *1006:A 5.83304e-05
5 *861:D *1006:A 0.000230482
6 *862:D *1006:A 0
7 *869:C *1006:A 0
8 *918:D *1006:A 0.000146677
9 *227:19 *1006:A 6.4443e-05
10 *228:30 *1006:A 5.52302e-05
*RES
1 *798:X *1006:A 37.4929 
*END

*D_NET *322 0.00337606
*CONN
*I *799:B I *D sky130_fd_sc_hd__xor2_2
*I *995:X O *D sky130_fd_sc_hd__clkdlybuf4s25_1
*CAP
1 *799:B 0.00108651
2 *995:X 0.00108651
3 *799:B *1007:A 3.30352e-05
4 axi_rdata[15] *799:B 0.000268396
5 *799:A *799:B 0.000107409
6 *802:A *799:B 0.000474602
7 *852:D *799:B 4.10843e-05
8 *911:D *799:B 2.38562e-05
9 *933:CLK *799:B 8.6229e-06
10 *989:A *799:B 5.43661e-05
11 *255:65 *799:B 0.000123137
12 *258:20 *799:B 6.85252e-05
*RES
1 *995:X *799:B 34.5232 
*END

*D_NET *323 0.00327779
*CONN
*I *1007:A I *D sky130_fd_sc_hd__clkdlybuf4s25_1
*I *799:X O *D sky130_fd_sc_hd__xor2_2
*CAP
1 *1007:A 0.000790015
2 *799:X 0.000790015
3 *1007:A *930:D 0.000316383
4 axi_rdata[15] *1007:A 9.52836e-05
5 *798:B *1007:A 5.65955e-05
6 *799:A *1007:A 0.000186662
7 *799:B *1007:A 3.30352e-05
8 *850:D *1007:A 7.83587e-05
9 *933:CLK *1007:A 2.79421e-05
10 *989:A *1007:A 0.000506186
11 *256:28 *1007:A 0.000391093
12 *257:29 *1007:A 6.2169e-06
*RES
1 *799:X *1007:A 44.225 
*END

*D_NET *324 0.00094948
*CONN
*I *1008:A I *D sky130_fd_sc_hd__clkdlybuf4s25_1
*I *800:X O *D sky130_fd_sc_hd__xor2_2
*CAP
1 *1008:A 9.97358e-05
2 *800:X 9.97358e-05
3 axi_rdata[13] *1008:A 0.000446215
4 *800:A *1008:A 0.000303794
*RES
1 *800:X *1008:A 23.2607 
*END

*D_NET *325 0.000876925
*CONN
*I *1009:A I *D sky130_fd_sc_hd__clkdlybuf4s25_1
*I *801:X O *D sky130_fd_sc_hd__xor2_2
*CAP
1 *1009:A 0.000102721
2 *801:X 0.000102721
3 *1009:A *801:B 3.51442e-05
4 *1009:A *802:B 0.000423743
5 gpio_out[7] *1009:A 0.000212597
*RES
1 *801:X *1009:A 32.8857 
*END

*D_NET *326 0.000454828
*CONN
*I *1010:A I *D sky130_fd_sc_hd__clkdlybuf4s25_1
*I *802:X O *D sky130_fd_sc_hd__xor2_2
*CAP
1 *1010:A 0.000152188
2 *802:X 0.000152188
3 *1010:A *365:287 0
4 *802:A *1010:A 5.52238e-05
5 *255:65 *1010:A 9.52291e-05
*RES
1 *802:X *1010:A 30.6893 
*END

*D_NET *327 0.00139152
*CONN
*I *1011:A I *D sky130_fd_sc_hd__clkdlybuf4s25_1
*I *803:X O *D sky130_fd_sc_hd__xor2_2
*CAP
1 *1011:A 0.000171442
2 *803:X 0.000171442
3 *1011:A *803:B 0.000169441
4 axi_rdata[16] *1011:A 0.000434562
5 *999:A *1011:A 0.000444635
*RES
1 *803:X *1011:A 26.5464 
*END

*D_NET *328 0.00239357
*CONN
*I *1012:A I *D sky130_fd_sc_hd__clkdlybuf4s25_1
*I *804:X O *D sky130_fd_sc_hd__xor2_2
*CAP
1 *1012:A 0.000555611
2 *804:X 0.000555611
3 *1012:A *1040:A 0.000225264
4 *805:A *1012:A 0
5 *806:B *1012:A 0.000123903
6 *863:A1 *1012:A 0.000142053
7 *863:B1_N *1012:A 0.000403241
8 *947:A *1012:A 0.000358977
9 *226:10 *1012:A 2.89114e-05
*RES
1 *804:X *1012:A 43.7786 
*END

*D_NET *329 0.00222977
*CONN
*I *1013:A I *D sky130_fd_sc_hd__clkdlybuf4s25_1
*I *805:X O *D sky130_fd_sc_hd__xor2_2
*CAP
1 *1013:A 0.000758174
2 *805:X 0.000758174
3 *1013:A *804:B 2.07256e-05
4 *1013:A *912:RESET_B 0.000226595
5 *805:B *1013:A 0.000384398
6 *863:B1_N *1013:A 5.74514e-05
7 *912:CLK *1013:A 2.42564e-05
8 *915:D *1013:A 0
*RES
1 *805:X *1013:A 40.6179 
*END

*D_NET *330 0.000810581
*CONN
*I *1014:A I *D sky130_fd_sc_hd__clkdlybuf4s25_1
*I *806:X O *D sky130_fd_sc_hd__xor2_2
*CAP
1 *1014:A 0.000278302
2 *806:X 0.000278302
3 *807:A *1014:A 0
4 *916:CLK *1014:A 5.52302e-05
5 *916:D *1014:A 0
6 *971:A *1014:A 0
7 *83:16 *1014:A 0.000198748
*RES
1 *806:X *1014:A 33.6357 
*END

*D_NET *331 0.00141636
*CONN
*I *1015:A I *D sky130_fd_sc_hd__clkdlybuf4s25_1
*I *788:X O *D sky130_fd_sc_hd__xor2_2
*CAP
1 *1015:A 0.000554503
2 *788:X 0.000554503
3 *1015:A *347:18 0
4 axi_rdata[2] *1015:A 0
5 *789:A *1015:A 0.000122091
6 *821:B *1015:A 0.000101056
7 *894:B *1015:A 8.42067e-05
*RES
1 *788:X *1015:A 36.975 
*END

*D_NET *332 0.000656521
*CONN
*I *1016:A I *D sky130_fd_sc_hd__clkdlybuf4s25_1
*I *807:X O *D sky130_fd_sc_hd__xor2_2
*CAP
1 *1016:A 0.000206356
2 *807:X 0.000206356
3 axi_rdata[20] *1016:A 0
4 *808:A *1016:A 0
5 *864:A *1016:A 5.71472e-05
6 *951:A *1016:A 0.000186662
*RES
1 *807:X *1016:A 31.9214 
*END

*D_NET *333 0.000487734
*CONN
*I *800:B I *D sky130_fd_sc_hd__xor2_2
*I *996:X O *D sky130_fd_sc_hd__clkdlybuf4s25_1
*CAP
1 *800:B 0.000210526
2 *996:X 0.000210526
3 *1005:A *800:B 6.66813e-05
*RES
1 *996:X *800:B 22.3714 
*END

*D_NET *334 0.000807829
*CONN
*I *1017:A I *D sky130_fd_sc_hd__clkdlybuf4s25_1
*I *808:X O *D sky130_fd_sc_hd__xor2_2
*CAP
1 *1017:A 4.00774e-05
2 *808:X 4.00774e-05
3 *808:B *1017:A 0.000363837
4 *972:A *1017:A 0.000363837
*RES
1 *808:X *1017:A 22.0107 
*END

*D_NET *335 0.000657557
*CONN
*I *1018:A I *D sky130_fd_sc_hd__clkdlybuf4s25_1
*I *809:X O *D sky130_fd_sc_hd__xor2_2
*CAP
1 *1018:A 0.000213541
2 *809:X 0.000213541
3 *809:B *1018:A 0.000230475
4 *230:18 *1018:A 0
*RES
1 *809:X *1018:A 31.725 
*END

*D_NET *336 0.00176592
*CONN
*I *1019:A I *D sky130_fd_sc_hd__clkdlybuf4s25_1
*I *810:X O *D sky130_fd_sc_hd__xor2_2
*CAP
1 *1019:A 0.000273035
2 *810:X 0.000273035
3 *1019:A *1021:A 0.000130965
4 axi_rdata[24] *1019:A 0.000509479
5 *811:B *1019:A 0.000387432
6 *812:B *1019:A 0.00019197
*RES
1 *810:X *1019:A 37.6714 
*END

*D_NET *337 0.000229062
*CONN
*I *1020:A I *D sky130_fd_sc_hd__clkdlybuf4s25_1
*I *811:X O *D sky130_fd_sc_hd__xor2_2
*CAP
1 *1020:A 0.000114531
2 *811:X 0.000114531
3 axi_rdata[25] *1020:A 0
*RES
1 *811:X *1020:A 29.5464 
*END

*D_NET *338 0.00221819
*CONN
*I *1021:A I *D sky130_fd_sc_hd__clkdlybuf4s25_1
*I *812:X O *D sky130_fd_sc_hd__xor2_2
*CAP
1 *1021:A 0.000661457
2 *812:X 0.000661457
3 axi_rdata[22] *1021:A 0.000138548
4 axi_rdata[23] *1021:A 0.000155983
5 axi_rdata[24] *1021:A 0.000202564
6 *812:B *1021:A 0
7 *974:A *1021:A 0.000267214
8 *976:A *1021:A 0
9 *1019:A *1021:A 0.000130965
*RES
1 *812:X *1021:A 44.2964 
*END

*D_NET *339 0.000893588
*CONN
*I *1022:A I *D sky130_fd_sc_hd__clkdlybuf4s25_1
*I *813:X O *D sky130_fd_sc_hd__xor2_2
*CAP
1 *1022:A 0.000253154
2 *813:X 0.000253154
3 *1022:A *1023:A 0
4 axi_rdata[27] *1022:A 6.00128e-05
5 *813:A *1022:A 2.89114e-05
6 *813:B *1022:A 5.52302e-05
7 *814:B *1022:A 0
8 *881:C *1022:A 0.000134019
9 *883:A *1022:A 9.59532e-06
10 *270:12 *1022:A 9.95103e-05
*RES
1 *813:X *1022:A 32.8143 
*END

*D_NET *340 0.00144592
*CONN
*I *1023:A I *D sky130_fd_sc_hd__clkdlybuf4s25_1
*I *814:X O *D sky130_fd_sc_hd__xor2_2
*CAP
1 *1023:A 0.000573179
2 *814:X 0.000573179
3 axi_rdata[27] *1023:A 0
4 axi_rdata[28] *1023:A 0
5 *814:A *1023:A 9.90431e-05
6 *814:B *1023:A 3.34672e-05
7 *818:B *1023:A 6.99087e-05
8 *883:A *1023:A 4.6025e-06
9 *977:A *1023:A 9.25376e-05
10 *980:A *1023:A 0
11 *1022:A *1023:A 0
*RES
1 *814:X *1023:A 37.4571 
*END

*D_NET *341 0.00299385
*CONN
*I *1024:A I *D sky130_fd_sc_hd__clkdlybuf4s25_1
*I *815:X O *D sky130_fd_sc_hd__xor2_2
*CAP
1 *1024:A 0.000837026
2 *815:X 0.000837026
3 *1024:A *1028:A 1.21258e-05
4 axi_rdata[28] *1024:A 0.000946365
5 *893:B *1024:A 1.92789e-05
6 *984:A *1024:A 0.000227539
7 *241:37 *1024:A 5.71472e-05
8 *242:18 *1024:A 6.05161e-06
9 *272:44 *1024:A 5.12937e-05
*RES
1 *815:X *1024:A 41.9571 
*END

*D_NET *342 0.00347889
*CONN
*I *1025:A I *D sky130_fd_sc_hd__clkdlybuf4s25_1
*I *816:X O *D sky130_fd_sc_hd__xor2_2
*CAP
1 *1025:A 0.000534973
2 *816:X 0.000534973
3 *1025:A *1036:A 9.90431e-05
4 *1025:A *356:24 0.000633544
5 *1025:A *378:12 0.00123697
6 axi_wready *1025:A 2.09897e-05
7 uart_tx *1025:A 9.10717e-05
8 *817:B *1025:A 0.00015244
9 *821:B *1025:A 0.000151071
10 *938:A *1025:A 1.18064e-05
11 *315:10 *1025:A 1.20109e-05
*RES
1 *816:X *1025:A 46.8321 
*END

*D_NET *343 0.000523092
*CONN
*I *1026:A I *D sky130_fd_sc_hd__clkdlybuf4s25_1
*I *789:X O *D sky130_fd_sc_hd__xor2_2
*CAP
1 *1026:A 9.27522e-05
2 *789:X 9.27522e-05
3 *1026:A *1036:A 0.000180948
4 *1026:A *1045:A 7.50601e-05
5 axi_rdata[29] *1026:A 5.71472e-05
6 *821:B *1026:A 2.44318e-05
7 *894:B *1026:A 0
*RES
1 *789:X *1026:A 30.4929 
*END

*D_NET *344 0.000892487
*CONN
*I *801:B I *D sky130_fd_sc_hd__xor2_2
*I *997:X O *D sky130_fd_sc_hd__clkdlybuf4s25_1
*CAP
1 *801:B 0.000169609
2 *997:X 0.000169609
3 *801:B *802:B 0.00010807
4 *801:B *1044:A 1.58163e-05
5 gpio_out[7] *801:B 0.000317594
6 *1003:A *801:B 7.6644e-05
7 *1009:A *801:B 3.51442e-05
*RES
1 *997:X *801:B 22.9071 
*END

*D_NET *345 0.00490124
*CONN
*I *1027:A I *D sky130_fd_sc_hd__clkdlybuf4s25_1
*I *817:X O *D sky130_fd_sc_hd__xor2_2
*CAP
1 *1027:A 0
2 *817:X 0.000750111
3 *345:18 0.000750111
4 axi_bvalid *345:18 0.000396892
5 axi_rdata[1] *345:18 0.000141463
6 axi_rdata[30] *345:18 0.000598114
7 uart_tx *345:18 0.000280533
8 *820:A *345:18 3.48705e-05
9 *820:B *345:18 0.000518495
10 *821:B *345:18 0.000117685
11 *962:A *345:18 0.00112662
12 *993:A *345:18 0.000159834
13 *98:8 *345:18 2.65105e-05
*RES
1 *817:X *345:18 46.1929 
2 *345:18 *1027:A 9.3 
*END

*D_NET *346 0.00322089
*CONN
*I *1028:A I *D sky130_fd_sc_hd__clkdlybuf4s25_1
*I *818:X O *D sky130_fd_sc_hd__xor2_2
*CAP
1 *1028:A 0.000392322
2 *818:X 0.000392322
3 *1028:A *374:24 0.000897324
4 axi_rdata[27] *1028:A 0.00017437
5 axi_rdata[28] *1028:A 4.58194e-05
6 axi_rdata[31] *1028:A 2.89114e-05
7 axi_rdata[3] *1028:A 8.23597e-06
8 *815:B *1028:A 0.00089161
9 *891:C *1028:A 0.000176084
10 *980:A *1028:A 0.000180777
11 *1024:A *1028:A 1.21258e-05
12 *242:18 *1028:A 2.09897e-05
*RES
1 *818:X *1028:A 40.8184 
*END

*D_NET *347 0.00640056
*CONN
*I *1029:A I *D sky130_fd_sc_hd__clkdlybuf4s25_1
*I *790:X O *D sky130_fd_sc_hd__xor2_2
*CAP
1 *1029:A 0.000174189
2 *790:X 0.00148691
3 *347:18 0.0016611
4 *347:18 *822:A 0.000714085
5 *347:18 *1038:A 1.8441e-05
6 *347:18 *365:54 0
7 axi_rdata[1] *347:18 0.00011806
8 axi_rdata[2] *347:18 9.93618e-05
9 *789:B *347:18 0.00034664
10 *816:B *347:18 0.000298893
11 *820:B *347:18 0.000122091
12 *881:D *1029:A 0.000488493
13 *887:B *347:18 6.77427e-05
14 *891:A *347:18 0
15 *891:B *347:18 6.15693e-05
16 *891:D *347:18 0
17 *894:B *347:18 0
18 *897:D *347:18 0
19 *898:CLK *347:18 0
20 *898:D *347:18 5.74346e-05
21 *925:D *347:18 0.000189682
22 *945:A *347:18 0
23 *960:A *347:18 0.000361608
24 *977:A *1029:A 7.77652e-05
25 *979:A *347:18 5.65001e-05
26 *1015:A *347:18 0
27 *249:108 *347:18 0
*RES
1 *790:X *347:18 48.6929 
2 *347:18 *1029:A 18.8714 
*END

*D_NET *348 0.00178324
*CONN
*I *1030:A I *D sky130_fd_sc_hd__clkdlybuf4s25_1
*I *791:X O *D sky130_fd_sc_hd__xor2_2
*CAP
1 *1030:A 0.000211269
2 *791:X 0.000211269
3 *1030:A *1033:A 0.000232123
4 axi_rdata[4] *1030:A 0.000933128
5 *990:A *1030:A 0.000195455
*RES
1 *791:X *1030:A 27.7786 
*END

*D_NET *349 0.00164676
*CONN
*I *1031:A I *D sky130_fd_sc_hd__clkdlybuf4s25_1
*I *792:X O *D sky130_fd_sc_hd__xor2_2
*CAP
1 *1031:A 0.000581504
2 *792:X 0.000581504
3 *791:B *1031:A 2.76813e-05
4 *900:D *1031:A 6.24997e-05
5 *986:A *1031:A 0.000393566
*RES
1 *792:X *1031:A 35.9571 
*END

*D_NET *350 0.00207866
*CONN
*I *1032:A I *D sky130_fd_sc_hd__clkdlybuf4s25_1
*I *793:X O *D sky130_fd_sc_hd__xor2_2
*CAP
1 *1032:A 0.000395917
2 *793:X 0.000395917
3 axi_rdata[6] *1032:A 0.000877234
4 axi_rdata[9] *1032:A 0.000141511
5 *795:A *1032:A 4.88284e-05
6 *824:A1 *1032:A 0.000169793
7 *824:A2 *1032:A 1.12578e-05
8 *992:A *1032:A 3.8206e-05
*RES
1 *793:X *1032:A 39.8679 
*END

*D_NET *351 0.00375694
*CONN
*I *1033:A I *D sky130_fd_sc_hd__clkdlybuf4s25_1
*I *794:X O *D sky130_fd_sc_hd__xor2_2
*CAP
1 *1033:A 0.000876983
2 *794:X 0.000876983
3 axi_rdata[4] *1033:A 0.000287247
4 *791:A *1033:A 2.84026e-05
5 *791:B *1033:A 0
6 *792:A *1033:A 9.79406e-05
7 *792:B *1033:A 0.000177293
8 *900:RESET_B *1033:A 6.63266e-05
9 *901:RESET_B *1033:A 4.57695e-05
10 *990:A *1033:A 0.000591641
11 *994:A *1033:A 0
12 *1030:A *1033:A 0.000232123
13 *279:8 *1033:A 0.000139907
14 *279:23 *1033:A 1.17968e-05
15 *281:20 *1033:A 0.000267377
16 *316:12 *1033:A 5.71472e-05
*RES
1 *794:X *1033:A 49.5643 
*END

*D_NET *352 0.00119681
*CONN
*I *1034:A I *D sky130_fd_sc_hd__clkdlybuf4s25_1
*I *795:X O *D sky130_fd_sc_hd__xor2_2
*CAP
1 *1034:A 0.000193568
2 *795:X 0.000193568
3 *787:B *1034:A 0.000144995
4 *967:A *1034:A 0.00010096
5 *14:13 *1034:A 0.00035911
6 *25:13 *1034:A 2.37761e-05
7 *203:18 *1034:A 3.14048e-05
8 *274:10 *1034:A 9.60875e-05
9 *316:12 *1034:A 5.33433e-05
*RES
1 *795:X *1034:A 34.1714 
*END

*D_NET *353 0.00144073
*CONN
*I *1035:A I *D sky130_fd_sc_hd__clkdlybuf4s25_1
*I *796:X O *D sky130_fd_sc_hd__xor2_2
*CAP
1 *1035:A 0.000321007
2 *796:X 0.000321007
3 *795:B *1035:A 0.000183377
4 *796:A *1035:A 0.000162346
5 *824:A3 *1035:A 0.000135193
6 *896:CLK *1035:A 1.25366e-05
7 *14:13 *1035:A 0
8 *205:14 *1035:A 0.000168496
9 *274:10 *1035:A 0.000136767
*RES
1 *796:X *1035:A 36.1714 
*END

*D_NET *354 0.0011248
*CONN
*I *1036:A I *D sky130_fd_sc_hd__clkdlybuf4s25_1
*I *938:X O *D sky130_fd_sc_hd__buf_2
*CAP
1 *1036:A 0.000343737
2 *938:X 0.000343737
3 axi_rdata[29] *1036:A 9.02232e-05
4 *821:B *1036:A 2.77173e-05
5 *894:B *1036:A 3.93986e-05
6 *1025:A *1036:A 9.90431e-05
7 *1026:A *1036:A 0.000180948
*RES
1 *938:X *1036:A 33.0643 
*END

*D_NET *355 0.00240564
*CONN
*I *802:B I *D sky130_fd_sc_hd__xor2_2
*I *998:X O *D sky130_fd_sc_hd__clkdlybuf4s25_1
*CAP
1 *802:B 0.000623609
2 *998:X 0.000623609
3 *802:B *1044:A 0
4 *802:B *365:285 0
5 *802:B *365:287 0
6 axi_rdata[15] *802:B 0
7 gpio_out[7] *802:B 3.08503e-05
8 *801:B *802:B 0.00010807
9 *998:A *802:B 0.000325521
10 *1003:A *802:B 0.000270236
11 *1009:A *802:B 0.000423743
*RES
1 *998:X *802:B 35.05 
*END

*D_NET *356 0.0101318
*CONN
*I *1037:A I *D sky130_fd_sc_hd__clkdlybuf4s25_1
*I *928:Q O *D sky130_fd_sc_hd__dfrtp_2
*CAP
1 *1037:A 0
2 *928:Q 0.00367114
3 *356:24 0.00367114
4 axi_rdata[5] *356:24 0.000305357
5 axi_wready *356:24 2.83129e-05
6 uart_tx *356:24 6.80298e-05
7 *789:B *356:24 0.000623003
8 *826:B *356:24 4.5534e-05
9 *900:CLK *356:24 0
10 *900:D *356:24 0
11 *938:A *356:24 4.2205e-05
12 *994:A *356:24 0
13 *1001:A *356:24 0.000128146
14 *1025:A *356:24 0.000633544
15 *159:18 *356:24 0.000540074
16 *315:10 *356:24 0.00011185
17 *315:12 *356:24 0.000263414
*RES
1 *928:Q *356:24 45.1884 
2 *356:24 *1037:A 9.3 
*END

*D_NET *357 0.00351893
*CONN
*I *1038:A I *D sky130_fd_sc_hd__clkdlybuf4s25_1
*I *929:Q O *D sky130_fd_sc_hd__dfrtp_2
*CAP
1 *1038:A 0.000865473
2 *929:Q 0.000865473
3 *1038:A *928:D 0.000283683
4 *1038:A *929:RESET_B 0.000425682
5 *816:B *1038:A 6.0557e-05
6 *890:A1 *1038:A 0.000122018
7 *891:A *1038:A 7.74068e-05
8 *898:CLK *1038:A 0.000389878
9 *960:A *1038:A 0.000172722
10 *966:A *1038:A 5.52238e-05
11 *249:141 *1038:A 0.000182368
12 *347:18 *1038:A 1.8441e-05
*RES
1 *929:Q *1038:A 46.1893 
*END

*D_NET *358 0.00212361
*CONN
*I *1039:A I *D sky130_fd_sc_hd__clkdlybuf4s25_1
*I *930:Q O *D sky130_fd_sc_hd__dfrtp_2
*CAP
1 *1039:A 0.000337108
2 *930:Q 0.000337108
3 gpio_out[2] *1039:A 0.000643609
4 *978:A *1039:A 0.000279288
5 *996:A *1039:A 0.000526495
*RES
1 *930:Q *1039:A 39.1179 
*END

*D_NET *359 0.00274456
*CONN
*I *1040:A I *D sky130_fd_sc_hd__clkdlybuf4s25_1
*I *931:Q O *D sky130_fd_sc_hd__dfrtp_2
*CAP
1 *1040:A 0.000597865
2 *931:Q 0.000597865
3 *806:B *1040:A 0
4 *859:A *1040:A 0
5 *861:D *1040:A 0.000342495
6 *869:A *1040:A 2.28428e-05
7 *869:C *1040:A 0.00019384
8 *872:B *1040:A 3.69697e-05
9 *918:D *1040:A 0.000183726
10 *950:A *1040:A 0.000144512
11 *969:A *1040:A 9.25014e-06
12 *1012:A *1040:A 0.000225264
13 *83:16 *1040:A 0
14 *228:16 *1040:A 1.24368e-05
15 *228:30 *1040:A 6.71657e-05
16 *228:41 *1040:A 6.8646e-06
17 *228:73 *1040:A 1.00375e-05
18 *230:33 *1040:A 5.41794e-05
19 *251:47 *1040:A 0
20 *262:19 *1040:A 0.000239243
*RES
1 *931:Q *1040:A 44.1714 
*END

*D_NET *360 0.0025939
*CONN
*I *1041:A I *D sky130_fd_sc_hd__clkdlybuf4s25_1
*I *932:Q O *D sky130_fd_sc_hd__dfrtp_2
*CAP
1 *1041:A 0.000977593
2 *932:Q 0.000977593
3 *1041:A *930:RESET_B 3.56976e-05
4 *1041:A *1042:A 0.000504546
5 gpio_out[4] *1041:A 9.84729e-05
*RES
1 *932:Q *1041:A 43.2429 
*END

*D_NET *361 0.00294926
*CONN
*I *1042:A I *D sky130_fd_sc_hd__clkdlybuf4s25_1
*I *933:Q O *D sky130_fd_sc_hd__dfrtp_2
*CAP
1 *1042:A 0.000879661
2 *933:Q 0.000879661
3 *1042:A *930:RESET_B 0
4 *1042:A *933:D 0.00059045
5 *1042:A *365:287 0
6 *1042:A *365:289 0
7 gpio_out[5] *1042:A 2.85321e-05
8 *797:B *1042:A 5.66971e-05
9 *989:A *1042:A 0
10 *1041:A *1042:A 0.000504546
11 *255:50 *1042:A 9.71118e-06
*RES
1 *933:Q *1042:A 44.4571 
*END

*D_NET *362 0.00128726
*CONN
*I *1043:A I *D sky130_fd_sc_hd__clkdlybuf4s25_1
*I *934:Q O *D sky130_fd_sc_hd__dfrtp_2
*CAP
1 *1043:A 0.000219997
2 *934:Q 0.000219997
3 *1043:A *1044:A 0.000322453
4 gpio_out[6] *1043:A 0
5 *937:A *1043:A 0.000265453
6 *997:A *1043:A 0.000259357
*RES
1 *934:Q *1043:A 34.2607 
*END

*D_NET *363 0.00243012
*CONN
*I *1044:A I *D sky130_fd_sc_hd__clkdlybuf4s25_1
*I *935:Q O *D sky130_fd_sc_hd__dfrtp_2
*CAP
1 *1044:A 0.000595301
2 *935:Q 0.000595301
3 axi_rdata[14] *1044:A 1.77247e-05
4 *801:B *1044:A 1.58163e-05
5 *802:B *1044:A 0
6 *997:A *1044:A 0.000117144
7 *998:A *1044:A 0.000766382
8 *1043:A *1044:A 0.000322453
*RES
1 *935:Q *1044:A 42.3857 
*END

*D_NET *364 0.00887264
*CONN
*I *1045:A I *D sky130_fd_sc_hd__clkdlybuf4s25_1
*I *958:A I *D sky130_fd_sc_hd__dlygate4sd3_1
*I *895:Q O *D sky130_fd_sc_hd__dfrtp_2
*CAP
1 *1045:A 0.000570373
2 *958:A 0
3 *895:Q 0.000602831
4 *364:26 0.00172455
5 *364:6 0.00289775
6 *1045:A *365:10 0
7 *1045:A *374:24 8.62572e-05
8 *364:26 *892:A 0.000302793
9 *364:26 *904:RESET_B 7.48554e-05
10 *364:26 *929:D 0.000259756
11 axi_bvalid *1045:A 3.34295e-05
12 axi_rdata[29] *1045:A 0.000190947
13 gpio_out[1] *1045:A 0.000430103
14 *788:B *364:26 0
15 *820:A *1045:A 0
16 *820:A *364:26 0.000196322
17 *820:B *1045:A 7.83587e-05
18 *885:B1 *364:26 2.78729e-05
19 *886:A *364:26 4.09856e-05
20 *894:B *1045:A 0
21 *895:CLK *364:26 0.000235408
22 *895:D *364:6 0.000117404
23 *895:D *364:26 3.69047e-06
24 *896:RESET_B *364:26 8.79458e-05
25 *899:D *364:26 0.000512964
26 *983:A *364:26 4.28365e-05
27 *1004:A *364:26 3.99088e-05
28 *1026:A *1045:A 7.50601e-05
29 *237:14 *364:26 0
30 *252:10 *364:26 9.97876e-05
31 *252:56 *364:26 0.000140444
*RES
1 *895:Q *364:6 15.9964 
2 *364:6 *364:26 41 
3 *364:26 *958:A 9.3 
4 *364:6 *1045:A 31.4786 
*END

*D_NET *365 0.0305903
*CONN
*I *916:RESET_B I *D sky130_fd_sc_hd__dfrtp_2
*I *917:RESET_B I *D sky130_fd_sc_hd__dfrtp_2
*I *915:RESET_B I *D sky130_fd_sc_hd__dfrtp_2
*I *912:RESET_B I *D sky130_fd_sc_hd__dfrtp_2
*I *913:RESET_B I *D sky130_fd_sc_hd__dfrtp_2
*I *934:RESET_B I *D sky130_fd_sc_hd__dfrtp_2
*I *935:RESET_B I *D sky130_fd_sc_hd__dfrtp_2
*I *933:RESET_B I *D sky130_fd_sc_hd__dfrtp_2
*I *932:RESET_B I *D sky130_fd_sc_hd__dfrtp_2
*I *930:RESET_B I *D sky130_fd_sc_hd__dfrtp_2
*I *914:RESET_B I *D sky130_fd_sc_hd__dfrtp_2
*I *910:RESET_B I *D sky130_fd_sc_hd__dfrtp_2
*I *909:RESET_B I *D sky130_fd_sc_hd__dfrtp_2
*I *906:RESET_B I *D sky130_fd_sc_hd__dfrtp_2
*I *931:RESET_B I *D sky130_fd_sc_hd__dfrtp_2
*I *907:RESET_B I *D sky130_fd_sc_hd__dfrtp_2
*I *911:RESET_B I *D sky130_fd_sc_hd__dfrtp_2
*I *908:RESET_B I *D sky130_fd_sc_hd__dfrtp_2
*I *904:RESET_B I *D sky130_fd_sc_hd__dfrtp_2
*I *905:RESET_B I *D sky130_fd_sc_hd__dfrtp_2
*I *929:RESET_B I *D sky130_fd_sc_hd__dfrtp_2
*I *928:RESET_B I *D sky130_fd_sc_hd__dfrtp_2
*I *921:RESET_B I *D sky130_fd_sc_hd__dfrtp_2
*I *920:RESET_B I *D sky130_fd_sc_hd__dfrtp_2
*I *918:RESET_B I *D sky130_fd_sc_hd__dfrtp_2
*I *919:RESET_B I *D sky130_fd_sc_hd__dfrtp_2
*I *922:RESET_B I *D sky130_fd_sc_hd__dfrtp_2
*I *923:RESET_B I *D sky130_fd_sc_hd__dfrtp_2
*I *924:RESET_B I *D sky130_fd_sc_hd__dfrtp_2
*I *927:RESET_B I *D sky130_fd_sc_hd__dfrtp_2
*I *925:RESET_B I *D sky130_fd_sc_hd__dfrtp_2
*I *926:RESET_B I *D sky130_fd_sc_hd__dfrtp_2
*I *1001:X O *D sky130_fd_sc_hd__buf_12
*CAP
1 *916:RESET_B 0.000106346
2 *917:RESET_B 0.000587361
3 *915:RESET_B 0.000776268
4 *912:RESET_B 0.000104503
5 *913:RESET_B 2.88345e-05
6 *934:RESET_B 0.000115583
7 *935:RESET_B 0
8 *933:RESET_B 0
9 *932:RESET_B 0
10 *930:RESET_B 8.36176e-05
11 *914:RESET_B 0.000733915
12 *910:RESET_B 0.000290846
13 *909:RESET_B 0.000365142
14 *906:RESET_B 0.000118569
15 *931:RESET_B 0.000732577
16 *907:RESET_B 0
17 *911:RESET_B 0.000946614
18 *908:RESET_B 3.60762e-05
19 *904:RESET_B 6.51225e-05
20 *905:RESET_B 0.000599236
21 *929:RESET_B 0.000685004
22 *928:RESET_B 0.000189191
23 *921:RESET_B 4.27627e-05
24 *920:RESET_B 0.000326998
25 *918:RESET_B 0.00049394
26 *919:RESET_B 0.00026481
27 *922:RESET_B 0.000412584
28 *923:RESET_B 2.55485e-05
29 *924:RESET_B 7.92458e-05
30 *927:RESET_B 0.000373253
31 *925:RESET_B 0.000192797
32 *926:RESET_B 0
33 *1001:X 0.000586535
34 *365:327 0.000250073
35 *365:289 0.000269876
36 *365:287 0.000588406
37 *365:285 0.000549904
38 *365:283 0.000309547
39 *365:213 0.000828446
40 *365:193 0.00120958
41 *365:181 0.00136089
42 *365:177 0.000397151
43 *365:107 0.000454809
44 *365:79 0.00117133
45 *365:64 0.000196705
46 *365:54 0.000593534
47 *365:44 0.000600263
48 *365:30 0.000589031
49 *365:23 0.000269074
50 *365:12 0.000211076
51 *365:10 0.000868819
52 *914:RESET_B *931:D 4.1331e-06
53 *934:RESET_B *934:D 0
54 *365:10 *374:24 0
55 *365:30 *374:24 0
56 *365:44 *374:24 0
57 *365:54 *374:24 0
58 axi_rdata[11] *915:RESET_B 0.000103993
59 axi_rdata[12] *365:193 0
60 axi_rdata[26] *365:54 7.32757e-05
61 gpio_out[1] *365:10 9.80173e-05
62 gpio_out[7] *934:RESET_B 6.07532e-05
63 gpio_out[7] *365:285 2.49459e-05
64 *788:B *904:RESET_B 7.48554e-05
65 *798:B *931:RESET_B 0
66 *798:B *365:213 0
67 *802:B *365:285 0
68 *802:B *365:287 0
69 *805:B *912:RESET_B 0.000263204
70 *807:A *916:RESET_B 0
71 *808:A *916:RESET_B 0
72 *810:B *920:RESET_B 1.41029e-05
73 *813:B *923:RESET_B 4.70821e-05
74 *814:A *365:54 1.66761e-05
75 *816:B *929:RESET_B 2.74795e-05
76 *838:A3 *365:177 0.000247096
77 *852:D *911:RESET_B 0
78 *852:D *365:193 0
79 *854:B1_N *910:RESET_B 0.000159677
80 *859:A *914:RESET_B 0
81 *860:A *914:RESET_B 3.34783e-05
82 *860:A *365:327 9.97744e-05
83 *861:B *914:RESET_B 2.56601e-05
84 *861:C *914:RESET_B 0
85 *861:C *915:RESET_B 9.00983e-05
86 *862:D *914:RESET_B 0
87 *862:D *931:RESET_B 0.000270989
88 *873:A *931:RESET_B 0
89 *878:B1 *918:RESET_B 0.000229519
90 *878:B1 *365:79 7.83587e-05
91 *880:A *918:RESET_B 7.83587e-05
92 *880:B *918:RESET_B 0.00016964
93 *882:A1 *919:RESET_B 0.000147374
94 *882:A1 *365:107 0
95 *882:B1_N *918:RESET_B 2.84494e-05
96 *882:B1_N *365:79 3.69697e-05
97 *883:A *365:54 2.11419e-05
98 *884:B2 *365:64 2.93957e-05
99 *890:A1 *365:10 0.000120689
100 *890:A1 *365:12 0.00015726
101 *890:A1 *365:23 0.000103767
102 *890:A1 *365:30 0.000185567
103 *891:A *365:30 3.81995e-05
104 *891:A *365:44 4.75812e-05
105 *891:A *365:54 2.90297e-05
106 *891:C *365:54 0.000298525
107 *891:D *365:54 1.07987e-05
108 *894:B *365:10 0.000175519
109 *898:CLK *365:10 9.43558e-05
110 *904:CLK *905:RESET_B 0.000112045
111 *909:CLK *909:RESET_B 5.33005e-05
112 *911:D *911:RESET_B 0.000338089
113 *914:D *912:RESET_B 0.000137224
114 *914:D *365:327 0.000268536
115 *915:CLK *913:RESET_B 4.50675e-05
116 *915:D *913:RESET_B 8.94203e-05
117 *915:D *915:RESET_B 0
118 *917:D *917:RESET_B 5.43313e-05
119 *920:CLK *918:RESET_B 4.16984e-05
120 *920:D *920:RESET_B 0.000156553
121 *921:D *918:RESET_B 0
122 *921:D *920:RESET_B 0
123 *922:CLK *918:RESET_B 0
124 *925:D *929:RESET_B 3.17123e-05
125 *927:CLK *927:RESET_B 0.000142856
126 *927:D *927:RESET_B 5.52302e-05
127 *963:A *928:RESET_B 4.3143e-05
128 *963:A *365:10 5.86251e-05
129 *963:A *365:12 0.00014104
130 *963:A *365:23 1.6806e-05
131 *979:A *365:54 1.00375e-05
132 *981:A *924:RESET_B 1.95074e-05
133 *995:A *911:RESET_B 9.1915e-05
134 *996:A *930:RESET_B 0
135 *996:A *365:287 0
136 *996:A *365:289 0
137 *1006:A *931:RESET_B 0.000213091
138 *1010:A *365:287 0
139 *1013:A *912:RESET_B 0.000226595
140 *1038:A *929:RESET_B 0.000425682
141 *1041:A *930:RESET_B 3.56976e-05
142 *1042:A *930:RESET_B 0
143 *1042:A *365:287 0
144 *1042:A *365:289 0
145 *1045:A *365:10 0
146 *149:14 *911:RESET_B 0.000368348
147 *149:14 *914:RESET_B 0
148 *213:18 *365:177 0.000106036
149 *213:18 *365:181 8.75486e-05
150 *213:18 *365:193 5.03772e-05
151 *213:18 *365:213 2.49484e-05
152 *222:10 *911:RESET_B 0
153 *222:10 *365:193 3.11905e-05
154 *223:23 *910:RESET_B 0
155 *226:10 *915:RESET_B 0.000227736
156 *241:31 *365:54 7.83805e-05
157 *241:43 *365:213 0
158 *244:14 *365:54 2.06178e-05
159 *249:64 *929:RESET_B 6.3629e-05
160 *249:66 *905:RESET_B 0.000173313
161 *249:66 *929:RESET_B 0.000116339
162 *251:89 *919:RESET_B 4.10403e-05
163 *253:10 *906:RESET_B 0.000133695
164 *254:12 *931:RESET_B 0
165 *254:58 *931:RESET_B 0
166 *255:14 *365:193 0.000205856
167 *255:50 *365:287 0
168 *255:65 *365:287 0
169 *255:80 *934:RESET_B 0
170 *255:80 *365:285 0
171 *255:80 *365:287 0
172 *256:6 *909:RESET_B 0.00013324
173 *256:6 *365:283 2.51935e-05
174 *256:68 *909:RESET_B 8.36572e-05
175 *257:6 *910:RESET_B 2.13102e-05
176 *258:14 *909:RESET_B 3.27774e-05
177 *260:10 *912:RESET_B 0.000146474
178 *260:10 *365:327 8.07951e-05
179 *260:34 *914:RESET_B 3.34366e-05
180 *260:34 *915:RESET_B 0
181 *264:12 *916:RESET_B 0
182 *267:12 *919:RESET_B 1.97756e-05
183 *268:14 *920:RESET_B 0
184 *268:25 *920:RESET_B 0.000214342
185 *268:25 *365:54 0.000165026
186 *268:25 *365:64 0.00025938
187 *268:25 *365:107 0.000117196
188 *269:12 *365:79 9.16671e-05
189 *269:18 *365:79 0.000117801
190 *270:10 *365:64 0
191 *270:10 *365:107 0
192 *271:8 *365:54 3.95444e-05
193 *271:8 *365:64 5.99221e-05
194 *272:12 *924:RESET_B 2.89016e-05
195 *272:12 *365:54 0.000118573
196 *282:29 *365:177 7.15687e-05
197 *282:29 *365:181 5.4447e-05
198 *282:29 *365:213 2.88517e-05
199 *283:8 *905:RESET_B 0.000136727
200 *347:18 *365:54 0
201 *364:26 *904:RESET_B 7.48554e-05
*RES
1 *1001:X *365:10 25.0946 
2 *365:10 *365:12 3.91964 
3 *365:12 *926:RESET_B 4.5 
4 *365:12 *365:23 2.60714 
5 *365:23 *925:RESET_B 4.5 
6 *365:23 *365:30 3.46429 
7 *365:30 *927:RESET_B 9.63393 
8 *365:30 *365:44 1.33929 
9 *365:44 *924:RESET_B 5.79464 
10 *365:44 *365:54 9.83929 
11 *365:54 *923:RESET_B 4.97321 
12 *365:54 *365:64 3.46429 
13 *365:64 *922:RESET_B 4.5 
14 *922:RESET_B *365:79 11.0804 
15 *365:79 *919:RESET_B 8.40179 
16 *365:79 *918:RESET_B 13.3839 
17 *365:64 *365:107 1.64286 
18 *365:107 *920:RESET_B 11.0268 
19 *365:107 *921:RESET_B 5.03571 
20 *365:10 *928:RESET_B 7.32143 
21 *925:RESET_B *929:RESET_B 5.33929 
22 *929:RESET_B *905:RESET_B 7.39286 
23 *929:RESET_B *904:RESET_B 10.9464 
24 *905:RESET_B *365:177 9.48214 
25 *365:177 *365:181 2.78571 
26 *365:181 *365:193 20.4464 
27 *365:193 *908:RESET_B 4.97321 
28 *365:193 *911:RESET_B 13.7054 
29 *365:181 *365:213 8.01786 
30 *365:213 *907:RESET_B 4.5 
31 *365:213 *931:RESET_B 14.3393 
32 *365:177 *906:RESET_B 6.61607 
33 *911:RESET_B *909:RESET_B 5.33929 
34 *911:RESET_B *910:RESET_B 14.8661 
35 *931:RESET_B *914:RESET_B 14.8661 
36 *909:RESET_B *365:283 5.40179 
37 *365:283 *365:285 2.85714 
38 *365:285 *365:287 6.5 
39 *365:287 *365:289 3.46429 
40 *365:289 *930:RESET_B 6.14286 
41 *365:289 *932:RESET_B 4.5 
42 *365:287 *933:RESET_B 4.5 
43 *365:285 *935:RESET_B 4.5 
44 *365:283 *934:RESET_B 6.75 
45 *914:RESET_B *365:327 8.5 
46 *365:327 *913:RESET_B 5.38393 
47 *365:327 *912:RESET_B 8.97321 
48 *914:RESET_B *915:RESET_B 15.2768 
49 *915:RESET_B *917:RESET_B 6.98214 
50 *917:RESET_B *916:RESET_B 10.6429 
*END

*D_NET *366 0.001757
*CONN
*I *803:B I *D sky130_fd_sc_hd__xor2_2
*I *999:X O *D sky130_fd_sc_hd__clkdlybuf4s25_1
*CAP
1 *803:B 0.000442829
2 *999:X 0.000442829
3 *999:A *803:B 0.000601517
4 *1000:A *803:B 0.000100388
5 *1011:A *803:B 0.000169441
*RES
1 *999:X *803:B 18.4161 
*END

*D_NET *367 0.00147579
*CONN
*I *930:D I *D sky130_fd_sc_hd__dfrtp_2
*I *952:X O *D sky130_fd_sc_hd__dlygate4sd3_1
*CAP
1 *930:D 0.000432041
2 *952:X 0.000432041
3 *798:B *930:D 0.00023818
4 *930:CLK *930:D 5.71472e-05
5 *1007:A *930:D 0.000316383
*RES
1 *952:X *930:D 28.1714 
*END

*D_NET *368 0.00117776
*CONN
*I *935:D I *D sky130_fd_sc_hd__dfrtp_2
*I *953:X O *D sky130_fd_sc_hd__dlygate4sd3_1
*CAP
1 *935:D 0.000298168
2 *953:X 0.000298168
3 *849:A *935:D 5.52238e-05
4 *909:D *935:D 2.89016e-05
5 *935:CLK *935:D 9.89999e-05
6 *217:18 *935:D 0.000398303
*RES
1 *953:X *935:D 25.2964 
*END

*D_NET *369 0.000995484
*CONN
*I *929:D I *D sky130_fd_sc_hd__dfrtp_2
*I *954:X O *D sky130_fd_sc_hd__dlygate4sd3_1
*CAP
1 *929:D 0.000279017
2 *954:X 0.000279017
3 *788:B *929:D 8.17626e-05
4 *249:66 *929:D 9.59306e-05
5 *364:26 *929:D 0.000259756
*RES
1 *954:X *929:D 32.8902 
*END

*D_NET *370 0.00121535
*CONN
*I *933:D I *D sky130_fd_sc_hd__dfrtp_2
*I *955:X O *D sky130_fd_sc_hd__dlygate4sd3_1
*CAP
1 *933:D 0.000312449
2 *955:X 0.000312449
3 *930:CLK *933:D 0
4 *989:A *933:D 0
5 *1042:A *933:D 0.00059045
6 *256:28 *933:D 0
*RES
1 *955:X *933:D 35.5464 
*END

*D_NET *371 0.000971183
*CONN
*I *931:D I *D sky130_fd_sc_hd__dfrtp_2
*I *956:X O *D sky130_fd_sc_hd__dlygate4sd3_1
*CAP
1 *931:D 0.000316537
2 *956:X 0.000316537
3 *853:A *931:D 9.90367e-05
4 *853:B *931:D 4.45768e-06
5 *862:D *931:D 0
6 *914:RESET_B *931:D 4.1331e-06
7 *956:A *931:D 0.000230482
8 *149:14 *931:D 0
*RES
1 *956:X *931:D 32.35 
*END

*D_NET *372 0.00223766
*CONN
*I *804:B I *D sky130_fd_sc_hd__xor2_2
*I *1000:X O *D sky130_fd_sc_hd__clkdlybuf4s25_1
*CAP
1 *804:B 0.000860555
2 *1000:X 0.000860555
3 *805:B *804:B 8.90448e-05
4 *863:A1 *804:B 7.27054e-05
5 *863:A2 *804:B 9.54798e-06
6 *863:B1_N *804:B 0.000159909
7 *912:CLK *804:B 7.57312e-05
8 *912:D *804:B 8.88893e-05
9 *915:D *804:B 0
10 *1013:A *804:B 2.07256e-05
*RES
1 *1000:X *804:B 30.7018 
*END

*D_NET *373 0.00162563
*CONN
*I *934:D I *D sky130_fd_sc_hd__dfrtp_2
*I *851:A I *D sky130_fd_sc_hd__xor2_2
*I *957:X O *D sky130_fd_sc_hd__dlygate4sd3_1
*CAP
1 *934:D 0.000403548
2 *851:A 0
3 *957:X 0.000312521
4 *373:8 0.000716069
5 gpio_out[7] *934:D 0
6 *848:B *934:D 0
7 *849:B *373:8 8.86413e-05
8 *851:B *373:8 4.96155e-05
9 *910:CLK *934:D 0
10 *910:D *934:D 0
11 *934:RESET_B *934:D 0
12 *937:A *373:8 0
13 *957:A *373:8 5.52302e-05
14 *220:12 *934:D 0
15 *255:80 *934:D 0
*RES
1 *957:X *373:8 14.7821 
2 *373:8 *851:A 9.3 
3 *373:8 *934:D 24.9607 
*END

*D_NET *374 0.00562852
*CONN
*I *894:A I *D sky130_fd_sc_hd__xor2_2
*I *958:X O *D sky130_fd_sc_hd__dlygate4sd3_1
*CAP
1 *894:A 0
2 *958:X 0.0014372
3 *374:24 0.0014372
4 axi_rdata[28] *374:24 2.83129e-05
5 axi_rdata[29] *374:24 0
6 axi_rdata[31] *374:24 0.000698421
7 gpio_out[1] *374:24 0
8 *815:B *374:24 5.91832e-05
9 *885:B1 *374:24 2.26973e-05
10 *889:C *374:24 0.000257799
11 *891:B *374:24 0.000105033
12 *893:B *374:24 7.94202e-05
13 *894:B *374:24 0.00010096
14 *927:D *374:24 0.000127439
15 *949:A *374:24 5.33433e-05
16 *963:A *374:24 0.000233294
17 *1028:A *374:24 0.000897324
18 *1045:A *374:24 8.62572e-05
19 *244:14 *374:24 4.64488e-06
20 *365:10 *374:24 0
21 *365:30 *374:24 0
22 *365:44 *374:24 0
23 *365:54 *374:24 0
*RES
1 *958:X *374:24 46.1861 
2 *374:24 *894:A 9.3 
*END

*D_NET *375 0.00136404
*CONN
*I *786:A I *D sky130_fd_sc_hd__inv_2
*I *959:X O *D sky130_fd_sc_hd__dlygate4sd3_1
*CAP
1 *786:A 0.000457287
2 *959:X 0.000457287
3 *896:RESET_B *786:A 6.54574e-05
4 *897:RESET_B *786:A 2.81497e-05
5 *242:18 *786:A 0.000125371
6 *252:56 *786:A 2.59355e-05
7 *263:51 *786:A 5.22575e-05
8 *315:52 *786:A 0.000152296
*RES
1 *959:X *786:A 36.0821 
*END

*D_NET *376 0.00113665
*CONN
*I *928:D I *D sky130_fd_sc_hd__dfrtp_2
*I *960:X O *D sky130_fd_sc_hd__dlygate4sd3_1
*CAP
1 *928:D 0.000260935
2 *960:X 0.000260935
3 *960:A *928:D 0.000285278
4 *1038:A *928:D 0.000283683
5 *249:137 *928:D 4.58194e-05
*RES
1 *960:X *928:D 33.5464 
*END

*D_NET *377 0.000927977
*CONN
*I *932:D I *D sky130_fd_sc_hd__dfrtp_2
*I *961:X O *D sky130_fd_sc_hd__dlygate4sd3_1
*CAP
1 *932:D 0.000335597
2 *961:X 0.000335597
3 *248:112 *932:D 0.000256783
*RES
1 *961:X *932:D 24.475 
*END

*D_NET *378 0.00362068
*CONN
*I *893:A I *D sky130_fd_sc_hd__xor2_2
*I *962:X O *D sky130_fd_sc_hd__dlygate4sd3_1
*CAP
1 *893:A 0
2 *962:X 0.000936174
3 *378:12 0.000936174
4 axi_rdata[29] *378:12 0
5 *817:B *378:12 2.6044e-05
6 *818:A *378:12 0
7 *820:A *378:12 0
8 *888:B *378:12 0
9 *895:D *378:12 0.000171807
10 *938:A *378:12 6.56976e-05
11 *983:A *378:12 0.000145617
12 *1025:A *378:12 0.00123697
13 *244:14 *378:12 0.000102197
*RES
1 *962:X *378:12 41.1393 
2 *378:12 *893:A 9.3 
*END

*D_NET *379 0.00336266
*CONN
*I *892:A I *D sky130_fd_sc_hd__xor2_2
*I *963:X O *D sky130_fd_sc_hd__dlygate4sd3_1
*CAP
1 *892:A 0.000611616
2 *963:X 0.000611616
3 *887:B *892:A 1.82462e-05
4 *890:B1_N *892:A 0.000130284
5 *898:D *892:A 0.000310516
6 *926:D *892:A 0.00032764
7 *243:12 *892:A 0.00035013
8 *249:10 *892:A 0.000195655
9 *249:49 *892:A 0.000146853
10 *249:60 *892:A 0.000191568
11 *249:95 *892:A 0.000165742
12 *364:26 *892:A 0.000302793
*RES
1 *963:X *892:A 42.9393 
*END

*D_NET *380 0.000916182
*CONN
*I *865:B1 I *D sky130_fd_sc_hd__a21oi_2
*I *964:X O *D sky130_fd_sc_hd__dlygate4sd3_1
*CAP
1 *865:B1 0.000395827
2 *964:X 0.000395827
3 *808:A *865:B1 2.65105e-05
4 *871:A *865:B1 0
5 *964:A *865:B1 4.27935e-05
6 *264:12 *865:B1 0
7 *265:6 *865:B1 5.52238e-05
*RES
1 *964:X *865:B1 34.3143 
*END

*D_NET *381 0.00139531
*CONN
*I *828:A I *D sky130_fd_sc_hd__xnor2_2
*I *965:X O *D sky130_fd_sc_hd__dlygate4sd3_1
*CAP
1 *828:A 0.000451537
2 *965:X 0.000451537
3 *828:B *828:A 5.80706e-06
4 *834:A1 *828:A 2.12087e-05
5 *834:A2 *828:A 7.26481e-05
6 *834:B1 *828:A 0.000185118
7 *903:D *828:A 9.83388e-05
8 *208:8 *828:A 0.00010911
9 *278:44 *828:A 0
*RES
1 *965:X *828:A 36.8857 
*END

*D_NET *382 0.00256951
*CONN
*I *822:A I *D sky130_fd_sc_hd__xnor2_2
*I *966:X O *D sky130_fd_sc_hd__dlygate4sd3_1
*CAP
1 *822:A 0.000505275
2 *966:X 0.000505275
3 *887:B *822:A 0.000712377
4 *926:CLK *822:A 8.55871e-05
5 *960:A *822:A 4.69063e-05
6 *347:18 *822:A 0.000714085
*RES
1 *966:X *822:A 41.3857 
*END
