*SPEF "ieee 1481-1999"
*DESIGN "riscv_soc_top"
*DATE "05:44:18 Wednesday September 09, 2026"
*VENDOR "The OpenROAD Project"
*PROGRAM "OpenROAD"
*VERSION "dcf36133a369abc8f3c5e5738cd4d82e4903c0e0"
*DESIGN_FLOW "NAME_SCOPE LOCAL" "PIN_CAP NONE"
*DIVIDER /
*DELIMITER :
*BUS_DELIMITER []
*T_UNIT 1 NS
*C_UNIT 1 PF
*R_UNIT 1 OHM
*L_UNIT 1 HENRY

*NAME_MAP
*3 clk
*4 led[0]
*5 led[1]
*6 led[2]
*7 led[3]
*8 led[4]
*9 net
*10 net85
*11 net86
*12 rst_n
*13 uart_rx
*14 uart_tx
*15 _0000_
*16 _0001_
*17 _0002_
*18 _0003_
*19 _0004_
*20 _0005_
*21 _0006_
*22 _0007_
*23 _0008_
*24 _0009_
*25 _0010_
*26 _0011_
*27 _0012_
*28 _0013_
*29 _0014_
*30 _0015_
*31 _0016_
*32 _0017_
*33 _0018_
*34 _0019_
*35 _0020_
*36 _0021_
*37 _0022_
*38 _0023_
*39 _0024_
*40 _0025_
*41 _0026_
*42 _0027_
*43 _0028_
*44 _0029_
*45 _0030_
*46 _0031_
*47 _0032_
*48 _0033_
*49 _0034_
*50 _0035_
*51 _0036_
*52 _0037_
*53 _0038_
*54 _0039_
*55 _0040_
*56 _0041_
*57 _0042_
*58 _0043_
*59 _0044_
*60 _0045_
*61 _0046_
*62 _0047_
*63 _0048_
*64 _0049_
*65 _0050_
*66 _0051_
*67 _0052_
*68 _0053_
*69 _0054_
*70 _0055_
*71 _0056_
*72 _0057_
*73 _0058_
*74 _0059_
*75 _0060_
*76 _0061_
*77 _0062_
*78 _0063_
*79 _0064_
*80 _0065_
*81 _0066_
*82 _0067_
*83 _0068_
*84 _0069_
*85 _0070_
*86 _0071_
*87 _0072_
*88 _0073_
*89 _0074_
*90 _0075_
*91 _0076_
*92 _0077_
*93 _0078_
*94 _0079_
*95 _0080_
*96 _0081_
*97 _0082_
*98 _0083_
*99 _0084_
*100 _0085_
*101 _0086_
*102 _0087_
*103 _0088_
*104 _0089_
*105 _0090_
*106 _0091_
*107 _0092_
*108 _0093_
*109 _0094_
*110 _0095_
*111 _0096_
*112 _0097_
*113 _0098_
*114 _0099_
*115 _0100_
*116 _0101_
*117 _0102_
*118 _0103_
*119 _0104_
*120 _0105_
*121 _0106_
*122 _0107_
*123 _0108_
*124 _0109_
*125 _0110_
*126 _0111_
*127 _0112_
*128 _0113_
*129 _0114_
*130 _0115_
*131 _0116_
*132 _0117_
*133 _0118_
*134 _0119_
*135 _0120_
*136 _0121_
*137 _0122_
*138 _0123_
*139 _0124_
*140 _0125_
*141 _0126_
*142 _0127_
*143 _0128_
*144 _0129_
*145 _0130_
*146 _0131_
*147 _0132_
*148 _0133_
*149 _0134_
*150 _0135_
*151 _0136_
*152 _0137_
*153 _0138_
*154 _0139_
*155 _0140_
*156 _0141_
*157 _0142_
*158 _0143_
*159 _0144_
*160 _0145_
*161 _0146_
*162 _0147_
*163 _0148_
*164 _0149_
*165 _0150_
*166 _0151_
*167 _0152_
*168 _0153_
*169 _0154_
*170 _0155_
*171 _0156_
*172 _0157_
*173 _0158_
*174 _0159_
*175 _0160_
*176 _0161_
*177 _0162_
*178 _0163_
*179 _0164_
*180 _0165_
*181 _0166_
*182 _0167_
*183 _0168_
*184 _0169_
*185 _0170_
*186 _0171_
*187 _0172_
*188 _0173_
*189 _0174_
*190 _0175_
*191 _0176_
*192 _0177_
*193 _0178_
*194 _0179_
*195 _0180_
*196 _0181_
*197 _0182_
*198 _0183_
*199 _0184_
*200 _0185_
*201 _0186_
*202 _0187_
*203 _0188_
*204 _0189_
*205 _0190_
*206 _0191_
*207 _0192_
*208 _0193_
*209 _0194_
*210 _0195_
*211 _0196_
*212 _0197_
*213 _0198_
*214 _0199_
*215 _0200_
*216 _0201_
*217 _0202_
*218 _0203_
*219 _0204_
*220 _0205_
*221 _0206_
*222 _0207_
*223 _0208_
*224 _0209_
*225 _0210_
*226 _0211_
*227 _0212_
*228 _0213_
*229 _0214_
*230 _0215_
*231 _0216_
*232 _0217_
*233 _0218_
*234 _0219_
*235 _0220_
*236 _0221_
*237 _0222_
*238 _0223_
*239 _0224_
*240 _0225_
*241 _0226_
*242 _0227_
*243 _0228_
*244 _0229_
*245 _0230_
*246 _0231_
*247 _0232_
*248 _0233_
*249 _0234_
*250 _0235_
*251 _0236_
*252 _0237_
*253 _0238_
*254 _0239_
*255 _0240_
*256 _0241_
*257 _0242_
*258 _0243_
*259 _0244_
*260 _0245_
*261 _0246_
*262 _0247_
*263 _0248_
*264 _0249_
*265 _0250_
*266 _0251_
*267 _0252_
*268 _0253_
*269 _0254_
*270 _0255_
*271 _0256_
*272 _0257_
*273 _0258_
*274 _0259_
*275 _0260_
*276 _0261_
*277 _0262_
*278 _0263_
*279 _0264_
*280 _0265_
*281 _0266_
*282 _0267_
*283 _0268_
*284 _0269_
*285 _0270_
*286 _0271_
*287 _0272_
*288 _0273_
*289 _0274_
*290 _0275_
*291 _0276_
*292 _0277_
*293 _0278_
*294 _0279_
*295 _0280_
*296 _0281_
*297 _0282_
*298 _0283_
*299 _0284_
*300 _0285_
*301 _0286_
*302 _0287_
*303 _0288_
*304 _0289_
*305 _0290_
*306 _0291_
*307 _0292_
*308 _0293_
*309 _0294_
*310 _0295_
*311 _0296_
*312 _0297_
*313 _0298_
*314 _0299_
*315 _0300_
*316 _0301_
*317 _0302_
*318 _0303_
*319 _0304_
*320 _0305_
*321 _0306_
*322 _0307_
*323 _0308_
*324 _0309_
*325 _0310_
*326 _0311_
*327 _0312_
*328 _0313_
*329 _0314_
*330 _0315_
*331 _0316_
*332 _0317_
*333 _0318_
*334 _0319_
*335 _0320_
*336 _0321_
*337 _0322_
*338 _0323_
*339 _0324_
*340 _0325_
*341 _0326_
*342 _0327_
*343 _0328_
*344 _0329_
*345 _0330_
*346 _0331_
*347 _0332_
*348 _0333_
*349 _0334_
*350 _0335_
*351 _0336_
*352 _0337_
*353 _0338_
*354 _0339_
*355 _0340_
*356 _0341_
*357 _0342_
*358 _0343_
*359 _0344_
*360 _0345_
*361 _0346_
*362 _0347_
*363 _0348_
*364 _0349_
*365 _0350_
*366 _0351_
*367 _0352_
*368 _0353_
*369 _0354_
*370 _0355_
*371 _0356_
*372 _0357_
*373 _0358_
*374 _0359_
*375 _0360_
*376 _0361_
*377 _0362_
*378 _0363_
*379 _0364_
*380 _0365_
*381 _0366_
*382 _0367_
*383 _0368_
*384 _0369_
*385 _0370_
*386 _0371_
*387 _0372_
*388 _0373_
*389 _0374_
*390 _0375_
*391 _0376_
*392 _0377_
*393 _0378_
*394 _0379_
*395 _0380_
*396 _0381_
*397 _0382_
*398 _0383_
*399 _0384_
*400 _0385_
*401 _0386_
*402 _0387_
*403 _0388_
*404 _0389_
*405 _0390_
*406 _0391_
*407 _0392_
*408 _0393_
*409 _0394_
*410 _0395_
*411 _0396_
*412 _0397_
*413 _0398_
*414 _0399_
*415 _0400_
*416 _0401_
*417 _0402_
*418 _0403_
*419 _0404_
*420 _0405_
*421 _0406_
*422 _0407_
*423 _0408_
*424 _0409_
*425 _0410_
*426 _0411_
*427 _0412_
*428 _0413_
*429 _0414_
*430 _0415_
*431 _0416_
*432 _0417_
*433 _0418_
*434 _0419_
*435 _0420_
*436 _0421_
*437 _0422_
*438 _0423_
*439 _0424_
*440 _0425_
*441 _0426_
*442 _0427_
*443 _0428_
*444 _0429_
*445 _0430_
*446 _0431_
*447 _0432_
*448 _0433_
*449 clknet_0_clk
*450 clknet_4_0_0_clk
*451 clknet_4_10_0_clk
*452 clknet_4_11_0_clk
*453 clknet_4_12_0_clk
*454 clknet_4_13_0_clk
*455 clknet_4_14_0_clk
*456 clknet_4_15_0_clk
*457 clknet_4_1_0_clk
*458 clknet_4_2_0_clk
*459 clknet_4_3_0_clk
*460 clknet_4_4_0_clk
*461 clknet_4_5_0_clk
*462 clknet_4_6_0_clk
*463 clknet_4_7_0_clk
*464 clknet_4_8_0_clk
*465 clknet_4_9_0_clk
*466 clknet_5_0__leaf_clk
*467 clknet_5_10__leaf_clk
*468 clknet_5_11__leaf_clk
*469 clknet_5_12__leaf_clk
*470 clknet_5_13__leaf_clk
*471 clknet_5_14__leaf_clk
*472 clknet_5_15__leaf_clk
*473 clknet_5_16__leaf_clk
*474 clknet_5_17__leaf_clk
*475 clknet_5_18__leaf_clk
*476 clknet_5_19__leaf_clk
*477 clknet_5_1__leaf_clk
*478 clknet_5_20__leaf_clk
*479 clknet_5_21__leaf_clk
*480 clknet_5_22__leaf_clk
*481 clknet_5_23__leaf_clk
*482 clknet_5_24__leaf_clk
*483 clknet_5_25__leaf_clk
*484 clknet_5_26__leaf_clk
*485 clknet_5_27__leaf_clk
*486 clknet_5_28__leaf_clk
*487 clknet_5_29__leaf_clk
*488 clknet_5_2__leaf_clk
*489 clknet_5_30__leaf_clk
*490 clknet_5_31__leaf_clk
*491 clknet_5_3__leaf_clk
*492 clknet_5_4__leaf_clk
*493 clknet_5_5__leaf_clk
*494 clknet_5_6__leaf_clk
*495 clknet_5_7__leaf_clk
*496 clknet_5_8__leaf_clk
*497 clknet_5_9__leaf_clk
*498 coh_fill_notify\[0\]
*499 coh_fill_notify\[1\]
*500 coh_inv_ack\[0\]
*501 coh_inv_ack\[1\]
*502 coh_status\[0\]
*503 coh_status\[10\]
*504 coh_status\[11\]
*505 coh_status\[12\]
*506 coh_status\[13\]
*507 coh_status\[14\]
*508 coh_status\[15\]
*509 coh_status\[1\]
*510 coh_status\[2\]
*511 coh_status\[3\]
*512 coh_status\[4\]
*513 coh_status\[5\]
*514 coh_status\[6\]
*515 coh_status\[7\]
*516 coh_status\[8\]
*517 coh_status\[9\]
*518 coh_write_notify\[0\]
*519 coh_write_notify\[1\]
*520 m_arvalid\[0\]
*521 m_arvalid\[1\]
*522 m_awvalid\[0\]
*523 m_awvalid\[1\]
*524 m_bready\[0\]
*525 m_bready\[1\]
*526 m_rready\[0\]
*527 m_rready\[1\]
*528 m_wvalid\[0\]
*529 m_wvalid\[1\]
*530 net1
*531 net10
*532 net100
*533 net101
*534 net102
*535 net103
*536 net104
*537 net105
*538 net106
*539 net107
*540 net108
*541 net109
*542 net11
*543 net110
*544 net111
*545 net112
*546 net113
*547 net114
*548 net115
*549 net116
*550 net117
*551 net118
*552 net119
*553 net12
*554 net120
*555 net121
*556 net122
*557 net123
*558 net124
*559 net125
*560 net126
*561 net127
*562 net128
*563 net129
*564 net13
*565 net130
*566 net131
*567 net132
*568 net133
*569 net134
*570 net135
*571 net136
*572 net137
*573 net138
*574 net139
*575 net14
*576 net140
*577 net141
*578 net142
*579 net143
*580 net144
*581 net145
*582 net146
*583 net147
*584 net148
*585 net149
*586 net15
*587 net150
*588 net151
*589 net152
*590 net153
*591 net154
*592 net155
*593 net156
*594 net157
*595 net158
*596 net159
*597 net16
*598 net160
*599 net161
*600 net162
*601 net163
*602 net164
*603 net165
*604 net166
*605 net167
*606 net168
*607 net169
*608 net17
*609 net170
*610 net171
*611 net172
*612 net173
*613 net174
*614 net175
*615 net176
*616 net177
*617 net178
*618 net179
*619 net18
*620 net180
*621 net181
*622 net182
*623 net183
*624 net184
*625 net185
*626 net186
*627 net187
*628 net188
*629 net189
*630 net19
*631 net190
*632 net191
*633 net192
*634 net193
*635 net194
*636 net195
*637 net196
*638 net197
*639 net198
*640 net199
*641 net2
*642 net20
*643 net200
*644 net201
*645 net202
*646 net203
*647 net21
*648 net22
*649 net23
*650 net24
*651 net25
*652 net26
*653 net27
*654 net28
*655 net29
*656 net3
*657 net30
*658 net31
*659 net32
*660 net33
*661 net34
*662 net35
*663 net36
*664 net37
*665 net38
*666 net39
*667 net4
*668 net40
*669 net41
*670 net42
*671 net43
*672 net44
*673 net45
*674 net46
*675 net47
*676 net48
*677 net49
*678 net5
*679 net50
*680 net51
*681 net52
*682 net53
*683 net54
*684 net55
*685 net56
*686 net57
*687 net58
*688 net59
*689 net6
*690 net60
*691 net61
*692 net62
*693 net63
*694 net64
*695 net65
*696 net66
*697 net67
*698 net68
*699 net69
*700 net7
*701 net70
*702 net71
*703 net72
*704 net73
*705 net74
*706 net75
*707 net76
*708 net77
*709 net78
*710 net79
*711 net8
*712 net80
*713 net81
*714 net82
*715 net83
*716 net84
*717 net87
*718 net88
*719 net89
*720 net9
*721 net90
*722 net91
*723 net92
*724 net93
*725 net94
*726 net95
*727 net96
*728 net97
*729 net98
*730 net99
*731 per_core\[0\]\.u_core\.rst_n
*732 per_core\[0\]\.u_dcache\.line_valid_reg\[0\]\[0\]
*733 per_core\[0\]\.u_dcache\.line_valid_reg\[1\]\[0\]
*734 per_core\[0\]\.u_dcache\.line_valid_reg\[2\]\[0\]
*735 per_core\[0\]\.u_dcache\.line_valid_reg\[3\]\[0\]
*736 per_core\[1\]\.u_dcache\.line_valid_reg\[0\]\[0\]
*737 per_core\[1\]\.u_dcache\.line_valid_reg\[1\]\[0\]
*738 per_core\[1\]\.u_dcache\.line_valid_reg\[2\]\[0\]
*739 per_core\[1\]\.u_dcache\.line_valid_reg\[3\]\[0\]
*740 rst_sync_n_1
*741 s_bvalid
*742 s_rvalid
*743 u_arb\.pref_d
*744 u_arb\.pref_q
*745 u_arb\.state_q\[0\]
*746 u_arb\.state_q\[2\]
*747 u_coh\.coh_state\[0\]
*748 u_coh\.coh_state\[1\]
*749 u_coh\.coh_state\[2\]
*750 u_coh\.coh_state_next\[0\]
*751 u_coh\.coh_state_next\[1\]
*752 u_coh\.last_served
*753 u_coh\.proc_core_d
*754 u_coh\.proc_core_q
*755 u_coh\.proc_idx_d\[0\]
*756 u_coh\.proc_idx_d\[1\]
*757 u_coh\.proc_idx_q\[0\]
*758 u_coh\.proc_idx_q\[1\]
*759 u_gpio\.led0_active
*760 u_gpio\.led0_cnt_d\[0\]
*761 u_gpio\.led0_cnt_d\[10\]
*762 u_gpio\.led0_cnt_d\[11\]
*763 u_gpio\.led0_cnt_d\[12\]
*764 u_gpio\.led0_cnt_d\[13\]
*765 u_gpio\.led0_cnt_d\[14\]
*766 u_gpio\.led0_cnt_d\[15\]
*767 u_gpio\.led0_cnt_d\[16\]
*768 u_gpio\.led0_cnt_d\[17\]
*769 u_gpio\.led0_cnt_d\[18\]
*770 u_gpio\.led0_cnt_d\[19\]
*771 u_gpio\.led0_cnt_d\[1\]
*772 u_gpio\.led0_cnt_d\[20\]
*773 u_gpio\.led0_cnt_d\[21\]
*774 u_gpio\.led0_cnt_d\[2\]
*775 u_gpio\.led0_cnt_d\[3\]
*776 u_gpio\.led0_cnt_d\[4\]
*777 u_gpio\.led0_cnt_d\[5\]
*778 u_gpio\.led0_cnt_d\[6\]
*779 u_gpio\.led0_cnt_d\[7\]
*780 u_gpio\.led0_cnt_d\[8\]
*781 u_gpio\.led0_cnt_d\[9\]
*782 u_gpio\.led0_cnt_q\[0\]
*783 u_gpio\.led0_cnt_q\[10\]
*784 u_gpio\.led0_cnt_q\[11\]
*785 u_gpio\.led0_cnt_q\[12\]
*786 u_gpio\.led0_cnt_q\[13\]
*787 u_gpio\.led0_cnt_q\[14\]
*788 u_gpio\.led0_cnt_q\[15\]
*789 u_gpio\.led0_cnt_q\[16\]
*790 u_gpio\.led0_cnt_q\[17\]
*791 u_gpio\.led0_cnt_q\[18\]
*792 u_gpio\.led0_cnt_q\[19\]
*793 u_gpio\.led0_cnt_q\[1\]
*794 u_gpio\.led0_cnt_q\[20\]
*795 u_gpio\.led0_cnt_q\[21\]
*796 u_gpio\.led0_cnt_q\[2\]
*797 u_gpio\.led0_cnt_q\[3\]
*798 u_gpio\.led0_cnt_q\[4\]
*799 u_gpio\.led0_cnt_q\[5\]
*800 u_gpio\.led0_cnt_q\[6\]
*801 u_gpio\.led0_cnt_q\[7\]
*802 u_gpio\.led0_cnt_q\[8\]
*803 u_gpio\.led0_cnt_q\[9\]
*804 u_gpio\.led1_active
*805 u_gpio\.led1_cnt_d\[0\]
*806 u_gpio\.led1_cnt_d\[10\]
*807 u_gpio\.led1_cnt_d\[11\]
*808 u_gpio\.led1_cnt_d\[12\]
*809 u_gpio\.led1_cnt_d\[13\]
*810 u_gpio\.led1_cnt_d\[14\]
*811 u_gpio\.led1_cnt_d\[15\]
*812 u_gpio\.led1_cnt_d\[16\]
*813 u_gpio\.led1_cnt_d\[17\]
*814 u_gpio\.led1_cnt_d\[18\]
*815 u_gpio\.led1_cnt_d\[19\]
*816 u_gpio\.led1_cnt_d\[1\]
*817 u_gpio\.led1_cnt_d\[20\]
*818 u_gpio\.led1_cnt_d\[21\]
*819 u_gpio\.led1_cnt_d\[2\]
*820 u_gpio\.led1_cnt_d\[3\]
*821 u_gpio\.led1_cnt_d\[4\]
*822 u_gpio\.led1_cnt_d\[5\]
*823 u_gpio\.led1_cnt_d\[6\]
*824 u_gpio\.led1_cnt_d\[7\]
*825 u_gpio\.led1_cnt_d\[8\]
*826 u_gpio\.led1_cnt_d\[9\]
*827 u_gpio\.led1_cnt_q\[0\]
*828 u_gpio\.led1_cnt_q\[10\]
*829 u_gpio\.led1_cnt_q\[11\]
*830 u_gpio\.led1_cnt_q\[12\]
*831 u_gpio\.led1_cnt_q\[13\]
*832 u_gpio\.led1_cnt_q\[14\]
*833 u_gpio\.led1_cnt_q\[15\]
*834 u_gpio\.led1_cnt_q\[16\]
*835 u_gpio\.led1_cnt_q\[17\]
*836 u_gpio\.led1_cnt_q\[18\]
*837 u_gpio\.led1_cnt_q\[19\]
*838 u_gpio\.led1_cnt_q\[1\]
*839 u_gpio\.led1_cnt_q\[20\]
*840 u_gpio\.led1_cnt_q\[21\]
*841 u_gpio\.led1_cnt_q\[2\]
*842 u_gpio\.led1_cnt_q\[3\]
*843 u_gpio\.led1_cnt_q\[4\]
*844 u_gpio\.led1_cnt_q\[5\]
*845 u_gpio\.led1_cnt_q\[6\]
*846 u_gpio\.led1_cnt_q\[7\]
*847 u_gpio\.led1_cnt_q\[8\]
*848 u_gpio\.led1_cnt_q\[9\]
*849 u_gpio\.led2_active
*850 u_gpio\.led2_cnt_d\[0\]
*851 u_gpio\.led2_cnt_d\[10\]
*852 u_gpio\.led2_cnt_d\[11\]
*853 u_gpio\.led2_cnt_d\[12\]
*854 u_gpio\.led2_cnt_d\[13\]
*855 u_gpio\.led2_cnt_d\[14\]
*856 u_gpio\.led2_cnt_d\[15\]
*857 u_gpio\.led2_cnt_d\[16\]
*858 u_gpio\.led2_cnt_d\[17\]
*859 u_gpio\.led2_cnt_d\[18\]
*860 u_gpio\.led2_cnt_d\[19\]
*861 u_gpio\.led2_cnt_d\[1\]
*862 u_gpio\.led2_cnt_d\[20\]
*863 u_gpio\.led2_cnt_d\[21\]
*864 u_gpio\.led2_cnt_d\[2\]
*865 u_gpio\.led2_cnt_d\[3\]
*866 u_gpio\.led2_cnt_d\[4\]
*867 u_gpio\.led2_cnt_d\[5\]
*868 u_gpio\.led2_cnt_d\[6\]
*869 u_gpio\.led2_cnt_d\[7\]
*870 u_gpio\.led2_cnt_d\[8\]
*871 u_gpio\.led2_cnt_d\[9\]
*872 u_gpio\.led2_cnt_q\[0\]
*873 u_gpio\.led2_cnt_q\[10\]
*874 u_gpio\.led2_cnt_q\[11\]
*875 u_gpio\.led2_cnt_q\[12\]
*876 u_gpio\.led2_cnt_q\[13\]
*877 u_gpio\.led2_cnt_q\[14\]
*878 u_gpio\.led2_cnt_q\[15\]
*879 u_gpio\.led2_cnt_q\[16\]
*880 u_gpio\.led2_cnt_q\[17\]
*881 u_gpio\.led2_cnt_q\[18\]
*882 u_gpio\.led2_cnt_q\[19\]
*883 u_gpio\.led2_cnt_q\[1\]
*884 u_gpio\.led2_cnt_q\[20\]
*885 u_gpio\.led2_cnt_q\[21\]
*886 u_gpio\.led2_cnt_q\[2\]
*887 u_gpio\.led2_cnt_q\[3\]
*888 u_gpio\.led2_cnt_q\[4\]
*889 u_gpio\.led2_cnt_q\[5\]
*890 u_gpio\.led2_cnt_q\[6\]
*891 u_gpio\.led2_cnt_q\[7\]
*892 u_gpio\.led2_cnt_q\[8\]
*893 u_gpio\.led2_cnt_q\[9\]
*894 u_gpio\.led3_active
*895 u_gpio\.led3_cnt_d\[0\]
*896 u_gpio\.led3_cnt_d\[10\]
*897 u_gpio\.led3_cnt_d\[11\]
*898 u_gpio\.led3_cnt_d\[12\]
*899 u_gpio\.led3_cnt_d\[13\]
*900 u_gpio\.led3_cnt_d\[14\]
*901 u_gpio\.led3_cnt_d\[15\]
*902 u_gpio\.led3_cnt_d\[16\]
*903 u_gpio\.led3_cnt_d\[17\]
*904 u_gpio\.led3_cnt_d\[18\]
*905 u_gpio\.led3_cnt_d\[19\]
*906 u_gpio\.led3_cnt_d\[1\]
*907 u_gpio\.led3_cnt_d\[20\]
*908 u_gpio\.led3_cnt_d\[21\]
*909 u_gpio\.led3_cnt_d\[2\]
*910 u_gpio\.led3_cnt_d\[3\]
*911 u_gpio\.led3_cnt_d\[4\]
*912 u_gpio\.led3_cnt_d\[5\]
*913 u_gpio\.led3_cnt_d\[6\]
*914 u_gpio\.led3_cnt_d\[7\]
*915 u_gpio\.led3_cnt_d\[8\]
*916 u_gpio\.led3_cnt_d\[9\]
*917 u_gpio\.led3_cnt_q\[0\]
*918 u_gpio\.led3_cnt_q\[10\]
*919 u_gpio\.led3_cnt_q\[11\]
*920 u_gpio\.led3_cnt_q\[12\]
*921 u_gpio\.led3_cnt_q\[13\]
*922 u_gpio\.led3_cnt_q\[14\]
*923 u_gpio\.led3_cnt_q\[15\]
*924 u_gpio\.led3_cnt_q\[16\]
*925 u_gpio\.led3_cnt_q\[17\]
*926 u_gpio\.led3_cnt_q\[18\]
*927 u_gpio\.led3_cnt_q\[19\]
*928 u_gpio\.led3_cnt_q\[1\]
*929 u_gpio\.led3_cnt_q\[20\]
*930 u_gpio\.led3_cnt_q\[21\]
*931 u_gpio\.led3_cnt_q\[2\]
*932 u_gpio\.led3_cnt_q\[3\]
*933 u_gpio\.led3_cnt_q\[4\]
*934 u_gpio\.led3_cnt_q\[5\]
*935 u_gpio\.led3_cnt_q\[6\]
*936 u_gpio\.led3_cnt_q\[7\]
*937 u_gpio\.led3_cnt_q\[8\]
*938 u_gpio\.led3_cnt_q\[9\]
*939 u_gpio\.led4_active
*940 u_gpio\.led4_cnt_d\[0\]
*941 u_gpio\.led4_cnt_d\[10\]
*942 u_gpio\.led4_cnt_d\[11\]
*943 u_gpio\.led4_cnt_d\[12\]
*944 u_gpio\.led4_cnt_d\[13\]
*945 u_gpio\.led4_cnt_d\[14\]
*946 u_gpio\.led4_cnt_d\[15\]
*947 u_gpio\.led4_cnt_d\[16\]
*948 u_gpio\.led4_cnt_d\[17\]
*949 u_gpio\.led4_cnt_d\[18\]
*950 u_gpio\.led4_cnt_d\[19\]
*951 u_gpio\.led4_cnt_d\[1\]
*952 u_gpio\.led4_cnt_d\[20\]
*953 u_gpio\.led4_cnt_d\[21\]
*954 u_gpio\.led4_cnt_d\[2\]
*955 u_gpio\.led4_cnt_d\[3\]
*956 u_gpio\.led4_cnt_d\[4\]
*957 u_gpio\.led4_cnt_d\[5\]
*958 u_gpio\.led4_cnt_d\[6\]
*959 u_gpio\.led4_cnt_d\[7\]
*960 u_gpio\.led4_cnt_d\[8\]
*961 u_gpio\.led4_cnt_d\[9\]
*962 u_gpio\.led4_cnt_q\[0\]
*963 u_gpio\.led4_cnt_q\[10\]
*964 u_gpio\.led4_cnt_q\[11\]
*965 u_gpio\.led4_cnt_q\[12\]
*966 u_gpio\.led4_cnt_q\[13\]
*967 u_gpio\.led4_cnt_q\[14\]
*968 u_gpio\.led4_cnt_q\[15\]
*969 u_gpio\.led4_cnt_q\[16\]
*970 u_gpio\.led4_cnt_q\[17\]
*971 u_gpio\.led4_cnt_q\[18\]
*972 u_gpio\.led4_cnt_q\[19\]
*973 u_gpio\.led4_cnt_q\[1\]
*974 u_gpio\.led4_cnt_q\[20\]
*975 u_gpio\.led4_cnt_q\[21\]
*976 u_gpio\.led4_cnt_q\[2\]
*977 u_gpio\.led4_cnt_q\[3\]
*978 u_gpio\.led4_cnt_q\[4\]
*979 u_gpio\.led4_cnt_q\[5\]
*980 u_gpio\.led4_cnt_q\[6\]
*981 u_gpio\.led4_cnt_q\[7\]
*982 u_gpio\.led4_cnt_q\[8\]
*983 u_gpio\.led4_cnt_q\[9\]
*984 u_sram\.ar_ready_d
*985 u_sram\.aw_ready_d
*986 u_sram\.u_sram\.we
*987 u_sram\.w_ready_d
*988 u_uart\.tx_baud_cnt_d\[0\]
*989 u_uart\.tx_baud_cnt_d\[1\]
*990 u_uart\.tx_baud_cnt_d\[2\]
*991 u_uart\.tx_baud_cnt_d\[3\]
*992 u_uart\.tx_baud_cnt_d\[4\]
*993 u_uart\.tx_baud_cnt_d\[5\]
*994 u_uart\.tx_baud_cnt_d\[6\]
*995 u_uart\.tx_baud_cnt_d\[7\]
*996 u_uart\.tx_baud_cnt_d\[8\]
*997 u_uart\.tx_baud_cnt_d\[9\]
*998 u_uart\.tx_baud_cnt_q\[0\]
*999 u_uart\.tx_baud_cnt_q\[1\]
*1000 u_uart\.tx_baud_cnt_q\[2\]
*1001 u_uart\.tx_baud_cnt_q\[3\]
*1002 u_uart\.tx_baud_cnt_q\[4\]
*1003 u_uart\.tx_baud_cnt_q\[5\]
*1004 u_uart\.tx_baud_cnt_q\[6\]
*1005 u_uart\.tx_baud_cnt_q\[7\]
*1006 u_uart\.tx_baud_cnt_q\[8\]
*1007 u_uart\.tx_baud_cnt_q\[9\]
*1008 u_uart\.tx_bitcnt_q\[0\]
*1009 u_uart\.tx_bitcnt_q\[1\]
*1010 u_uart\.tx_bitcnt_q\[2\]
*1011 u_uart\.tx_bitcnt_q\[3\]
*1012 u_uart\.tx_shift_q\[0\]
*1013 u_uart\.tx_shift_q\[1\]
*1014 u_uart\.tx_shift_q\[2\]
*1015 u_uart\.tx_shift_q\[3\]
*1016 u_uart\.tx_shift_q\[4\]
*1017 u_uart\.tx_shift_q\[5\]
*1018 u_uart\.tx_shift_q\[6\]
*1019 u_uart\.tx_shift_q\[7\]
*1020 u_uart\.tx_shift_q\[8\]
*1021 u_uart\.tx_shift_q\[9\]
*1022 u_uart\.tx_state_q\[0\]
*1023 u_uart\.tx_state_q\[1\]
*1024 u_uart\.tx_state_q\[2\]
*1025 u_uart\.tx_state_q\[3\]
*1026 FILLER_0_105
*1027 FILLER_0_108
*1028 FILLER_0_111
*1029 FILLER_0_113
*1030 FILLER_0_116
*1031 FILLER_0_12
*1032 FILLER_0_127
*1033 FILLER_0_130
*1034 FILLER_0_133
*1035 FILLER_0_136
*1036 FILLER_0_139
*1037 FILLER_0_141
*1038 FILLER_0_144
*1039 FILLER_0_147
*1040 FILLER_0_15
*1041 FILLER_0_150
*1042 FILLER_0_153
*1043 FILLER_0_156
*1044 FILLER_0_159
*1045 FILLER_0_162
*1046 FILLER_0_165
*1047 FILLER_0_169
*1048 FILLER_0_172
*1049 FILLER_0_175
*1050 FILLER_0_178
*1051 FILLER_0_18
*1052 FILLER_0_181
*1053 FILLER_0_184
*1054 FILLER_0_187
*1055 FILLER_0_190
*1056 FILLER_0_193
*1057 FILLER_0_197
*1058 FILLER_0_200
*1059 FILLER_0_203
*1060 FILLER_0_21
*1061 FILLER_0_220
*1062 FILLER_0_223
*1063 FILLER_0_225
*1064 FILLER_0_228
*1065 FILLER_0_231
*1066 FILLER_0_234
*1067 FILLER_0_237
*1068 FILLER_0_24
*1069 FILLER_0_240
*1070 FILLER_0_243
*1071 FILLER_0_246
*1072 FILLER_0_249
*1073 FILLER_0_253
*1074 FILLER_0_256
*1075 FILLER_0_259
*1076 FILLER_0_262
*1077 FILLER_0_265
*1078 FILLER_0_268
*1079 FILLER_0_27
*1080 FILLER_0_271
*1081 FILLER_0_274
*1082 FILLER_0_277
*1083 FILLER_0_281
*1084 FILLER_0_284
*1085 FILLER_0_287
*1086 FILLER_0_29
*1087 FILLER_0_290
*1088 FILLER_0_299
*1089 FILLER_0_3
*1090 FILLER_0_302
*1091 FILLER_0_305
*1092 FILLER_0_309
*1093 FILLER_0_312
*1094 FILLER_0_315
*1095 FILLER_0_318
*1096 FILLER_0_32
*1097 FILLER_0_41
*1098 FILLER_0_44
*1099 FILLER_0_47
*1100 FILLER_0_50
*1101 FILLER_0_53
*1102 FILLER_0_6
*1103 FILLER_0_62
*1104 FILLER_0_65
*1105 FILLER_0_68
*1106 FILLER_0_71
*1107 FILLER_0_74
*1108 FILLER_0_77
*1109 FILLER_0_80
*1110 FILLER_0_83
*1111 FILLER_0_85
*1112 FILLER_0_88
*1113 FILLER_0_9
*1114 FILLER_0_91
*1115 FILLER_10_12
*1116 FILLER_10_139
*1117 FILLER_10_15
*1118 FILLER_10_161
*1119 FILLER_10_18
*1120 FILLER_10_191
*1121 FILLER_10_194
*1122 FILLER_10_238
*1123 FILLER_10_241
*1124 FILLER_10_244
*1125 FILLER_10_247
*1126 FILLER_10_250
*1127 FILLER_10_26
*1128 FILLER_10_282
*1129 FILLER_10_285
*1130 FILLER_10_29
*1131 FILLER_10_3
*1132 FILLER_10_316
*1133 FILLER_10_319
*1134 FILLER_10_32
*1135 FILLER_10_35
*1136 FILLER_10_38
*1137 FILLER_10_6
*1138 FILLER_10_83
*1139 FILLER_10_85
*1140 FILLER_10_88
*1141 FILLER_10_9
*1142 FILLER_11_111
*1143 FILLER_11_119
*1144 FILLER_11_12
*1145 FILLER_11_122
*1146 FILLER_11_125
*1147 FILLER_11_15
*1148 FILLER_11_162
*1149 FILLER_11_165
*1150 FILLER_11_169
*1151 FILLER_11_172
*1152 FILLER_11_18
*1153 FILLER_11_187
*1154 FILLER_11_190
*1155 FILLER_11_21
*1156 FILLER_11_237
*1157 FILLER_11_24
*1158 FILLER_11_240
*1159 FILLER_11_243
*1160 FILLER_11_27
*1161 FILLER_11_288
*1162 FILLER_11_291
*1163 FILLER_11_3
*1164 FILLER_11_314
*1165 FILLER_11_317
*1166 FILLER_11_32
*1167 FILLER_11_35
*1168 FILLER_11_38
*1169 FILLER_11_41
*1170 FILLER_11_44
*1171 FILLER_11_47
*1172 FILLER_11_6
*1173 FILLER_11_77
*1174 FILLER_11_80
*1175 FILLER_11_83
*1176 FILLER_11_9
*1177 FILLER_12_121
*1178 FILLER_12_124
*1179 FILLER_12_127
*1180 FILLER_12_130
*1181 FILLER_12_141
*1182 FILLER_12_144
*1183 FILLER_12_158
*1184 FILLER_12_161
*1185 FILLER_12_164
*1186 FILLER_12_167
*1187 FILLER_12_170
*1188 FILLER_12_173
*1189 FILLER_12_185
*1190 FILLER_12_195
*1191 FILLER_12_197
*1192 FILLER_12_200
*1193 FILLER_12_203
*1194 FILLER_12_206
*1195 FILLER_12_209
*1196 FILLER_12_233
*1197 FILLER_12_236
*1198 FILLER_12_239
*1199 FILLER_12_242
*1200 FILLER_12_245
*1201 FILLER_12_285
*1202 FILLER_12_29
*1203 FILLER_12_3
*1204 FILLER_12_306
*1205 FILLER_12_315
*1206 FILLER_12_318
*1207 FILLER_12_32
*1208 FILLER_12_35
*1209 FILLER_12_38
*1210 FILLER_12_41
*1211 FILLER_12_44
*1212 FILLER_12_47
*1213 FILLER_12_50
*1214 FILLER_12_56
*1215 FILLER_12_6
*1216 FILLER_12_77
*1217 FILLER_12_80
*1218 FILLER_12_83
*1219 FILLER_12_85
*1220 FILLER_13_113
*1221 FILLER_13_116
*1222 FILLER_13_119
*1223 FILLER_13_12
*1224 FILLER_13_122
*1225 FILLER_13_125
*1226 FILLER_13_128
*1227 FILLER_13_131
*1228 FILLER_13_134
*1229 FILLER_13_137
*1230 FILLER_13_152
*1231 FILLER_13_155
*1232 FILLER_13_158
*1233 FILLER_13_161
*1234 FILLER_13_164
*1235 FILLER_13_167
*1236 FILLER_13_169
*1237 FILLER_13_172
*1238 FILLER_13_19
*1239 FILLER_13_192
*1240 FILLER_13_195
*1241 FILLER_13_198
*1242 FILLER_13_201
*1243 FILLER_13_204
*1244 FILLER_13_207
*1245 FILLER_13_210
*1246 FILLER_13_213
*1247 FILLER_13_216
*1248 FILLER_13_225
*1249 FILLER_13_228
*1250 FILLER_13_231
*1251 FILLER_13_234
*1252 FILLER_13_237
*1253 FILLER_13_240
*1254 FILLER_13_243
*1255 FILLER_13_246
*1256 FILLER_13_249
*1257 FILLER_13_252
*1258 FILLER_13_255
*1259 FILLER_13_281
*1260 FILLER_13_284
*1261 FILLER_13_293
*1262 FILLER_13_296
*1263 FILLER_13_3
*1264 FILLER_13_30
*1265 FILLER_13_316
*1266 FILLER_13_319
*1267 FILLER_13_33
*1268 FILLER_13_36
*1269 FILLER_13_39
*1270 FILLER_13_42
*1271 FILLER_13_45
*1272 FILLER_13_48
*1273 FILLER_13_6
*1274 FILLER_13_73
*1275 FILLER_13_76
*1276 FILLER_13_79
*1277 FILLER_13_82
*1278 FILLER_13_85
*1279 FILLER_13_88
*1280 FILLER_13_9
*1281 FILLER_14_117
*1282 FILLER_14_120
*1283 FILLER_14_123
*1284 FILLER_14_126
*1285 FILLER_14_129
*1286 FILLER_14_132
*1287 FILLER_14_135
*1288 FILLER_14_138
*1289 FILLER_14_146
*1290 FILLER_14_149
*1291 FILLER_14_152
*1292 FILLER_14_155
*1293 FILLER_14_158
*1294 FILLER_14_179
*1295 FILLER_14_182
*1296 FILLER_14_191
*1297 FILLER_14_194
*1298 FILLER_14_197
*1299 FILLER_14_222
*1300 FILLER_14_225
*1301 FILLER_14_228
*1302 FILLER_14_231
*1303 FILLER_14_234
*1304 FILLER_14_237
*1305 FILLER_14_240
*1306 FILLER_14_243
*1307 FILLER_14_246
*1308 FILLER_14_274
*1309 FILLER_14_277
*1310 FILLER_14_280
*1311 FILLER_14_283
*1312 FILLER_14_286
*1313 FILLER_14_289
*1314 FILLER_14_292
*1315 FILLER_14_295
*1316 FILLER_14_298
*1317 FILLER_14_3
*1318 FILLER_14_301
*1319 FILLER_14_304
*1320 FILLER_14_307
*1321 FILLER_14_309
*1322 FILLER_14_312
*1323 FILLER_14_315
*1324 FILLER_14_318
*1325 FILLER_14_54
*1326 FILLER_14_6
*1327 FILLER_14_64
*1328 FILLER_14_67
*1329 FILLER_14_70
*1330 FILLER_14_73
*1331 FILLER_14_76
*1332 FILLER_14_79
*1333 FILLER_14_82
*1334 FILLER_14_85
*1335 FILLER_14_88
*1336 FILLER_14_91
*1337 FILLER_15_111
*1338 FILLER_15_113
*1339 FILLER_15_116
*1340 FILLER_15_119
*1341 FILLER_15_122
*1342 FILLER_15_125
*1343 FILLER_15_128
*1344 FILLER_15_131
*1345 FILLER_15_134
*1346 FILLER_15_156
*1347 FILLER_15_159
*1348 FILLER_15_162
*1349 FILLER_15_165
*1350 FILLER_15_208
*1351 FILLER_15_225
*1352 FILLER_15_228
*1353 FILLER_15_231
*1354 FILLER_15_234
*1355 FILLER_15_237
*1356 FILLER_15_240
*1357 FILLER_15_272
*1358 FILLER_15_275
*1359 FILLER_15_278
*1360 FILLER_15_281
*1361 FILLER_15_284
*1362 FILLER_15_287
*1363 FILLER_15_295
*1364 FILLER_15_3
*1365 FILLER_15_303
*1366 FILLER_15_306
*1367 FILLER_15_309
*1368 FILLER_15_312
*1369 FILLER_15_315
*1370 FILLER_15_318
*1371 FILLER_15_37
*1372 FILLER_15_40
*1373 FILLER_15_57
*1374 FILLER_15_74
*1375 FILLER_15_77
*1376 FILLER_15_80
*1377 FILLER_15_83
*1378 FILLER_15_86
*1379 FILLER_15_89
*1380 FILLER_16_117
*1381 FILLER_16_120
*1382 FILLER_16_123
*1383 FILLER_16_126
*1384 FILLER_16_129
*1385 FILLER_16_154
*1386 FILLER_16_157
*1387 FILLER_16_160
*1388 FILLER_16_163
*1389 FILLER_16_166
*1390 FILLER_16_190
*1391 FILLER_16_193
*1392 FILLER_16_235
*1393 FILLER_16_238
*1394 FILLER_16_266
*1395 FILLER_16_269
*1396 FILLER_16_272
*1397 FILLER_16_275
*1398 FILLER_16_278
*1399 FILLER_16_281
*1400 FILLER_16_3
*1401 FILLER_16_305
*1402 FILLER_16_309
*1403 FILLER_16_312
*1404 FILLER_16_315
*1405 FILLER_16_318
*1406 FILLER_16_44
*1407 FILLER_16_47
*1408 FILLER_16_6
*1409 FILLER_16_77
*1410 FILLER_16_80
*1411 FILLER_16_83
*1412 FILLER_16_85
*1413 FILLER_16_88
*1414 FILLER_17_124
*1415 FILLER_17_127
*1416 FILLER_17_130
*1417 FILLER_17_133
*1418 FILLER_17_164
*1419 FILLER_17_167
*1420 FILLER_17_169
*1421 FILLER_17_172
*1422 FILLER_17_225
*1423 FILLER_17_228
*1424 FILLER_17_231
*1425 FILLER_17_234
*1426 FILLER_17_237
*1427 FILLER_17_271
*1428 FILLER_17_274
*1429 FILLER_17_277
*1430 FILLER_17_281
*1431 FILLER_17_284
*1432 FILLER_17_3
*1433 FILLER_17_318
*1434 FILLER_17_32
*1435 FILLER_17_35
*1436 FILLER_17_38
*1437 FILLER_17_41
*1438 FILLER_17_6
*1439 FILLER_17_78
*1440 FILLER_17_81
*1441 FILLER_17_9
*1442 FILLER_18_106
*1443 FILLER_18_109
*1444 FILLER_18_112
*1445 FILLER_18_12
*1446 FILLER_18_121
*1447 FILLER_18_124
*1448 FILLER_18_141
*1449 FILLER_18_166
*1450 FILLER_18_177
*1451 FILLER_18_180
*1452 FILLER_18_232
*1453 FILLER_18_235
*1454 FILLER_18_238
*1455 FILLER_18_241
*1456 FILLER_18_250
*1457 FILLER_18_253
*1458 FILLER_18_272
*1459 FILLER_18_275
*1460 FILLER_18_278
*1461 FILLER_18_281
*1462 FILLER_18_29
*1463 FILLER_18_3
*1464 FILLER_18_319
*1465 FILLER_18_32
*1466 FILLER_18_35
*1467 FILLER_18_38
*1468 FILLER_18_41
*1469 FILLER_18_44
*1470 FILLER_18_47
*1471 FILLER_18_6
*1472 FILLER_18_70
*1473 FILLER_18_73
*1474 FILLER_18_76
*1475 FILLER_18_79
*1476 FILLER_18_82
*1477 FILLER_18_9
*1478 FILLER_19_113
*1479 FILLER_19_116
*1480 FILLER_19_12
*1481 FILLER_19_124
*1482 FILLER_19_127
*1483 FILLER_19_130
*1484 FILLER_19_133
*1485 FILLER_19_15
*1486 FILLER_19_156
*1487 FILLER_19_159
*1488 FILLER_19_169
*1489 FILLER_19_178
*1490 FILLER_19_181
*1491 FILLER_19_184
*1492 FILLER_19_207
*1493 FILLER_19_210
*1494 FILLER_19_213
*1495 FILLER_19_223
*1496 FILLER_19_225
*1497 FILLER_19_228
*1498 FILLER_19_231
*1499 FILLER_19_234
*1500 FILLER_19_237
*1501 FILLER_19_240
*1502 FILLER_19_263
*1503 FILLER_19_266
*1504 FILLER_19_269
*1505 FILLER_19_272
*1506 FILLER_19_275
*1507 FILLER_19_278
*1508 FILLER_19_28
*1509 FILLER_19_281
*1510 FILLER_19_284
*1511 FILLER_19_287
*1512 FILLER_19_290
*1513 FILLER_19_3
*1514 FILLER_19_31
*1515 FILLER_19_39
*1516 FILLER_19_42
*1517 FILLER_19_45
*1518 FILLER_19_48
*1519 FILLER_19_6
*1520 FILLER_19_76
*1521 FILLER_19_79
*1522 FILLER_19_82
*1523 FILLER_19_85
*1524 FILLER_19_9
*1525 FILLER_1_110
*1526 FILLER_1_113
*1527 FILLER_1_116
*1528 FILLER_1_119
*1529 FILLER_1_12
*1530 FILLER_1_122
*1531 FILLER_1_125
*1532 FILLER_1_128
*1533 FILLER_1_131
*1534 FILLER_1_15
*1535 FILLER_1_155
*1536 FILLER_1_158
*1537 FILLER_1_161
*1538 FILLER_1_164
*1539 FILLER_1_167
*1540 FILLER_1_169
*1541 FILLER_1_172
*1542 FILLER_1_18
*1543 FILLER_1_187
*1544 FILLER_1_190
*1545 FILLER_1_193
*1546 FILLER_1_196
*1547 FILLER_1_202
*1548 FILLER_1_21
*1549 FILLER_1_230
*1550 FILLER_1_233
*1551 FILLER_1_236
*1552 FILLER_1_239
*1553 FILLER_1_24
*1554 FILLER_1_242
*1555 FILLER_1_266
*1556 FILLER_1_269
*1557 FILLER_1_27
*1558 FILLER_1_272
*1559 FILLER_1_275
*1560 FILLER_1_278
*1561 FILLER_1_281
*1562 FILLER_1_284
*1563 FILLER_1_296
*1564 FILLER_1_299
*1565 FILLER_1_3
*1566 FILLER_1_30
*1567 FILLER_1_302
*1568 FILLER_1_305
*1569 FILLER_1_308
*1570 FILLER_1_311
*1571 FILLER_1_314
*1572 FILLER_1_317
*1573 FILLER_1_33
*1574 FILLER_1_36
*1575 FILLER_1_39
*1576 FILLER_1_42
*1577 FILLER_1_45
*1578 FILLER_1_48
*1579 FILLER_1_6
*1580 FILLER_1_67
*1581 FILLER_1_70
*1582 FILLER_1_73
*1583 FILLER_1_76
*1584 FILLER_1_79
*1585 FILLER_1_82
*1586 FILLER_1_85
*1587 FILLER_1_88
*1588 FILLER_1_9
*1589 FILLER_20_118
*1590 FILLER_20_12
*1591 FILLER_20_121
*1592 FILLER_20_124
*1593 FILLER_20_127
*1594 FILLER_20_15
*1595 FILLER_20_161
*1596 FILLER_20_164
*1597 FILLER_20_188
*1598 FILLER_20_191
*1599 FILLER_20_194
*1600 FILLER_20_197
*1601 FILLER_20_200
*1602 FILLER_20_203
*1603 FILLER_20_206
*1604 FILLER_20_209
*1605 FILLER_20_218
*1606 FILLER_20_22
*1607 FILLER_20_227
*1608 FILLER_20_230
*1609 FILLER_20_233
*1610 FILLER_20_236
*1611 FILLER_20_251
*1612 FILLER_20_253
*1613 FILLER_20_266
*1614 FILLER_20_269
*1615 FILLER_20_272
*1616 FILLER_20_279
*1617 FILLER_20_282
*1618 FILLER_20_285
*1619 FILLER_20_3
*1620 FILLER_20_309
*1621 FILLER_20_312
*1622 FILLER_20_315
*1623 FILLER_20_318
*1624 FILLER_20_36
*1625 FILLER_20_44
*1626 FILLER_20_47
*1627 FILLER_20_50
*1628 FILLER_20_6
*1629 FILLER_20_67
*1630 FILLER_20_70
*1631 FILLER_20_73
*1632 FILLER_20_76
*1633 FILLER_20_85
*1634 FILLER_20_9
*1635 FILLER_20_94
*1636 FILLER_20_97
*1637 FILLER_21_104
*1638 FILLER_21_107
*1639 FILLER_21_110
*1640 FILLER_21_113
*1641 FILLER_21_116
*1642 FILLER_21_119
*1643 FILLER_21_12
*1644 FILLER_21_132
*1645 FILLER_21_139
*1646 FILLER_21_165
*1647 FILLER_21_184
*1648 FILLER_21_187
*1649 FILLER_21_190
*1650 FILLER_21_193
*1651 FILLER_21_196
*1652 FILLER_21_199
*1653 FILLER_21_202
*1654 FILLER_21_220
*1655 FILLER_21_223
*1656 FILLER_21_233
*1657 FILLER_21_236
*1658 FILLER_21_266
*1659 FILLER_21_288
*1660 FILLER_21_291
*1661 FILLER_21_294
*1662 FILLER_21_297
*1663 FILLER_21_3
*1664 FILLER_21_306
*1665 FILLER_21_309
*1666 FILLER_21_312
*1667 FILLER_21_315
*1668 FILLER_21_318
*1669 FILLER_21_54
*1670 FILLER_21_57
*1671 FILLER_21_6
*1672 FILLER_21_60
*1673 FILLER_21_63
*1674 FILLER_21_87
*1675 FILLER_21_9
*1676 FILLER_22_126
*1677 FILLER_22_129
*1678 FILLER_22_152
*1679 FILLER_22_155
*1680 FILLER_22_158
*1681 FILLER_22_161
*1682 FILLER_22_183
*1683 FILLER_22_186
*1684 FILLER_22_189
*1685 FILLER_22_192
*1686 FILLER_22_195
*1687 FILLER_22_218
*1688 FILLER_22_240
*1689 FILLER_22_243
*1690 FILLER_22_26
*1691 FILLER_22_261
*1692 FILLER_22_264
*1693 FILLER_22_29
*1694 FILLER_22_298
*1695 FILLER_22_3
*1696 FILLER_22_301
*1697 FILLER_22_304
*1698 FILLER_22_307
*1699 FILLER_22_309
*1700 FILLER_22_312
*1701 FILLER_22_315
*1702 FILLER_22_318
*1703 FILLER_22_59
*1704 FILLER_22_62
*1705 FILLER_23_105
*1706 FILLER_23_108
*1707 FILLER_23_111
*1708 FILLER_23_130
*1709 FILLER_23_145
*1710 FILLER_23_148
*1711 FILLER_23_151
*1712 FILLER_23_154
*1713 FILLER_23_157
*1714 FILLER_23_160
*1715 FILLER_23_163
*1716 FILLER_23_166
*1717 FILLER_23_190
*1718 FILLER_23_221
*1719 FILLER_23_241
*1720 FILLER_23_244
*1721 FILLER_23_268
*1722 FILLER_23_3
*1723 FILLER_23_302
*1724 FILLER_23_305
*1725 FILLER_23_308
*1726 FILLER_23_311
*1727 FILLER_23_314
*1728 FILLER_23_317
*1729 FILLER_23_32
*1730 FILLER_23_57
*1731 FILLER_23_6
*1732 FILLER_23_60
*1733 FILLER_23_9
*1734 FILLER_24_116
*1735 FILLER_24_12
*1736 FILLER_24_135
*1737 FILLER_24_138
*1738 FILLER_24_141
*1739 FILLER_24_144
*1740 FILLER_24_147
*1741 FILLER_24_150
*1742 FILLER_24_153
*1743 FILLER_24_156
*1744 FILLER_24_159
*1745 FILLER_24_162
*1746 FILLER_24_165
*1747 FILLER_24_168
*1748 FILLER_24_187
*1749 FILLER_24_190
*1750 FILLER_24_193
*1751 FILLER_24_197
*1752 FILLER_24_20
*1753 FILLER_24_229
*1754 FILLER_24_23
*1755 FILLER_24_232
*1756 FILLER_24_235
*1757 FILLER_24_238
*1758 FILLER_24_247
*1759 FILLER_24_250
*1760 FILLER_24_253
*1761 FILLER_24_26
*1762 FILLER_24_275
*1763 FILLER_24_286
*1764 FILLER_24_29
*1765 FILLER_24_3
*1766 FILLER_24_309
*1767 FILLER_24_312
*1768 FILLER_24_315
*1769 FILLER_24_318
*1770 FILLER_24_6
*1771 FILLER_24_61
*1772 FILLER_24_9
*1773 FILLER_24_93
*1774 FILLER_25_113
*1775 FILLER_25_116
*1776 FILLER_25_12
*1777 FILLER_25_138
*1778 FILLER_25_146
*1779 FILLER_25_149
*1780 FILLER_25_15
*1781 FILLER_25_152
*1782 FILLER_25_155
*1783 FILLER_25_158
*1784 FILLER_25_161
*1785 FILLER_25_164
*1786 FILLER_25_167
*1787 FILLER_25_178
*1788 FILLER_25_18
*1789 FILLER_25_199
*1790 FILLER_25_202
*1791 FILLER_25_205
*1792 FILLER_25_21
*1793 FILLER_25_222
*1794 FILLER_25_225
*1795 FILLER_25_228
*1796 FILLER_25_231
*1797 FILLER_25_234
*1798 FILLER_25_237
*1799 FILLER_25_240
*1800 FILLER_25_243
*1801 FILLER_25_246
*1802 FILLER_25_28
*1803 FILLER_25_287
*1804 FILLER_25_3
*1805 FILLER_25_31
*1806 FILLER_25_318
*1807 FILLER_25_55
*1808 FILLER_25_57
*1809 FILLER_25_6
*1810 FILLER_25_60
*1811 FILLER_25_63
*1812 FILLER_25_66
*1813 FILLER_25_69
*1814 FILLER_25_9
*1815 FILLER_25_94
*1816 FILLER_25_97
*1817 FILLER_26_100
*1818 FILLER_26_103
*1819 FILLER_26_106
*1820 FILLER_26_116
*1821 FILLER_26_12
*1822 FILLER_26_130
*1823 FILLER_26_149
*1824 FILLER_26_15
*1825 FILLER_26_152
*1826 FILLER_26_155
*1827 FILLER_26_158
*1828 FILLER_26_18
*1829 FILLER_26_181
*1830 FILLER_26_184
*1831 FILLER_26_187
*1832 FILLER_26_190
*1833 FILLER_26_193
*1834 FILLER_26_197
*1835 FILLER_26_200
*1836 FILLER_26_203
*1837 FILLER_26_206
*1838 FILLER_26_209
*1839 FILLER_26_237
*1840 FILLER_26_240
*1841 FILLER_26_243
*1842 FILLER_26_246
*1843 FILLER_26_249
*1844 FILLER_26_253
*1845 FILLER_26_256
*1846 FILLER_26_259
*1847 FILLER_26_26
*1848 FILLER_26_262
*1849 FILLER_26_265
*1850 FILLER_26_268
*1851 FILLER_26_271
*1852 FILLER_26_274
*1853 FILLER_26_277
*1854 FILLER_26_280
*1855 FILLER_26_283
*1856 FILLER_26_29
*1857 FILLER_26_3
*1858 FILLER_26_306
*1859 FILLER_26_317
*1860 FILLER_26_38
*1861 FILLER_26_53
*1862 FILLER_26_56
*1863 FILLER_26_59
*1864 FILLER_26_6
*1865 FILLER_26_62
*1866 FILLER_26_65
*1867 FILLER_26_68
*1868 FILLER_26_85
*1869 FILLER_26_88
*1870 FILLER_26_9
*1871 FILLER_26_91
*1872 FILLER_26_94
*1873 FILLER_26_97
*1874 FILLER_27_102
*1875 FILLER_27_105
*1876 FILLER_27_108
*1877 FILLER_27_111
*1878 FILLER_27_113
*1879 FILLER_27_123
*1880 FILLER_27_126
*1881 FILLER_27_129
*1882 FILLER_27_132
*1883 FILLER_27_135
*1884 FILLER_27_138
*1885 FILLER_27_147
*1886 FILLER_27_150
*1887 FILLER_27_153
*1888 FILLER_27_156
*1889 FILLER_27_159
*1890 FILLER_27_162
*1891 FILLER_27_165
*1892 FILLER_27_169
*1893 FILLER_27_172
*1894 FILLER_27_183
*1895 FILLER_27_186
*1896 FILLER_27_189
*1897 FILLER_27_196
*1898 FILLER_27_199
*1899 FILLER_27_202
*1900 FILLER_27_209
*1901 FILLER_27_212
*1902 FILLER_27_215
*1903 FILLER_27_218
*1904 FILLER_27_221
*1905 FILLER_27_225
*1906 FILLER_27_228
*1907 FILLER_27_231
*1908 FILLER_27_234
*1909 FILLER_27_237
*1910 FILLER_27_240
*1911 FILLER_27_263
*1912 FILLER_27_266
*1913 FILLER_27_269
*1914 FILLER_27_272
*1915 FILLER_27_275
*1916 FILLER_27_278
*1917 FILLER_27_281
*1918 FILLER_27_284
*1919 FILLER_27_287
*1920 FILLER_27_3
*1921 FILLER_27_315
*1922 FILLER_27_318
*1923 FILLER_27_36
*1924 FILLER_27_39
*1925 FILLER_27_42
*1926 FILLER_27_45
*1927 FILLER_27_48
*1928 FILLER_27_51
*1929 FILLER_27_54
*1930 FILLER_27_57
*1931 FILLER_27_6
*1932 FILLER_27_60
*1933 FILLER_27_63
*1934 FILLER_27_66
*1935 FILLER_27_85
*1936 FILLER_27_88
*1937 FILLER_27_9
*1938 FILLER_27_91
*1939 FILLER_27_94
*1940 FILLER_28_113
*1941 FILLER_28_116
*1942 FILLER_28_119
*1943 FILLER_28_122
*1944 FILLER_28_125
*1945 FILLER_28_128
*1946 FILLER_28_131
*1947 FILLER_28_134
*1948 FILLER_28_137
*1949 FILLER_28_156
*1950 FILLER_28_170
*1951 FILLER_28_173
*1952 FILLER_28_197
*1953 FILLER_28_200
*1954 FILLER_28_212
*1955 FILLER_28_215
*1956 FILLER_28_218
*1957 FILLER_28_221
*1958 FILLER_28_253
*1959 FILLER_28_26
*1960 FILLER_28_268
*1961 FILLER_28_271
*1962 FILLER_28_274
*1963 FILLER_28_277
*1964 FILLER_28_280
*1965 FILLER_28_283
*1966 FILLER_28_292
*1967 FILLER_28_3
*1968 FILLER_28_305
*1969 FILLER_28_317
*1970 FILLER_28_34
*1971 FILLER_28_37
*1972 FILLER_28_40
*1973 FILLER_28_43
*1974 FILLER_28_46
*1975 FILLER_28_49
*1976 FILLER_28_52
*1977 FILLER_28_55
*1978 FILLER_28_85
*1979 FILLER_28_88
*1980 FILLER_28_91
*1981 FILLER_28_94
*1982 FILLER_29_113
*1983 FILLER_29_116
*1984 FILLER_29_119
*1985 FILLER_29_182
*1986 FILLER_29_215
*1987 FILLER_29_222
*1988 FILLER_29_246
*1989 FILLER_29_26
*1990 FILLER_29_273
*1991 FILLER_29_276
*1992 FILLER_29_279
*1993 FILLER_29_3
*1994 FILLER_29_309
*1995 FILLER_29_312
*1996 FILLER_29_315
*1997 FILLER_29_318
*1998 FILLER_29_37
*1999 FILLER_29_40
*2000 FILLER_29_43
*2001 FILLER_29_46
*2002 FILLER_29_49
*2003 FILLER_29_52
*2004 FILLER_29_55
*2005 FILLER_29_57
*2006 FILLER_29_6
*2007 FILLER_29_88
*2008 FILLER_29_9
*2009 FILLER_2_119
*2010 FILLER_2_12
*2011 FILLER_2_122
*2012 FILLER_2_125
*2013 FILLER_2_128
*2014 FILLER_2_131
*2015 FILLER_2_15
*2016 FILLER_2_154
*2017 FILLER_2_157
*2018 FILLER_2_160
*2019 FILLER_2_163
*2020 FILLER_2_18
*2021 FILLER_2_191
*2022 FILLER_2_194
*2023 FILLER_2_197
*2024 FILLER_2_207
*2025 FILLER_2_21
*2026 FILLER_2_231
*2027 FILLER_2_234
*2028 FILLER_2_237
*2029 FILLER_2_240
*2030 FILLER_2_243
*2031 FILLER_2_27
*2032 FILLER_2_274
*2033 FILLER_2_277
*2034 FILLER_2_29
*2035 FILLER_2_3
*2036 FILLER_2_302
*2037 FILLER_2_305
*2038 FILLER_2_309
*2039 FILLER_2_312
*2040 FILLER_2_315
*2041 FILLER_2_318
*2042 FILLER_2_32
*2043 FILLER_2_35
*2044 FILLER_2_38
*2045 FILLER_2_41
*2046 FILLER_2_44
*2047 FILLER_2_47
*2048 FILLER_2_6
*2049 FILLER_2_75
*2050 FILLER_2_78
*2051 FILLER_2_81
*2052 FILLER_2_85
*2053 FILLER_2_9
*2054 FILLER_30_116
*2055 FILLER_30_12
*2056 FILLER_30_149
*2057 FILLER_30_15
*2058 FILLER_30_187
*2059 FILLER_30_197
*2060 FILLER_30_200
*2061 FILLER_30_224
*2062 FILLER_30_242
*2063 FILLER_30_253
*2064 FILLER_30_256
*2065 FILLER_30_265
*2066 FILLER_30_274
*2067 FILLER_30_277
*2068 FILLER_30_280
*2069 FILLER_30_283
*2070 FILLER_30_286
*2071 FILLER_30_29
*2072 FILLER_30_296
*2073 FILLER_30_299
*2074 FILLER_30_3
*2075 FILLER_30_302
*2076 FILLER_30_305
*2077 FILLER_30_309
*2078 FILLER_30_312
*2079 FILLER_30_315
*2080 FILLER_30_318
*2081 FILLER_30_32
*2082 FILLER_30_35
*2083 FILLER_30_38
*2084 FILLER_30_41
*2085 FILLER_30_6
*2086 FILLER_30_65
*2087 FILLER_30_85
*2088 FILLER_30_88
*2089 FILLER_30_9
*2090 FILLER_30_91
*2091 FILLER_30_94
*2092 FILLER_31_101
*2093 FILLER_31_113
*2094 FILLER_31_116
*2095 FILLER_31_165
*2096 FILLER_31_211
*2097 FILLER_31_221
*2098 FILLER_31_225
*2099 FILLER_31_235
*2100 FILLER_31_243
*2101 FILLER_31_249
*2102 FILLER_31_273
*2103 FILLER_31_276
*2104 FILLER_31_279
*2105 FILLER_31_281
*2106 FILLER_31_284
*2107 FILLER_31_287
*2108 FILLER_31_290
*2109 FILLER_31_3
*2110 FILLER_31_319
*2111 FILLER_31_34
*2112 FILLER_31_37
*2113 FILLER_31_57
*2114 FILLER_31_6
*2115 FILLER_31_73
*2116 FILLER_31_76
*2117 FILLER_31_79
*2118 FILLER_31_82
*2119 FILLER_31_85
*2120 FILLER_32_110
*2121 FILLER_32_113
*2122 FILLER_32_116
*2123 FILLER_32_119
*2124 FILLER_32_137
*2125 FILLER_32_155
*2126 FILLER_32_158
*2127 FILLER_32_161
*2128 FILLER_32_164
*2129 FILLER_32_182
*2130 FILLER_32_191
*2131 FILLER_32_194
*2132 FILLER_32_197
*2133 FILLER_32_200
*2134 FILLER_32_203
*2135 FILLER_32_206
*2136 FILLER_32_209
*2137 FILLER_32_212
*2138 FILLER_32_215
*2139 FILLER_32_218
*2140 FILLER_32_224
*2141 FILLER_32_227
*2142 FILLER_32_230
*2143 FILLER_32_238
*2144 FILLER_32_241
*2145 FILLER_32_244
*2146 FILLER_32_247
*2147 FILLER_32_250
*2148 FILLER_32_259
*2149 FILLER_32_262
*2150 FILLER_32_265
*2151 FILLER_32_268
*2152 FILLER_32_271
*2153 FILLER_32_274
*2154 FILLER_32_29
*2155 FILLER_32_3
*2156 FILLER_32_309
*2157 FILLER_32_40
*2158 FILLER_32_43
*2159 FILLER_32_6
*2160 FILLER_32_72
*2161 FILLER_32_75
*2162 FILLER_32_78
*2163 FILLER_32_81
*2164 FILLER_32_85
*2165 FILLER_32_89
*2166 FILLER_32_92
*2167 FILLER_33_108
*2168 FILLER_33_111
*2169 FILLER_33_113
*2170 FILLER_33_116
*2171 FILLER_33_119
*2172 FILLER_33_122
*2173 FILLER_33_125
*2174 FILLER_33_128
*2175 FILLER_33_138
*2176 FILLER_33_141
*2177 FILLER_33_144
*2178 FILLER_33_147
*2179 FILLER_33_150
*2180 FILLER_33_153
*2181 FILLER_33_156
*2182 FILLER_33_159
*2183 FILLER_33_162
*2184 FILLER_33_165
*2185 FILLER_33_169
*2186 FILLER_33_200
*2187 FILLER_33_203
*2188 FILLER_33_212
*2189 FILLER_33_215
*2190 FILLER_33_231
*2191 FILLER_33_234
*2192 FILLER_33_24
*2193 FILLER_33_261
*2194 FILLER_33_264
*2195 FILLER_33_267
*2196 FILLER_33_270
*2197 FILLER_33_273
*2198 FILLER_33_290
*2199 FILLER_33_3
*2200 FILLER_33_50
*2201 FILLER_33_53
*2202 FILLER_33_6
*2203 FILLER_33_65
*2204 FILLER_33_76
*2205 FILLER_33_79
*2206 FILLER_33_87
*2207 FILLER_33_90
*2208 FILLER_34_101
*2209 FILLER_34_12
*2210 FILLER_34_124
*2211 FILLER_34_127
*2212 FILLER_34_130
*2213 FILLER_34_133
*2214 FILLER_34_136
*2215 FILLER_34_139
*2216 FILLER_34_148
*2217 FILLER_34_15
*2218 FILLER_34_151
*2219 FILLER_34_154
*2220 FILLER_34_157
*2221 FILLER_34_160
*2222 FILLER_34_197
*2223 FILLER_34_213
*2224 FILLER_34_223
*2225 FILLER_34_24
*2226 FILLER_34_266
*2227 FILLER_34_269
*2228 FILLER_34_27
*2229 FILLER_34_272
*2230 FILLER_34_29
*2231 FILLER_34_3
*2232 FILLER_34_303
*2233 FILLER_34_306
*2234 FILLER_34_309
*2235 FILLER_34_319
*2236 FILLER_34_32
*2237 FILLER_34_35
*2238 FILLER_34_38
*2239 FILLER_34_41
*2240 FILLER_34_44
*2241 FILLER_34_47
*2242 FILLER_34_6
*2243 FILLER_34_83
*2244 FILLER_34_85
*2245 FILLER_34_9
*2246 FILLER_35_103
*2247 FILLER_35_111
*2248 FILLER_35_113
*2249 FILLER_35_116
*2250 FILLER_35_12
*2251 FILLER_35_127
*2252 FILLER_35_130
*2253 FILLER_35_133
*2254 FILLER_35_136
*2255 FILLER_35_15
*2256 FILLER_35_150
*2257 FILLER_35_153
*2258 FILLER_35_156
*2259 FILLER_35_159
*2260 FILLER_35_162
*2261 FILLER_35_169
*2262 FILLER_35_196
*2263 FILLER_35_221
*2264 FILLER_35_233
*2265 FILLER_35_266
*2266 FILLER_35_269
*2267 FILLER_35_272
*2268 FILLER_35_275
*2269 FILLER_35_278
*2270 FILLER_35_28
*2271 FILLER_35_288
*2272 FILLER_35_3
*2273 FILLER_35_305
*2274 FILLER_35_308
*2275 FILLER_35_31
*2276 FILLER_35_311
*2277 FILLER_35_314
*2278 FILLER_35_317
*2279 FILLER_35_34
*2280 FILLER_35_37
*2281 FILLER_35_40
*2282 FILLER_35_6
*2283 FILLER_35_68
*2284 FILLER_35_9
*2285 FILLER_35_90
*2286 FILLER_36_113
*2287 FILLER_36_137
*2288 FILLER_36_162
*2289 FILLER_36_194
*2290 FILLER_36_197
*2291 FILLER_36_242
*2292 FILLER_36_253
*2293 FILLER_36_277
*2294 FILLER_36_285
*2295 FILLER_36_288
*2296 FILLER_36_291
*2297 FILLER_36_297
*2298 FILLER_36_3
*2299 FILLER_36_300
*2300 FILLER_36_303
*2301 FILLER_36_306
*2302 FILLER_36_309
*2303 FILLER_36_312
*2304 FILLER_36_315
*2305 FILLER_36_318
*2306 FILLER_36_34
*2307 FILLER_36_37
*2308 FILLER_36_40
*2309 FILLER_36_43
*2310 FILLER_36_46
*2311 FILLER_36_6
*2312 FILLER_36_80
*2313 FILLER_36_83
*2314 FILLER_36_85
*2315 FILLER_37_109
*2316 FILLER_37_113
*2317 FILLER_37_165
*2318 FILLER_37_169
*2319 FILLER_37_221
*2320 FILLER_37_239
*2321 FILLER_37_242
*2322 FILLER_37_245
*2323 FILLER_37_248
*2324 FILLER_37_251
*2325 FILLER_37_261
*2326 FILLER_37_264
*2327 FILLER_37_267
*2328 FILLER_37_275
*2329 FILLER_37_278
*2330 FILLER_37_281
*2331 FILLER_37_284
*2332 FILLER_37_287
*2333 FILLER_37_290
*2334 FILLER_37_293
*2335 FILLER_37_296
*2336 FILLER_37_3
*2337 FILLER_37_315
*2338 FILLER_37_318
*2339 FILLER_37_42
*2340 FILLER_37_45
*2341 FILLER_37_48
*2342 FILLER_37_83
*2343 FILLER_37_86
*2344 FILLER_38_100
*2345 FILLER_38_110
*2346 FILLER_38_113
*2347 FILLER_38_134
*2348 FILLER_38_149
*2349 FILLER_38_178
*2350 FILLER_38_181
*2351 FILLER_38_184
*2352 FILLER_38_187
*2353 FILLER_38_193
*2354 FILLER_38_197
*2355 FILLER_38_200
*2356 FILLER_38_220
*2357 FILLER_38_223
*2358 FILLER_38_236
*2359 FILLER_38_239
*2360 FILLER_38_242
*2361 FILLER_38_245
*2362 FILLER_38_248
*2363 FILLER_38_251
*2364 FILLER_38_253
*2365 FILLER_38_256
*2366 FILLER_38_269
*2367 FILLER_38_272
*2368 FILLER_38_282
*2369 FILLER_38_285
*2370 FILLER_38_3
*2371 FILLER_38_317
*2372 FILLER_38_37
*2373 FILLER_38_40
*2374 FILLER_38_43
*2375 FILLER_38_46
*2376 FILLER_38_49
*2377 FILLER_38_78
*2378 FILLER_38_81
*2379 FILLER_38_85
*2380 FILLER_38_88
*2381 FILLER_38_91
*2382 FILLER_39_125
*2383 FILLER_39_128
*2384 FILLER_39_137
*2385 FILLER_39_140
*2386 FILLER_39_148
*2387 FILLER_39_157
*2388 FILLER_39_160
*2389 FILLER_39_163
*2390 FILLER_39_166
*2391 FILLER_39_169
*2392 FILLER_39_172
*2393 FILLER_39_175
*2394 FILLER_39_178
*2395 FILLER_39_181
*2396 FILLER_39_184
*2397 FILLER_39_187
*2398 FILLER_39_190
*2399 FILLER_39_193
*2400 FILLER_39_196
*2401 FILLER_39_199
*2402 FILLER_39_202
*2403 FILLER_39_214
*2404 FILLER_39_217
*2405 FILLER_39_220
*2406 FILLER_39_223
*2407 FILLER_39_225
*2408 FILLER_39_228
*2409 FILLER_39_246
*2410 FILLER_39_249
*2411 FILLER_39_252
*2412 FILLER_39_289
*2413 FILLER_39_292
*2414 FILLER_39_3
*2415 FILLER_39_35
*2416 FILLER_39_45
*2417 FILLER_39_48
*2418 FILLER_39_57
*2419 FILLER_39_6
*2420 FILLER_39_60
*2421 FILLER_39_69
*2422 FILLER_39_79
*2423 FILLER_39_82
*2424 FILLER_39_99
*2425 FILLER_3_118
*2426 FILLER_3_12
*2427 FILLER_3_121
*2428 FILLER_3_15
*2429 FILLER_3_165
*2430 FILLER_3_169
*2431 FILLER_3_199
*2432 FILLER_3_236
*2433 FILLER_3_239
*2434 FILLER_3_24
*2435 FILLER_3_242
*2436 FILLER_3_27
*2437 FILLER_3_271
*2438 FILLER_3_274
*2439 FILLER_3_3
*2440 FILLER_3_30
*2441 FILLER_3_311
*2442 FILLER_3_314
*2443 FILLER_3_317
*2444 FILLER_3_33
*2445 FILLER_3_6
*2446 FILLER_3_78
*2447 FILLER_3_81
*2448 FILLER_3_84
*2449 FILLER_3_87
*2450 FILLER_3_9
*2451 FILLER_40_114
*2452 FILLER_40_117
*2453 FILLER_40_120
*2454 FILLER_40_123
*2455 FILLER_40_126
*2456 FILLER_40_129
*2457 FILLER_40_135
*2458 FILLER_40_138
*2459 FILLER_40_141
*2460 FILLER_40_144
*2461 FILLER_40_147
*2462 FILLER_40_150
*2463 FILLER_40_153
*2464 FILLER_40_156
*2465 FILLER_40_159
*2466 FILLER_40_166
*2467 FILLER_40_169
*2468 FILLER_40_172
*2469 FILLER_40_175
*2470 FILLER_40_178
*2471 FILLER_40_187
*2472 FILLER_40_190
*2473 FILLER_40_193
*2474 FILLER_40_197
*2475 FILLER_40_200
*2476 FILLER_40_203
*2477 FILLER_40_206
*2478 FILLER_40_209
*2479 FILLER_40_212
*2480 FILLER_40_215
*2481 FILLER_40_223
*2482 FILLER_40_246
*2483 FILLER_40_249
*2484 FILLER_40_25
*2485 FILLER_40_264
*2486 FILLER_40_287
*2487 FILLER_40_29
*2488 FILLER_40_3
*2489 FILLER_40_309
*2490 FILLER_40_32
*2491 FILLER_40_55
*2492 FILLER_40_58
*2493 FILLER_40_76
*2494 FILLER_40_79
*2495 FILLER_40_82
*2496 FILLER_40_85
*2497 FILLER_40_98
*2498 FILLER_41_113
*2499 FILLER_41_116
*2500 FILLER_41_136
*2501 FILLER_41_139
*2502 FILLER_41_142
*2503 FILLER_41_145
*2504 FILLER_41_169
*2505 FILLER_41_190
*2506 FILLER_41_207
*2507 FILLER_41_210
*2508 FILLER_41_213
*2509 FILLER_41_223
*2510 FILLER_41_233
*2511 FILLER_41_236
*2512 FILLER_41_248
*2513 FILLER_41_261
*2514 FILLER_41_289
*2515 FILLER_41_3
*2516 FILLER_41_316
*2517 FILLER_41_319
*2518 FILLER_41_42
*2519 FILLER_41_45
*2520 FILLER_41_48
*2521 FILLER_41_57
*2522 FILLER_41_79
*2523 FILLER_41_82
*2524 FILLER_42_106
*2525 FILLER_42_109
*2526 FILLER_42_11
*2527 FILLER_42_112
*2528 FILLER_42_136
*2529 FILLER_42_139
*2530 FILLER_42_14
*2531 FILLER_42_141
*2532 FILLER_42_144
*2533 FILLER_42_147
*2534 FILLER_42_17
*2535 FILLER_42_171
*2536 FILLER_42_174
*2537 FILLER_42_205
*2538 FILLER_42_208
*2539 FILLER_42_247
*2540 FILLER_42_250
*2541 FILLER_42_270
*2542 FILLER_42_29
*2543 FILLER_42_292
*2544 FILLER_42_3
*2545 FILLER_42_309
*2546 FILLER_42_312
*2547 FILLER_42_315
*2548 FILLER_42_318
*2549 FILLER_42_32
*2550 FILLER_42_42
*2551 FILLER_42_45
*2552 FILLER_42_48
*2553 FILLER_42_51
*2554 FILLER_42_6
*2555 FILLER_42_79
*2556 FILLER_42_82
*2557 FILLER_43_105
*2558 FILLER_43_108
*2559 FILLER_43_11
*2560 FILLER_43_111
*2561 FILLER_43_113
*2562 FILLER_43_14
*2563 FILLER_43_144
*2564 FILLER_43_175
*2565 FILLER_43_199
*2566 FILLER_43_202
*2567 FILLER_43_241
*2568 FILLER_43_278
*2569 FILLER_43_28
*2570 FILLER_43_281
*2571 FILLER_43_284
*2572 FILLER_43_287
*2573 FILLER_43_291
*2574 FILLER_43_300
*2575 FILLER_43_308
*2576 FILLER_43_311
*2577 FILLER_43_34
*2578 FILLER_43_37
*2579 FILLER_43_40
*2580 FILLER_43_43
*2581 FILLER_43_46
*2582 FILLER_43_78
*2583 FILLER_43_81
*2584 FILLER_43_84
*2585 FILLER_43_87
*2586 FILLER_43_90
*2587 FILLER_43_93
*2588 FILLER_43_96
*2589 FILLER_44_104
*2590 FILLER_44_135
*2591 FILLER_44_138
*2592 FILLER_44_141
*2593 FILLER_44_144
*2594 FILLER_44_147
*2595 FILLER_44_150
*2596 FILLER_44_197
*2597 FILLER_44_200
*2598 FILLER_44_203
*2599 FILLER_44_206
*2600 FILLER_44_243
*2601 FILLER_44_246
*2602 FILLER_44_249
*2603 FILLER_44_253
*2604 FILLER_44_256
*2605 FILLER_44_264
*2606 FILLER_44_286
*2607 FILLER_44_289
*2608 FILLER_44_292
*2609 FILLER_44_295
*2610 FILLER_44_298
*2611 FILLER_44_3
*2612 FILLER_44_306
*2613 FILLER_44_309
*2614 FILLER_44_312
*2615 FILLER_44_315
*2616 FILLER_44_318
*2617 FILLER_44_37
*2618 FILLER_44_40
*2619 FILLER_44_6
*2620 FILLER_44_82
*2621 FILLER_44_85
*2622 FILLER_45_107
*2623 FILLER_45_110
*2624 FILLER_45_113
*2625 FILLER_45_134
*2626 FILLER_45_137
*2627 FILLER_45_140
*2628 FILLER_45_143
*2629 FILLER_45_146
*2630 FILLER_45_149
*2631 FILLER_45_152
*2632 FILLER_45_155
*2633 FILLER_45_158
*2634 FILLER_45_161
*2635 FILLER_45_169
*2636 FILLER_45_172
*2637 FILLER_45_175
*2638 FILLER_45_187
*2639 FILLER_45_209
*2640 FILLER_45_212
*2641 FILLER_45_215
*2642 FILLER_45_223
*2643 FILLER_45_233
*2644 FILLER_45_236
*2645 FILLER_45_239
*2646 FILLER_45_242
*2647 FILLER_45_278
*2648 FILLER_45_286
*2649 FILLER_45_289
*2650 FILLER_45_3
*2651 FILLER_45_313
*2652 FILLER_45_316
*2653 FILLER_45_319
*2654 FILLER_45_35
*2655 FILLER_45_38
*2656 FILLER_45_41
*2657 FILLER_45_44
*2658 FILLER_45_47
*2659 FILLER_45_6
*2660 FILLER_45_78
*2661 FILLER_45_81
*2662 FILLER_45_84
*2663 FILLER_46_111
*2664 FILLER_46_127
*2665 FILLER_46_136
*2666 FILLER_46_139
*2667 FILLER_46_141
*2668 FILLER_46_144
*2669 FILLER_46_147
*2670 FILLER_46_150
*2671 FILLER_46_153
*2672 FILLER_46_156
*2673 FILLER_46_159
*2674 FILLER_46_165
*2675 FILLER_46_168
*2676 FILLER_46_171
*2677 FILLER_46_174
*2678 FILLER_46_177
*2679 FILLER_46_180
*2680 FILLER_46_197
*2681 FILLER_46_200
*2682 FILLER_46_203
*2683 FILLER_46_206
*2684 FILLER_46_22
*2685 FILLER_46_229
*2686 FILLER_46_232
*2687 FILLER_46_235
*2688 FILLER_46_238
*2689 FILLER_46_241
*2690 FILLER_46_244
*2691 FILLER_46_247
*2692 FILLER_46_25
*2693 FILLER_46_250
*2694 FILLER_46_253
*2695 FILLER_46_277
*2696 FILLER_46_280
*2697 FILLER_46_283
*2698 FILLER_46_286
*2699 FILLER_46_289
*2700 FILLER_46_292
*2701 FILLER_46_3
*2702 FILLER_46_317
*2703 FILLER_46_37
*2704 FILLER_46_40
*2705 FILLER_46_43
*2706 FILLER_46_46
*2707 FILLER_46_49
*2708 FILLER_46_52
*2709 FILLER_46_6
*2710 FILLER_46_72
*2711 FILLER_46_75
*2712 FILLER_46_78
*2713 FILLER_46_81
*2714 FILLER_46_85
*2715 FILLER_46_88
*2716 FILLER_47_100
*2717 FILLER_47_109
*2718 FILLER_47_113
*2719 FILLER_47_124
*2720 FILLER_47_127
*2721 FILLER_47_140
*2722 FILLER_47_143
*2723 FILLER_47_146
*2724 FILLER_47_149
*2725 FILLER_47_152
*2726 FILLER_47_167
*2727 FILLER_47_169
*2728 FILLER_47_172
*2729 FILLER_47_175
*2730 FILLER_47_178
*2731 FILLER_47_181
*2732 FILLER_47_203
*2733 FILLER_47_206
*2734 FILLER_47_209
*2735 FILLER_47_212
*2736 FILLER_47_218
*2737 FILLER_47_221
*2738 FILLER_47_225
*2739 FILLER_47_228
*2740 FILLER_47_231
*2741 FILLER_47_234
*2742 FILLER_47_237
*2743 FILLER_47_240
*2744 FILLER_47_269
*2745 FILLER_47_279
*2746 FILLER_47_281
*2747 FILLER_47_284
*2748 FILLER_47_287
*2749 FILLER_47_290
*2750 FILLER_47_3
*2751 FILLER_47_313
*2752 FILLER_47_316
*2753 FILLER_47_319
*2754 FILLER_47_33
*2755 FILLER_47_36
*2756 FILLER_47_39
*2757 FILLER_47_42
*2758 FILLER_47_45
*2759 FILLER_47_48
*2760 FILLER_47_51
*2761 FILLER_47_54
*2762 FILLER_47_63
*2763 FILLER_47_74
*2764 FILLER_47_77
*2765 FILLER_47_80
*2766 FILLER_47_83
*2767 FILLER_47_86
*2768 FILLER_47_97
*2769 FILLER_48_102
*2770 FILLER_48_105
*2771 FILLER_48_108
*2772 FILLER_48_111
*2773 FILLER_48_114
*2774 FILLER_48_117
*2775 FILLER_48_120
*2776 FILLER_48_139
*2777 FILLER_48_141
*2778 FILLER_48_144
*2779 FILLER_48_147
*2780 FILLER_48_176
*2781 FILLER_48_179
*2782 FILLER_48_182
*2783 FILLER_48_193
*2784 FILLER_48_197
*2785 FILLER_48_203
*2786 FILLER_48_234
*2787 FILLER_48_253
*2788 FILLER_48_264
*2789 FILLER_48_267
*2790 FILLER_48_270
*2791 FILLER_48_279
*2792 FILLER_48_282
*2793 FILLER_48_285
*2794 FILLER_48_288
*2795 FILLER_48_29
*2796 FILLER_48_291
*2797 FILLER_48_294
*2798 FILLER_48_3
*2799 FILLER_48_309
*2800 FILLER_48_312
*2801 FILLER_48_315
*2802 FILLER_48_318
*2803 FILLER_48_32
*2804 FILLER_48_35
*2805 FILLER_48_38
*2806 FILLER_48_41
*2807 FILLER_48_44
*2808 FILLER_48_47
*2809 FILLER_48_6
*2810 FILLER_48_71
*2811 FILLER_48_74
*2812 FILLER_48_77
*2813 FILLER_48_80
*2814 FILLER_48_83
*2815 FILLER_48_85
*2816 FILLER_48_9
*2817 FILLER_49_108
*2818 FILLER_49_111
*2819 FILLER_49_113
*2820 FILLER_49_116
*2821 FILLER_49_12
*2822 FILLER_49_146
*2823 FILLER_49_15
*2824 FILLER_49_177
*2825 FILLER_49_18
*2826 FILLER_49_200
*2827 FILLER_49_21
*2828 FILLER_49_225
*2829 FILLER_49_228
*2830 FILLER_49_235
*2831 FILLER_49_24
*2832 FILLER_49_264
*2833 FILLER_49_27
*2834 FILLER_49_273
*2835 FILLER_49_281
*2836 FILLER_49_3
*2837 FILLER_49_30
*2838 FILLER_49_319
*2839 FILLER_49_33
*2840 FILLER_49_36
*2841 FILLER_49_39
*2842 FILLER_49_42
*2843 FILLER_49_45
*2844 FILLER_49_48
*2845 FILLER_49_51
*2846 FILLER_49_54
*2847 FILLER_49_57
*2848 FILLER_49_6
*2849 FILLER_49_60
*2850 FILLER_49_63
*2851 FILLER_49_66
*2852 FILLER_49_69
*2853 FILLER_49_72
*2854 FILLER_49_75
*2855 FILLER_49_78
*2856 FILLER_49_81
*2857 FILLER_49_9
*2858 FILLER_4_119
*2859 FILLER_4_122
*2860 FILLER_4_125
*2861 FILLER_4_157
*2862 FILLER_4_160
*2863 FILLER_4_163
*2864 FILLER_4_166
*2865 FILLER_4_192
*2866 FILLER_4_195
*2867 FILLER_4_197
*2868 FILLER_4_200
*2869 FILLER_4_203
*2870 FILLER_4_206
*2871 FILLER_4_209
*2872 FILLER_4_232
*2873 FILLER_4_235
*2874 FILLER_4_238
*2875 FILLER_4_241
*2876 FILLER_4_244
*2877 FILLER_4_253
*2878 FILLER_4_271
*2879 FILLER_4_274
*2880 FILLER_4_277
*2881 FILLER_4_29
*2882 FILLER_4_3
*2883 FILLER_4_306
*2884 FILLER_4_316
*2885 FILLER_4_319
*2886 FILLER_4_32
*2887 FILLER_4_35
*2888 FILLER_4_38
*2889 FILLER_4_41
*2890 FILLER_4_44
*2891 FILLER_4_47
*2892 FILLER_4_6
*2893 FILLER_4_74
*2894 FILLER_4_77
*2895 FILLER_4_80
*2896 FILLER_4_83
*2897 FILLER_4_85
*2898 FILLER_50_106
*2899 FILLER_50_12
*2900 FILLER_50_137
*2901 FILLER_50_148
*2902 FILLER_50_15
*2903 FILLER_50_18
*2904 FILLER_50_197
*2905 FILLER_50_21
*2906 FILLER_50_24
*2907 FILLER_50_27
*2908 FILLER_50_29
*2909 FILLER_50_3
*2910 FILLER_50_302
*2911 FILLER_50_305
*2912 FILLER_50_309
*2913 FILLER_50_312
*2914 FILLER_50_315
*2915 FILLER_50_318
*2916 FILLER_50_32
*2917 FILLER_50_35
*2918 FILLER_50_38
*2919 FILLER_50_41
*2920 FILLER_50_44
*2921 FILLER_50_47
*2922 FILLER_50_50
*2923 FILLER_50_53
*2924 FILLER_50_56
*2925 FILLER_50_59
*2926 FILLER_50_6
*2927 FILLER_50_62
*2928 FILLER_50_65
*2929 FILLER_50_68
*2930 FILLER_50_71
*2931 FILLER_50_74
*2932 FILLER_50_9
*2933 FILLER_51_101
*2934 FILLER_51_113
*2935 FILLER_51_116
*2936 FILLER_51_12
*2937 FILLER_51_147
*2938 FILLER_51_15
*2939 FILLER_51_150
*2940 FILLER_51_153
*2941 FILLER_51_156
*2942 FILLER_51_162
*2943 FILLER_51_165
*2944 FILLER_51_169
*2945 FILLER_51_172
*2946 FILLER_51_18
*2947 FILLER_51_202
*2948 FILLER_51_21
*2949 FILLER_51_233
*2950 FILLER_51_236
*2951 FILLER_51_24
*2952 FILLER_51_267
*2953 FILLER_51_27
*2954 FILLER_51_270
*2955 FILLER_51_292
*2956 FILLER_51_3
*2957 FILLER_51_30
*2958 FILLER_51_308
*2959 FILLER_51_311
*2960 FILLER_51_314
*2961 FILLER_51_317
*2962 FILLER_51_33
*2963 FILLER_51_36
*2964 FILLER_51_39
*2965 FILLER_51_42
*2966 FILLER_51_45
*2967 FILLER_51_48
*2968 FILLER_51_51
*2969 FILLER_51_54
*2970 FILLER_51_57
*2971 FILLER_51_6
*2972 FILLER_51_60
*2973 FILLER_51_63
*2974 FILLER_51_66
*2975 FILLER_51_69
*2976 FILLER_51_72
*2977 FILLER_51_75
*2978 FILLER_51_78
*2979 FILLER_51_9
*2980 FILLER_52_110
*2981 FILLER_52_113
*2982 FILLER_52_116
*2983 FILLER_52_119
*2984 FILLER_52_12
*2985 FILLER_52_122
*2986 FILLER_52_141
*2987 FILLER_52_144
*2988 FILLER_52_147
*2989 FILLER_52_15
*2990 FILLER_52_150
*2991 FILLER_52_153
*2992 FILLER_52_156
*2993 FILLER_52_159
*2994 FILLER_52_162
*2995 FILLER_52_165
*2996 FILLER_52_168
*2997 FILLER_52_171
*2998 FILLER_52_18
*2999 FILLER_52_197
*3000 FILLER_52_204
*3001 FILLER_52_207
*3002 FILLER_52_21
*3003 FILLER_52_210
*3004 FILLER_52_221
*3005 FILLER_52_224
*3006 FILLER_52_227
*3007 FILLER_52_230
*3008 FILLER_52_233
*3009 FILLER_52_236
*3010 FILLER_52_239
*3011 FILLER_52_24
*3012 FILLER_52_242
*3013 FILLER_52_245
*3014 FILLER_52_248
*3015 FILLER_52_251
*3016 FILLER_52_253
*3017 FILLER_52_260
*3018 FILLER_52_269
*3019 FILLER_52_27
*3020 FILLER_52_29
*3021 FILLER_52_3
*3022 FILLER_52_300
*3023 FILLER_52_303
*3024 FILLER_52_306
*3025 FILLER_52_309
*3026 FILLER_52_312
*3027 FILLER_52_315
*3028 FILLER_52_318
*3029 FILLER_52_32
*3030 FILLER_52_35
*3031 FILLER_52_38
*3032 FILLER_52_41
*3033 FILLER_52_44
*3034 FILLER_52_47
*3035 FILLER_52_50
*3036 FILLER_52_53
*3037 FILLER_52_56
*3038 FILLER_52_59
*3039 FILLER_52_6
*3040 FILLER_52_62
*3041 FILLER_52_65
*3042 FILLER_52_68
*3043 FILLER_52_71
*3044 FILLER_52_74
*3045 FILLER_52_77
*3046 FILLER_52_80
*3047 FILLER_52_83
*3048 FILLER_52_9
*3049 FILLER_53_101
*3050 FILLER_53_104
*3051 FILLER_53_107
*3052 FILLER_53_110
*3053 FILLER_53_113
*3054 FILLER_53_116
*3055 FILLER_53_12
*3056 FILLER_53_122
*3057 FILLER_53_125
*3058 FILLER_53_128
*3059 FILLER_53_138
*3060 FILLER_53_141
*3061 FILLER_53_144
*3062 FILLER_53_147
*3063 FILLER_53_15
*3064 FILLER_53_150
*3065 FILLER_53_153
*3066 FILLER_53_156
*3067 FILLER_53_159
*3068 FILLER_53_162
*3069 FILLER_53_165
*3070 FILLER_53_169
*3071 FILLER_53_172
*3072 FILLER_53_175
*3073 FILLER_53_178
*3074 FILLER_53_18
*3075 FILLER_53_181
*3076 FILLER_53_184
*3077 FILLER_53_187
*3078 FILLER_53_190
*3079 FILLER_53_193
*3080 FILLER_53_197
*3081 FILLER_53_200
*3082 FILLER_53_203
*3083 FILLER_53_208
*3084 FILLER_53_21
*3085 FILLER_53_211
*3086 FILLER_53_214
*3087 FILLER_53_217
*3088 FILLER_53_220
*3089 FILLER_53_223
*3090 FILLER_53_225
*3091 FILLER_53_228
*3092 FILLER_53_231
*3093 FILLER_53_234
*3094 FILLER_53_237
*3095 FILLER_53_24
*3096 FILLER_53_240
*3097 FILLER_53_243
*3098 FILLER_53_246
*3099 FILLER_53_249
*3100 FILLER_53_253
*3101 FILLER_53_256
*3102 FILLER_53_259
*3103 FILLER_53_262
*3104 FILLER_53_265
*3105 FILLER_53_268
*3106 FILLER_53_27
*3107 FILLER_53_271
*3108 FILLER_53_281
*3109 FILLER_53_284
*3110 FILLER_53_287
*3111 FILLER_53_29
*3112 FILLER_53_290
*3113 FILLER_53_299
*3114 FILLER_53_3
*3115 FILLER_53_302
*3116 FILLER_53_305
*3117 FILLER_53_309
*3118 FILLER_53_312
*3119 FILLER_53_315
*3120 FILLER_53_318
*3121 FILLER_53_32
*3122 FILLER_53_36
*3123 FILLER_53_39
*3124 FILLER_53_42
*3125 FILLER_53_45
*3126 FILLER_53_48
*3127 FILLER_53_51
*3128 FILLER_53_54
*3129 FILLER_53_57
*3130 FILLER_53_6
*3131 FILLER_53_60
*3132 FILLER_53_63
*3133 FILLER_53_66
*3134 FILLER_53_69
*3135 FILLER_53_72
*3136 FILLER_53_75
*3137 FILLER_53_78
*3138 FILLER_53_81
*3139 FILLER_53_85
*3140 FILLER_53_88
*3141 FILLER_53_9
*3142 FILLER_53_95
*3143 FILLER_53_98
*3144 FILLER_5_113
*3145 FILLER_5_116
*3146 FILLER_5_119
*3147 FILLER_5_12
*3148 FILLER_5_122
*3149 FILLER_5_125
*3150 FILLER_5_128
*3151 FILLER_5_152
*3152 FILLER_5_155
*3153 FILLER_5_158
*3154 FILLER_5_161
*3155 FILLER_5_164
*3156 FILLER_5_167
*3157 FILLER_5_169
*3158 FILLER_5_193
*3159 FILLER_5_196
*3160 FILLER_5_199
*3161 FILLER_5_202
*3162 FILLER_5_205
*3163 FILLER_5_231
*3164 FILLER_5_234
*3165 FILLER_5_237
*3166 FILLER_5_240
*3167 FILLER_5_243
*3168 FILLER_5_246
*3169 FILLER_5_25
*3170 FILLER_5_265
*3171 FILLER_5_268
*3172 FILLER_5_271
*3173 FILLER_5_274
*3174 FILLER_5_277
*3175 FILLER_5_28
*3176 FILLER_5_281
*3177 FILLER_5_284
*3178 FILLER_5_287
*3179 FILLER_5_295
*3180 FILLER_5_298
*3181 FILLER_5_3
*3182 FILLER_5_31
*3183 FILLER_5_34
*3184 FILLER_5_37
*3185 FILLER_5_40
*3186 FILLER_5_43
*3187 FILLER_5_46
*3188 FILLER_5_57
*3189 FILLER_5_6
*3190 FILLER_5_65
*3191 FILLER_5_68
*3192 FILLER_5_71
*3193 FILLER_5_74
*3194 FILLER_5_77
*3195 FILLER_5_80
*3196 FILLER_5_83
*3197 FILLER_5_9
*3198 FILLER_6_107
*3199 FILLER_6_110
*3200 FILLER_6_113
*3201 FILLER_6_116
*3202 FILLER_6_119
*3203 FILLER_6_122
*3204 FILLER_6_125
*3205 FILLER_6_128
*3206 FILLER_6_131
*3207 FILLER_6_134
*3208 FILLER_6_137
*3209 FILLER_6_146
*3210 FILLER_6_149
*3211 FILLER_6_152
*3212 FILLER_6_155
*3213 FILLER_6_158
*3214 FILLER_6_161
*3215 FILLER_6_164
*3216 FILLER_6_167
*3217 FILLER_6_170
*3218 FILLER_6_173
*3219 FILLER_6_192
*3220 FILLER_6_195
*3221 FILLER_6_197
*3222 FILLER_6_200
*3223 FILLER_6_203
*3224 FILLER_6_206
*3225 FILLER_6_209
*3226 FILLER_6_212
*3227 FILLER_6_215
*3228 FILLER_6_229
*3229 FILLER_6_232
*3230 FILLER_6_235
*3231 FILLER_6_238
*3232 FILLER_6_24
*3233 FILLER_6_241
*3234 FILLER_6_244
*3235 FILLER_6_247
*3236 FILLER_6_250
*3237 FILLER_6_27
*3238 FILLER_6_282
*3239 FILLER_6_285
*3240 FILLER_6_288
*3241 FILLER_6_29
*3242 FILLER_6_291
*3243 FILLER_6_294
*3244 FILLER_6_297
*3245 FILLER_6_3
*3246 FILLER_6_305
*3247 FILLER_6_309
*3248 FILLER_6_312
*3249 FILLER_6_315
*3250 FILLER_6_318
*3251 FILLER_6_32
*3252 FILLER_6_35
*3253 FILLER_6_38
*3254 FILLER_6_41
*3255 FILLER_6_44
*3256 FILLER_6_47
*3257 FILLER_6_50
*3258 FILLER_6_53
*3259 FILLER_6_6
*3260 FILLER_6_60
*3261 FILLER_6_63
*3262 FILLER_6_66
*3263 FILLER_6_69
*3264 FILLER_6_72
*3265 FILLER_6_75
*3266 FILLER_6_78
*3267 FILLER_6_81
*3268 FILLER_6_85
*3269 FILLER_6_9
*3270 FILLER_7_113
*3271 FILLER_7_116
*3272 FILLER_7_119
*3273 FILLER_7_12
*3274 FILLER_7_122
*3275 FILLER_7_125
*3276 FILLER_7_128
*3277 FILLER_7_131
*3278 FILLER_7_155
*3279 FILLER_7_158
*3280 FILLER_7_161
*3281 FILLER_7_164
*3282 FILLER_7_167
*3283 FILLER_7_169
*3284 FILLER_7_172
*3285 FILLER_7_175
*3286 FILLER_7_183
*3287 FILLER_7_186
*3288 FILLER_7_189
*3289 FILLER_7_192
*3290 FILLER_7_195
*3291 FILLER_7_198
*3292 FILLER_7_201
*3293 FILLER_7_204
*3294 FILLER_7_222
*3295 FILLER_7_231
*3296 FILLER_7_234
*3297 FILLER_7_237
*3298 FILLER_7_240
*3299 FILLER_7_243
*3300 FILLER_7_246
*3301 FILLER_7_249
*3302 FILLER_7_276
*3303 FILLER_7_279
*3304 FILLER_7_281
*3305 FILLER_7_284
*3306 FILLER_7_287
*3307 FILLER_7_290
*3308 FILLER_7_293
*3309 FILLER_7_296
*3310 FILLER_7_299
*3311 FILLER_7_3
*3312 FILLER_7_307
*3313 FILLER_7_310
*3314 FILLER_7_313
*3315 FILLER_7_316
*3316 FILLER_7_319
*3317 FILLER_7_34
*3318 FILLER_7_37
*3319 FILLER_7_40
*3320 FILLER_7_43
*3321 FILLER_7_46
*3322 FILLER_7_49
*3323 FILLER_7_52
*3324 FILLER_7_55
*3325 FILLER_7_6
*3326 FILLER_7_64
*3327 FILLER_7_67
*3328 FILLER_7_70
*3329 FILLER_7_73
*3330 FILLER_7_76
*3331 FILLER_7_79
*3332 FILLER_7_82
*3333 FILLER_7_85
*3334 FILLER_7_88
*3335 FILLER_7_9
*3336 FILLER_7_91
*3337 FILLER_8_118
*3338 FILLER_8_121
*3339 FILLER_8_141
*3340 FILLER_8_144
*3341 FILLER_8_153
*3342 FILLER_8_156
*3343 FILLER_8_159
*3344 FILLER_8_162
*3345 FILLER_8_165
*3346 FILLER_8_168
*3347 FILLER_8_171
*3348 FILLER_8_174
*3349 FILLER_8_188
*3350 FILLER_8_191
*3351 FILLER_8_194
*3352 FILLER_8_197
*3353 FILLER_8_200
*3354 FILLER_8_203
*3355 FILLER_8_213
*3356 FILLER_8_234
*3357 FILLER_8_237
*3358 FILLER_8_240
*3359 FILLER_8_243
*3360 FILLER_8_274
*3361 FILLER_8_277
*3362 FILLER_8_280
*3363 FILLER_8_283
*3364 FILLER_8_286
*3365 FILLER_8_289
*3366 FILLER_8_292
*3367 FILLER_8_3
*3368 FILLER_8_304
*3369 FILLER_8_307
*3370 FILLER_8_309
*3371 FILLER_8_312
*3372 FILLER_8_315
*3373 FILLER_8_318
*3374 FILLER_8_39
*3375 FILLER_8_42
*3376 FILLER_8_6
*3377 FILLER_8_69
*3378 FILLER_8_72
*3379 FILLER_8_75
*3380 FILLER_8_78
*3381 FILLER_8_81
*3382 FILLER_8_85
*3383 FILLER_8_88
*3384 FILLER_9_113
*3385 FILLER_9_116
*3386 FILLER_9_119
*3387 FILLER_9_122
*3388 FILLER_9_125
*3389 FILLER_9_128
*3390 FILLER_9_131
*3391 FILLER_9_160
*3392 FILLER_9_163
*3393 FILLER_9_166
*3394 FILLER_9_169
*3395 FILLER_9_191
*3396 FILLER_9_194
*3397 FILLER_9_197
*3398 FILLER_9_200
*3399 FILLER_9_239
*3400 FILLER_9_242
*3401 FILLER_9_273
*3402 FILLER_9_279
*3403 FILLER_9_281
*3404 FILLER_9_284
*3405 FILLER_9_3
*3406 FILLER_9_312
*3407 FILLER_9_315
*3408 FILLER_9_318
*3409 FILLER_9_39
*3410 FILLER_9_46
*3411 FILLER_9_6
*3412 FILLER_9_78
*3413 FILLER_9_81
*3414 FILLER_9_84
*3415 FILLER_9_87
*3416 FILLER_9_9
*3417 FILLER_9_90
*3418 PHY_EDGE_ROW_0_Left_54
*3419 PHY_EDGE_ROW_0_Right_0
*3420 PHY_EDGE_ROW_10_Left_64
*3421 PHY_EDGE_ROW_10_Right_10
*3422 PHY_EDGE_ROW_11_Left_65
*3423 PHY_EDGE_ROW_11_Right_11
*3424 PHY_EDGE_ROW_12_Left_66
*3425 PHY_EDGE_ROW_12_Right_12
*3426 PHY_EDGE_ROW_13_Left_67
*3427 PHY_EDGE_ROW_13_Right_13
*3428 PHY_EDGE_ROW_14_Left_68
*3429 PHY_EDGE_ROW_14_Right_14
*3430 PHY_EDGE_ROW_15_Left_69
*3431 PHY_EDGE_ROW_15_Right_15
*3432 PHY_EDGE_ROW_16_Left_70
*3433 PHY_EDGE_ROW_16_Right_16
*3434 PHY_EDGE_ROW_17_Left_71
*3435 PHY_EDGE_ROW_17_Right_17
*3436 PHY_EDGE_ROW_18_Left_72
*3437 PHY_EDGE_ROW_18_Right_18
*3438 PHY_EDGE_ROW_19_Left_73
*3439 PHY_EDGE_ROW_19_Right_19
*3440 PHY_EDGE_ROW_1_Left_55
*3441 PHY_EDGE_ROW_1_Right_1
*3442 PHY_EDGE_ROW_20_Left_74
*3443 PHY_EDGE_ROW_20_Right_20
*3444 PHY_EDGE_ROW_21_Left_75
*3445 PHY_EDGE_ROW_21_Right_21
*3446 PHY_EDGE_ROW_22_Left_76
*3447 PHY_EDGE_ROW_22_Right_22
*3448 PHY_EDGE_ROW_23_Left_77
*3449 PHY_EDGE_ROW_23_Right_23
*3450 PHY_EDGE_ROW_24_Left_78
*3451 PHY_EDGE_ROW_24_Right_24
*3452 PHY_EDGE_ROW_25_Left_79
*3453 PHY_EDGE_ROW_25_Right_25
*3454 PHY_EDGE_ROW_26_Left_80
*3455 PHY_EDGE_ROW_26_Right_26
*3456 PHY_EDGE_ROW_27_Left_81
*3457 PHY_EDGE_ROW_27_Right_27
*3458 PHY_EDGE_ROW_28_Left_82
*3459 PHY_EDGE_ROW_28_Right_28
*3460 PHY_EDGE_ROW_29_Left_83
*3461 PHY_EDGE_ROW_29_Right_29
*3462 PHY_EDGE_ROW_2_Left_56
*3463 PHY_EDGE_ROW_2_Right_2
*3464 PHY_EDGE_ROW_30_Left_84
*3465 PHY_EDGE_ROW_30_Right_30
*3466 PHY_EDGE_ROW_31_Left_85
*3467 PHY_EDGE_ROW_31_Right_31
*3468 PHY_EDGE_ROW_32_Left_86
*3469 PHY_EDGE_ROW_32_Right_32
*3470 PHY_EDGE_ROW_33_Left_87
*3471 PHY_EDGE_ROW_33_Right_33
*3472 PHY_EDGE_ROW_34_Left_88
*3473 PHY_EDGE_ROW_34_Right_34
*3474 PHY_EDGE_ROW_35_Left_89
*3475 PHY_EDGE_ROW_35_Right_35
*3476 PHY_EDGE_ROW_36_Left_90
*3477 PHY_EDGE_ROW_36_Right_36
*3478 PHY_EDGE_ROW_37_Left_91
*3479 PHY_EDGE_ROW_37_Right_37
*3480 PHY_EDGE_ROW_38_Left_92
*3481 PHY_EDGE_ROW_38_Right_38
*3482 PHY_EDGE_ROW_39_Left_93
*3483 PHY_EDGE_ROW_39_Right_39
*3484 PHY_EDGE_ROW_3_Left_57
*3485 PHY_EDGE_ROW_3_Right_3
*3486 PHY_EDGE_ROW_40_Left_94
*3487 PHY_EDGE_ROW_40_Right_40
*3488 PHY_EDGE_ROW_41_Left_95
*3489 PHY_EDGE_ROW_41_Right_41
*3490 PHY_EDGE_ROW_42_Left_96
*3491 PHY_EDGE_ROW_42_Right_42
*3492 PHY_EDGE_ROW_43_Left_97
*3493 PHY_EDGE_ROW_43_Right_43
*3494 PHY_EDGE_ROW_44_Left_98
*3495 PHY_EDGE_ROW_44_Right_44
*3496 PHY_EDGE_ROW_45_Left_99
*3497 PHY_EDGE_ROW_45_Right_45
*3498 PHY_EDGE_ROW_46_Left_100
*3499 PHY_EDGE_ROW_46_Right_46
*3500 PHY_EDGE_ROW_47_Left_101
*3501 PHY_EDGE_ROW_47_Right_47
*3502 PHY_EDGE_ROW_48_Left_102
*3503 PHY_EDGE_ROW_48_Right_48
*3504 PHY_EDGE_ROW_49_Left_103
*3505 PHY_EDGE_ROW_49_Right_49
*3506 PHY_EDGE_ROW_4_Left_58
*3507 PHY_EDGE_ROW_4_Right_4
*3508 PHY_EDGE_ROW_50_Left_104
*3509 PHY_EDGE_ROW_50_Right_50
*3510 PHY_EDGE_ROW_51_Left_105
*3511 PHY_EDGE_ROW_51_Right_51
*3512 PHY_EDGE_ROW_52_Left_106
*3513 PHY_EDGE_ROW_52_Right_52
*3514 PHY_EDGE_ROW_53_Left_107
*3515 PHY_EDGE_ROW_53_Right_53
*3516 PHY_EDGE_ROW_5_Left_59
*3517 PHY_EDGE_ROW_5_Right_5
*3518 PHY_EDGE_ROW_6_Left_60
*3519 PHY_EDGE_ROW_6_Right_6
*3520 PHY_EDGE_ROW_7_Left_61
*3521 PHY_EDGE_ROW_7_Right_7
*3522 PHY_EDGE_ROW_8_Left_62
*3523 PHY_EDGE_ROW_8_Right_8
*3524 PHY_EDGE_ROW_9_Left_63
*3525 PHY_EDGE_ROW_9_Right_9
*3526 TAP_TAPCELL_ROW_0_108
*3527 TAP_TAPCELL_ROW_0_109
*3528 TAP_TAPCELL_ROW_0_110
*3529 TAP_TAPCELL_ROW_0_111
*3530 TAP_TAPCELL_ROW_0_112
*3531 TAP_TAPCELL_ROW_0_113
*3532 TAP_TAPCELL_ROW_0_114
*3533 TAP_TAPCELL_ROW_0_115
*3534 TAP_TAPCELL_ROW_0_116
*3535 TAP_TAPCELL_ROW_0_117
*3536 TAP_TAPCELL_ROW_0_118
*3537 TAP_TAPCELL_ROW_10_168
*3538 TAP_TAPCELL_ROW_10_169
*3539 TAP_TAPCELL_ROW_10_170
*3540 TAP_TAPCELL_ROW_10_171
*3541 TAP_TAPCELL_ROW_10_172
*3542 TAP_TAPCELL_ROW_10_173
*3543 TAP_TAPCELL_ROW_11_174
*3544 TAP_TAPCELL_ROW_11_175
*3545 TAP_TAPCELL_ROW_11_176
*3546 TAP_TAPCELL_ROW_11_177
*3547 TAP_TAPCELL_ROW_11_178
*3548 TAP_TAPCELL_ROW_12_179
*3549 TAP_TAPCELL_ROW_12_180
*3550 TAP_TAPCELL_ROW_12_181
*3551 TAP_TAPCELL_ROW_12_182
*3552 TAP_TAPCELL_ROW_12_183
*3553 TAP_TAPCELL_ROW_12_184
*3554 TAP_TAPCELL_ROW_13_185
*3555 TAP_TAPCELL_ROW_13_186
*3556 TAP_TAPCELL_ROW_13_187
*3557 TAP_TAPCELL_ROW_13_188
*3558 TAP_TAPCELL_ROW_13_189
*3559 TAP_TAPCELL_ROW_14_190
*3560 TAP_TAPCELL_ROW_14_191
*3561 TAP_TAPCELL_ROW_14_192
*3562 TAP_TAPCELL_ROW_14_193
*3563 TAP_TAPCELL_ROW_14_194
*3564 TAP_TAPCELL_ROW_14_195
*3565 TAP_TAPCELL_ROW_15_196
*3566 TAP_TAPCELL_ROW_15_197
*3567 TAP_TAPCELL_ROW_15_198
*3568 TAP_TAPCELL_ROW_15_199
*3569 TAP_TAPCELL_ROW_15_200
*3570 TAP_TAPCELL_ROW_16_201
*3571 TAP_TAPCELL_ROW_16_202
*3572 TAP_TAPCELL_ROW_16_203
*3573 TAP_TAPCELL_ROW_16_204
*3574 TAP_TAPCELL_ROW_16_205
*3575 TAP_TAPCELL_ROW_16_206
*3576 TAP_TAPCELL_ROW_17_207
*3577 TAP_TAPCELL_ROW_17_208
*3578 TAP_TAPCELL_ROW_17_209
*3579 TAP_TAPCELL_ROW_17_210
*3580 TAP_TAPCELL_ROW_17_211
*3581 TAP_TAPCELL_ROW_18_212
*3582 TAP_TAPCELL_ROW_18_213
*3583 TAP_TAPCELL_ROW_18_214
*3584 TAP_TAPCELL_ROW_18_215
*3585 TAP_TAPCELL_ROW_18_216
*3586 TAP_TAPCELL_ROW_18_217
*3587 TAP_TAPCELL_ROW_19_218
*3588 TAP_TAPCELL_ROW_19_219
*3589 TAP_TAPCELL_ROW_19_220
*3590 TAP_TAPCELL_ROW_19_221
*3591 TAP_TAPCELL_ROW_19_222
*3592 TAP_TAPCELL_ROW_1_119
*3593 TAP_TAPCELL_ROW_1_120
*3594 TAP_TAPCELL_ROW_1_121
*3595 TAP_TAPCELL_ROW_1_122
*3596 TAP_TAPCELL_ROW_1_123
*3597 TAP_TAPCELL_ROW_20_223
*3598 TAP_TAPCELL_ROW_20_224
*3599 TAP_TAPCELL_ROW_20_225
*3600 TAP_TAPCELL_ROW_20_226
*3601 TAP_TAPCELL_ROW_20_227
*3602 TAP_TAPCELL_ROW_20_228
*3603 TAP_TAPCELL_ROW_21_229
*3604 TAP_TAPCELL_ROW_21_230
*3605 TAP_TAPCELL_ROW_21_231
*3606 TAP_TAPCELL_ROW_21_232
*3607 TAP_TAPCELL_ROW_21_233
*3608 TAP_TAPCELL_ROW_22_234
*3609 TAP_TAPCELL_ROW_22_235
*3610 TAP_TAPCELL_ROW_22_236
*3611 TAP_TAPCELL_ROW_22_237
*3612 TAP_TAPCELL_ROW_22_238
*3613 TAP_TAPCELL_ROW_22_239
*3614 TAP_TAPCELL_ROW_23_240
*3615 TAP_TAPCELL_ROW_23_241
*3616 TAP_TAPCELL_ROW_23_242
*3617 TAP_TAPCELL_ROW_23_243
*3618 TAP_TAPCELL_ROW_23_244
*3619 TAP_TAPCELL_ROW_24_245
*3620 TAP_TAPCELL_ROW_24_246
*3621 TAP_TAPCELL_ROW_24_247
*3622 TAP_TAPCELL_ROW_24_248
*3623 TAP_TAPCELL_ROW_24_249
*3624 TAP_TAPCELL_ROW_24_250
*3625 TAP_TAPCELL_ROW_25_251
*3626 TAP_TAPCELL_ROW_25_252
*3627 TAP_TAPCELL_ROW_25_253
*3628 TAP_TAPCELL_ROW_25_254
*3629 TAP_TAPCELL_ROW_25_255
*3630 TAP_TAPCELL_ROW_26_256
*3631 TAP_TAPCELL_ROW_26_257
*3632 TAP_TAPCELL_ROW_26_258
*3633 TAP_TAPCELL_ROW_26_259
*3634 TAP_TAPCELL_ROW_26_260
*3635 TAP_TAPCELL_ROW_26_261
*3636 TAP_TAPCELL_ROW_27_262
*3637 TAP_TAPCELL_ROW_27_263
*3638 TAP_TAPCELL_ROW_27_264
*3639 TAP_TAPCELL_ROW_27_265
*3640 TAP_TAPCELL_ROW_27_266
*3641 TAP_TAPCELL_ROW_28_267
*3642 TAP_TAPCELL_ROW_28_268
*3643 TAP_TAPCELL_ROW_28_269
*3644 TAP_TAPCELL_ROW_28_270
*3645 TAP_TAPCELL_ROW_28_271
*3646 TAP_TAPCELL_ROW_28_272
*3647 TAP_TAPCELL_ROW_29_273
*3648 TAP_TAPCELL_ROW_29_274
*3649 TAP_TAPCELL_ROW_29_275
*3650 TAP_TAPCELL_ROW_29_276
*3651 TAP_TAPCELL_ROW_29_277
*3652 TAP_TAPCELL_ROW_2_124
*3653 TAP_TAPCELL_ROW_2_125
*3654 TAP_TAPCELL_ROW_2_126
*3655 TAP_TAPCELL_ROW_2_127
*3656 TAP_TAPCELL_ROW_2_128
*3657 TAP_TAPCELL_ROW_2_129
*3658 TAP_TAPCELL_ROW_30_278
*3659 TAP_TAPCELL_ROW_30_279
*3660 TAP_TAPCELL_ROW_30_280
*3661 TAP_TAPCELL_ROW_30_281
*3662 TAP_TAPCELL_ROW_30_282
*3663 TAP_TAPCELL_ROW_30_283
*3664 TAP_TAPCELL_ROW_31_284
*3665 TAP_TAPCELL_ROW_31_285
*3666 TAP_TAPCELL_ROW_31_286
*3667 TAP_TAPCELL_ROW_31_287
*3668 TAP_TAPCELL_ROW_31_288
*3669 TAP_TAPCELL_ROW_32_289
*3670 TAP_TAPCELL_ROW_32_290
*3671 TAP_TAPCELL_ROW_32_291
*3672 TAP_TAPCELL_ROW_32_292
*3673 TAP_TAPCELL_ROW_32_293
*3674 TAP_TAPCELL_ROW_32_294
*3675 TAP_TAPCELL_ROW_33_295
*3676 TAP_TAPCELL_ROW_33_296
*3677 TAP_TAPCELL_ROW_33_297
*3678 TAP_TAPCELL_ROW_33_298
*3679 TAP_TAPCELL_ROW_33_299
*3680 TAP_TAPCELL_ROW_34_300
*3681 TAP_TAPCELL_ROW_34_301
*3682 TAP_TAPCELL_ROW_34_302
*3683 TAP_TAPCELL_ROW_34_303
*3684 TAP_TAPCELL_ROW_34_304
*3685 TAP_TAPCELL_ROW_34_305
*3686 TAP_TAPCELL_ROW_35_306
*3687 TAP_TAPCELL_ROW_35_307
*3688 TAP_TAPCELL_ROW_35_308
*3689 TAP_TAPCELL_ROW_35_309
*3690 TAP_TAPCELL_ROW_35_310
*3691 TAP_TAPCELL_ROW_36_311
*3692 TAP_TAPCELL_ROW_36_312
*3693 TAP_TAPCELL_ROW_36_313
*3694 TAP_TAPCELL_ROW_36_314
*3695 TAP_TAPCELL_ROW_36_315
*3696 TAP_TAPCELL_ROW_36_316
*3697 TAP_TAPCELL_ROW_37_317
*3698 TAP_TAPCELL_ROW_37_318
*3699 TAP_TAPCELL_ROW_37_319
*3700 TAP_TAPCELL_ROW_37_320
*3701 TAP_TAPCELL_ROW_37_321
*3702 TAP_TAPCELL_ROW_38_322
*3703 TAP_TAPCELL_ROW_38_323
*3704 TAP_TAPCELL_ROW_38_324
*3705 TAP_TAPCELL_ROW_38_325
*3706 TAP_TAPCELL_ROW_38_326
*3707 TAP_TAPCELL_ROW_38_327
*3708 TAP_TAPCELL_ROW_39_328
*3709 TAP_TAPCELL_ROW_39_329
*3710 TAP_TAPCELL_ROW_39_330
*3711 TAP_TAPCELL_ROW_39_331
*3712 TAP_TAPCELL_ROW_39_332
*3713 TAP_TAPCELL_ROW_3_130
*3714 TAP_TAPCELL_ROW_3_131
*3715 TAP_TAPCELL_ROW_3_132
*3716 TAP_TAPCELL_ROW_3_133
*3717 TAP_TAPCELL_ROW_3_134
*3718 TAP_TAPCELL_ROW_40_333
*3719 TAP_TAPCELL_ROW_40_334
*3720 TAP_TAPCELL_ROW_40_335
*3721 TAP_TAPCELL_ROW_40_336
*3722 TAP_TAPCELL_ROW_40_337
*3723 TAP_TAPCELL_ROW_40_338
*3724 TAP_TAPCELL_ROW_41_339
*3725 TAP_TAPCELL_ROW_41_340
*3726 TAP_TAPCELL_ROW_41_341
*3727 TAP_TAPCELL_ROW_41_342
*3728 TAP_TAPCELL_ROW_41_343
*3729 TAP_TAPCELL_ROW_42_344
*3730 TAP_TAPCELL_ROW_42_345
*3731 TAP_TAPCELL_ROW_42_346
*3732 TAP_TAPCELL_ROW_42_347
*3733 TAP_TAPCELL_ROW_42_348
*3734 TAP_TAPCELL_ROW_42_349
*3735 TAP_TAPCELL_ROW_43_350
*3736 TAP_TAPCELL_ROW_43_351
*3737 TAP_TAPCELL_ROW_43_352
*3738 TAP_TAPCELL_ROW_43_353
*3739 TAP_TAPCELL_ROW_43_354
*3740 TAP_TAPCELL_ROW_44_355
*3741 TAP_TAPCELL_ROW_44_356
*3742 TAP_TAPCELL_ROW_44_357
*3743 TAP_TAPCELL_ROW_44_358
*3744 TAP_TAPCELL_ROW_44_359
*3745 TAP_TAPCELL_ROW_44_360
*3746 TAP_TAPCELL_ROW_45_361
*3747 TAP_TAPCELL_ROW_45_362
*3748 TAP_TAPCELL_ROW_45_363
*3749 TAP_TAPCELL_ROW_45_364
*3750 TAP_TAPCELL_ROW_45_365
*3751 TAP_TAPCELL_ROW_46_366
*3752 TAP_TAPCELL_ROW_46_367
*3753 TAP_TAPCELL_ROW_46_368
*3754 TAP_TAPCELL_ROW_46_369
*3755 TAP_TAPCELL_ROW_46_370
*3756 TAP_TAPCELL_ROW_46_371
*3757 TAP_TAPCELL_ROW_47_372
*3758 TAP_TAPCELL_ROW_47_373
*3759 TAP_TAPCELL_ROW_47_374
*3760 TAP_TAPCELL_ROW_47_375
*3761 TAP_TAPCELL_ROW_47_376
*3762 TAP_TAPCELL_ROW_48_377
*3763 TAP_TAPCELL_ROW_48_378
*3764 TAP_TAPCELL_ROW_48_379
*3765 TAP_TAPCELL_ROW_48_380
*3766 TAP_TAPCELL_ROW_48_381
*3767 TAP_TAPCELL_ROW_48_382
*3768 TAP_TAPCELL_ROW_49_383
*3769 TAP_TAPCELL_ROW_49_384
*3770 TAP_TAPCELL_ROW_49_385
*3771 TAP_TAPCELL_ROW_49_386
*3772 TAP_TAPCELL_ROW_49_387
*3773 TAP_TAPCELL_ROW_4_135
*3774 TAP_TAPCELL_ROW_4_136
*3775 TAP_TAPCELL_ROW_4_137
*3776 TAP_TAPCELL_ROW_4_138
*3777 TAP_TAPCELL_ROW_4_139
*3778 TAP_TAPCELL_ROW_4_140
*3779 TAP_TAPCELL_ROW_50_388
*3780 TAP_TAPCELL_ROW_50_389
*3781 TAP_TAPCELL_ROW_50_390
*3782 TAP_TAPCELL_ROW_50_391
*3783 TAP_TAPCELL_ROW_50_392
*3784 TAP_TAPCELL_ROW_50_393
*3785 TAP_TAPCELL_ROW_51_394
*3786 TAP_TAPCELL_ROW_51_395
*3787 TAP_TAPCELL_ROW_51_396
*3788 TAP_TAPCELL_ROW_51_397
*3789 TAP_TAPCELL_ROW_51_398
*3790 TAP_TAPCELL_ROW_52_399
*3791 TAP_TAPCELL_ROW_52_400
*3792 TAP_TAPCELL_ROW_52_401
*3793 TAP_TAPCELL_ROW_52_402
*3794 TAP_TAPCELL_ROW_52_403
*3795 TAP_TAPCELL_ROW_52_404
*3796 TAP_TAPCELL_ROW_53_405
*3797 TAP_TAPCELL_ROW_53_406
*3798 TAP_TAPCELL_ROW_53_407
*3799 TAP_TAPCELL_ROW_53_408
*3800 TAP_TAPCELL_ROW_53_409
*3801 TAP_TAPCELL_ROW_53_410
*3802 TAP_TAPCELL_ROW_53_411
*3803 TAP_TAPCELL_ROW_53_412
*3804 TAP_TAPCELL_ROW_53_413
*3805 TAP_TAPCELL_ROW_53_414
*3806 TAP_TAPCELL_ROW_53_415
*3807 TAP_TAPCELL_ROW_5_141
*3808 TAP_TAPCELL_ROW_5_142
*3809 TAP_TAPCELL_ROW_5_143
*3810 TAP_TAPCELL_ROW_5_144
*3811 TAP_TAPCELL_ROW_5_145
*3812 TAP_TAPCELL_ROW_6_146
*3813 TAP_TAPCELL_ROW_6_147
*3814 TAP_TAPCELL_ROW_6_148
*3815 TAP_TAPCELL_ROW_6_149
*3816 TAP_TAPCELL_ROW_6_150
*3817 TAP_TAPCELL_ROW_6_151
*3818 TAP_TAPCELL_ROW_7_152
*3819 TAP_TAPCELL_ROW_7_153
*3820 TAP_TAPCELL_ROW_7_154
*3821 TAP_TAPCELL_ROW_7_155
*3822 TAP_TAPCELL_ROW_7_156
*3823 TAP_TAPCELL_ROW_8_157
*3824 TAP_TAPCELL_ROW_8_158
*3825 TAP_TAPCELL_ROW_8_159
*3826 TAP_TAPCELL_ROW_8_160
*3827 TAP_TAPCELL_ROW_8_161
*3828 TAP_TAPCELL_ROW_8_162
*3829 TAP_TAPCELL_ROW_9_163
*3830 TAP_TAPCELL_ROW_9_164
*3831 TAP_TAPCELL_ROW_9_165
*3832 TAP_TAPCELL_ROW_9_166
*3833 TAP_TAPCELL_ROW_9_167
*3834 _0435_
*3835 _0436_
*3836 _0437_
*3837 _0438_
*3838 _0439_
*3839 _0440_
*3840 _0441_
*3841 _0442_
*3842 _0443_
*3843 _0444_
*3844 _0445_
*3845 _0446_
*3846 _0447_
*3847 _0448_
*3848 _0449_
*3849 _0450_
*3850 _0451_
*3851 _0452_
*3852 _0453_
*3853 _0454_
*3854 _0455_
*3855 _0456_
*3856 _0457_
*3857 _0458_
*3858 _0459_
*3859 _0460_
*3860 _0461_
*3861 _0462_
*3862 _0463_
*3863 _0464_
*3864 _0465_
*3865 _0466_
*3866 _0467_
*3867 _0468_
*3868 _0469_
*3869 _0470_
*3870 _0471_
*3871 _0472_
*3872 _0473_
*3873 _0474_
*3874 _0475_
*3875 _0476_
*3876 _0477_
*3877 _0478_
*3878 _0479_
*3879 _0480_
*3880 _0481_
*3881 _0482_
*3882 _0483_
*3883 _0484_
*3884 _0485_
*3885 _0486_
*3886 _0487_
*3887 _0488_
*3888 _0489_
*3889 _0490_
*3890 _0491_
*3891 _0492_
*3892 _0493_
*3893 _0494_
*3894 _0495_
*3895 _0496_
*3896 _0497_
*3897 _0498_
*3898 _0499_
*3899 _0500_
*3900 _0501_
*3901 _0502_
*3902 _0503_
*3903 _0504_
*3904 _0505_
*3905 _0506_
*3906 _0507_
*3907 _0508_
*3908 _0509_
*3909 _0510_
*3910 _0511_
*3911 _0512_
*3912 _0513_
*3913 _0514_
*3914 _0515_
*3915 _0516_
*3916 _0517_
*3917 _0518_
*3918 _0519_
*3919 _0520_
*3920 _0521_
*3921 _0522_
*3922 _0523_
*3923 _0524_
*3924 _0525_
*3925 _0526_
*3926 _0527_
*3927 _0528_
*3928 _0529_
*3929 _0530_
*3930 _0531_
*3931 _0532_
*3932 _0533_
*3933 _0534_
*3934 _0535_
*3935 _0536_
*3936 _0537_
*3937 _0538_
*3938 _0539_
*3939 _0540_
*3940 _0541_
*3941 _0542_
*3942 _0543_
*3943 _0544_
*3944 _0545_
*3945 _0546_
*3946 _0547_
*3947 _0548_
*3948 _0549_
*3949 _0550_
*3950 _0551_
*3951 _0552_
*3952 _0553_
*3953 _0554_
*3954 _0555_
*3955 _0556_
*3956 _0557_
*3957 _0558_
*3958 _0559_
*3959 _0560_
*3960 _0561_
*3961 _0562_
*3962 _0563_
*3963 _0564_
*3964 _0565_
*3965 _0566_
*3966 _0567_
*3967 _0568_
*3968 _0569_
*3969 _0570_
*3970 _0571_
*3971 _0572_
*3972 _0573_
*3973 _0574_
*3974 _0575_
*3975 _0576_
*3976 _0577_
*3977 _0578_
*3978 _0579_
*3979 _0580_
*3980 _0581_
*3981 _0582_
*3982 _0583_
*3983 _0584_
*3984 _0585_
*3985 _0586_
*3986 _0587_
*3987 _0588_
*3988 _0589_
*3989 _0590_
*3990 _0591_
*3991 _0592_
*3992 _0593_
*3993 _0594_
*3994 _0595_
*3995 _0596_
*3996 _0597_
*3997 _0598_
*3998 _0599_
*3999 _0600_
*4000 _0601_
*4001 _0602_
*4002 _0603_
*4003 _0604_
*4004 _0605_
*4005 _0606_
*4006 _0607_
*4007 _0608_
*4008 _0609_
*4009 _0610_
*4010 _0611_
*4011 _0612_
*4012 _0613_
*4013 _0614_
*4014 _0615_
*4015 _0616_
*4016 _0617_
*4017 _0618_
*4018 _0619_
*4019 _0620_
*4020 _0621_
*4021 _0622_
*4022 _0623_
*4023 _0624_
*4024 _0625_
*4025 _0626_
*4026 _0627_
*4027 _0628_
*4028 _0629_
*4029 _0630_
*4030 _0631_
*4031 _0632_
*4032 _0633_
*4033 _0634_
*4034 _0635_
*4035 _0636_
*4036 _0637_
*4037 _0638_
*4038 _0639_
*4039 _0640_
*4040 _0641_
*4041 _0642_
*4042 _0643_
*4043 _0644_
*4044 _0645_
*4045 _0646_
*4046 _0647_
*4047 _0648_
*4048 _0649_
*4049 _0650_
*4050 _0651_
*4051 _0652_
*4052 _0653_
*4053 _0654_
*4054 _0655_
*4055 _0656_
*4056 _0657_
*4057 _0658_
*4058 _0659_
*4059 _0660_
*4060 _0661_
*4061 _0662_
*4062 _0663_
*4063 _0664_
*4064 _0665_
*4065 _0666_
*4066 _0667_
*4067 _0668_
*4068 _0669_
*4069 _0670_
*4070 _0671_
*4071 _0672_
*4072 _0673_
*4073 _0674_
*4074 _0675_
*4075 _0676_
*4076 _0677_
*4077 _0678_
*4078 _0679_
*4079 _0680_
*4080 _0681_
*4081 _0682_
*4082 _0683_
*4083 _0684_
*4084 _0685_
*4085 _0686_
*4086 _0687_
*4087 _0688_
*4088 _0689_
*4089 _0690_
*4090 _0691_
*4091 _0692_
*4092 _0693_
*4093 _0694_
*4094 _0695_
*4095 _0696_
*4096 _0697_
*4097 _0698_
*4098 _0699_
*4099 _0700_
*4100 _0701_
*4101 _0702_
*4102 _0703_
*4103 _0704_
*4104 _0705_
*4105 _0706_
*4106 _0707_
*4107 _0708_
*4108 _0709_
*4109 _0710_
*4110 _0711_
*4111 _0712_
*4112 _0713_
*4113 _0714_
*4114 _0715_
*4115 _0716_
*4116 _0717_
*4117 _0718_
*4118 _0719_
*4119 _0720_
*4120 _0721_
*4121 _0722_
*4122 _0723_
*4123 _0724_
*4124 _0725_
*4125 _0726_
*4126 _0727_
*4127 _0728_
*4128 _0729_
*4129 _0730_
*4130 _0731_
*4131 _0732_
*4132 _0733_
*4133 _0734_
*4134 _0735_
*4135 _0736_
*4136 _0737_
*4137 _0738_
*4138 _0739_
*4139 _0740_
*4140 _0741_
*4141 _0742_
*4142 _0743_
*4143 _0744_
*4144 _0745_
*4145 _0746_
*4146 _0747_
*4147 _0748_
*4148 _0749_
*4149 _0750_
*4150 _0751_
*4151 _0752_
*4152 _0753_
*4153 _0754_
*4154 _0755_
*4155 _0756_
*4156 _0757_
*4157 _0758_
*4158 _0759_
*4159 _0760_
*4160 _0761_
*4161 _0762_
*4162 _0763_
*4163 _0764_
*4164 _0765_
*4165 _0766_
*4166 _0767_
*4167 _0768_
*4168 _0769_
*4169 _0770_
*4170 _0771_
*4171 _0772_
*4172 _0773_
*4173 _0774_
*4174 _0775_
*4175 _0776_
*4176 _0777_
*4177 _0778_
*4178 _0779_
*4179 _0780_
*4180 _0781_
*4181 _0782_
*4182 _0783_
*4183 _0784_
*4184 _0785_
*4185 _0786_
*4186 _0787_
*4187 _0788_
*4188 _0789_
*4189 _0790_
*4190 _0791_
*4191 _0792_
*4192 _0793_
*4193 _0794_
*4194 _0795_
*4195 _0796_
*4196 _0797_
*4197 _0798_
*4198 _0799_
*4199 _0800_
*4200 _0801_
*4201 _0802_
*4202 _0803_
*4203 _0804_
*4204 _0805_
*4205 _0806_
*4206 _0807_
*4207 _0808_
*4208 _0809_
*4209 _0810_
*4210 _0811_
*4211 _0812_
*4212 _0813_
*4213 _0814_
*4214 _0815_
*4215 _0816_
*4216 _0817_
*4217 _0818_
*4218 _0819_
*4219 _0820_
*4220 _0821_
*4221 _0822_
*4222 _0823_
*4223 _0824_
*4224 _0825_
*4225 _0826_
*4226 _0827_
*4227 _0828_
*4228 _0829_
*4229 _0830_
*4230 _0831_
*4231 _0832_
*4232 _0833_
*4233 _0834_
*4234 _0835_
*4235 _0836_
*4236 _0837_
*4237 _0838_
*4238 _0839_
*4239 _0840_
*4240 _0841_
*4241 _0842_
*4242 _0843_
*4243 _0844_
*4244 _0845_
*4245 _0846_
*4246 _0847_
*4247 _0848_
*4248 _0849_
*4249 _0850_
*4250 _0851_
*4251 _0852_
*4252 _0853_
*4253 _0854_
*4254 _0855_
*4255 _0856_
*4256 _0857_
*4257 _0858_
*4258 _0859_
*4259 _0860_
*4260 _0861_
*4261 _0862_
*4262 _0863_
*4263 _0864_
*4264 _0865_
*4265 _0866_
*4266 _0867_
*4267 _0868_
*4268 _0869_
*4269 _0870_
*4270 _0871_
*4271 _0872_
*4272 _0873_
*4273 _0874_
*4274 _0875_
*4275 _0876_
*4276 _0877_
*4277 _0878_
*4278 _0879_
*4279 _0880_
*4280 _0881_
*4281 _0882_
*4282 _0883_
*4283 _0884_
*4284 _0885_
*4285 _0886_
*4286 _0887_
*4287 _0888_
*4288 _0889_
*4289 _0890_
*4290 _0891_
*4291 _0892_
*4292 _0893_
*4293 _0894_
*4294 _0895_
*4295 _0896_
*4296 _0897_
*4297 _0898_
*4298 _0899_
*4299 _0900_
*4300 _0901_
*4301 _0902_
*4302 _0903_
*4303 _0904_
*4304 _0905_
*4305 _0906_
*4306 _0907_
*4307 _0908_
*4308 _0909_
*4309 _0910_
*4310 _0911_
*4311 _0912_
*4312 _0913_
*4313 _0914_
*4314 _0915_
*4315 _0916_
*4316 _0917_
*4317 _0918_
*4318 _0919_
*4319 _0920_
*4320 _0921_
*4321 _0922_
*4322 _0923_
*4323 _0924_
*4324 _0925_
*4325 _0926_
*4326 _0927_
*4327 _0928_
*4328 _0929_
*4329 _0930_
*4330 _0931_
*4331 _0932_
*4332 _0933_
*4333 _0934_
*4334 _0935_
*4335 _0936_
*4336 _0937_
*4337 _0938_
*4338 _0939_
*4339 _0940_
*4340 _0941_
*4341 _0942_
*4342 _0943_
*4343 _0944_
*4344 _0945_
*4345 _0946_
*4346 _0947_
*4347 _0948_
*4348 _0949_
*4349 _0950_
*4350 _0951_
*4351 _0952_
*4352 _0953_
*4353 _0954_
*4354 _0955_
*4355 _0956_
*4356 _0957_
*4357 _0958_
*4358 _0959_
*4359 _0960_
*4360 _0961_
*4361 _0962_
*4362 _0963_
*4363 _0964_
*4364 _0965_
*4365 _0966_
*4366 _0967_
*4367 _0968_
*4368 _0969_
*4369 _0970_
*4370 _0971_
*4371 _0972_
*4372 _0973_
*4373 _0974_
*4374 _0975_
*4375 _0976_
*4376 _0977_
*4377 _0978_
*4378 _0979_
*4379 _0980_
*4380 _0981_
*4381 _0982_
*4382 _0983_
*4383 _0984_
*4384 _0985_
*4385 _0986_
*4386 _0987_
*4387 _0988_
*4388 _0989_
*4389 _0990_
*4390 _0991_
*4391 _0992_
*4392 _0993_
*4393 _0994_
*4394 _0995_
*4395 _0996_
*4396 _0997_
*4397 _0998_
*4398 _0999_
*4399 _1000_
*4400 _1001_
*4401 _1002_
*4402 _1003_
*4403 _1004_
*4404 _1005_
*4405 _1006_
*4406 _1007_
*4407 _1008_
*4408 _1009_
*4409 _1010_
*4410 _1011_
*4411 _1012_
*4412 _1013_
*4413 _1014_
*4414 _1015_
*4415 _1016_
*4416 _1017_
*4417 _1018_
*4418 _1019_
*4419 _1020_
*4420 _1021_
*4421 _1022_
*4422 _1023_
*4423 _1024_
*4424 _1025_
*4425 _1026_
*4426 _1027_
*4427 _1028_
*4428 _1029_
*4429 _1030_
*4430 _1031_
*4431 _1032_
*4432 _1033_
*4433 _1034_
*4434 _1035_
*4435 _1036_
*4436 _1037_
*4437 _1038_
*4438 _1039_
*4439 _1040_
*4440 _1041_
*4441 _1042_
*4442 _1043_
*4443 _1044_
*4444 _1045_
*4445 _1046_
*4446 _1047_
*4447 _1048_
*4448 _1049_
*4449 _1050_
*4450 _1051_
*4451 _1052_
*4452 _1053_
*4453 _1054_
*4454 _1055_
*4455 _1055__87
*4456 _1056_
*4457 _1057_
*4458 _1058_
*4459 _1059_
*4460 _1060_
*4461 _1061_
*4462 _1062_
*4463 _1063_
*4464 _1064_
*4465 _1065_
*4466 _1066_
*4467 _1067_
*4468 _1068_
*4469 _1069_
*4470 _1070_
*4471 _1071_
*4472 _1072_
*4473 _1073_
*4474 _1074_
*4475 _1075_
*4476 _1076_
*4477 _1077_
*4478 _1078_
*4479 _1079_
*4480 _1080_
*4481 _1081_
*4482 _1082_
*4483 _1083_
*4484 _1084_
*4485 _1085_
*4486 _1086_
*4487 _1087_
*4488 _1088_
*4489 _1089_
*4490 _1090_
*4491 _1091_
*4492 _1092_
*4493 _1093_
*4494 _1094_
*4495 _1095_
*4496 _1096_
*4497 _1097_
*4498 _1098_
*4499 _1099_
*4500 _1100_
*4501 _1101_
*4502 _1102_
*4503 _1103_
*4504 _1104_
*4505 _1105_
*4506 _1106_
*4507 _1107_
*4508 _1108_
*4509 _1109_
*4510 _1110_
*4511 _1111_
*4512 _1112_
*4513 _1113_
*4514 _1114_
*4515 _1115_
*4516 _1116_
*4517 _1117_
*4518 _1118_
*4519 _1119_
*4520 _1120_
*4521 _1121_
*4522 _1122_
*4523 _1123_
*4524 _1124_
*4525 _1125_
*4526 _1126_
*4527 _1127_
*4528 _1128_
*4529 _1129_
*4530 _1130_
*4531 _1131_
*4532 _1132_
*4533 _1133_
*4534 _1134_
*4535 _1135_
*4536 _1136_
*4537 _1137_
*4538 _1138_
*4539 _1139_
*4540 _1140_
*4541 _1141_
*4542 _1142_
*4543 _1143_
*4544 _1144_
*4545 _1145_
*4546 _1146_
*4547 _1147_
*4548 _1148_
*4549 _1149_
*4550 _1150_
*4551 _1151_
*4552 _1152_
*4553 _1153_
*4554 _1154_
*4555 _1155_
*4556 _1156_
*4557 _1157_
*4558 _1158_
*4559 _1159_
*4560 _1160_
*4561 _1161_
*4562 _1162_
*4563 _1163_
*4564 _1164_
*4565 _1165_
*4566 _1166_
*4567 _1167_
*4568 _1168_
*4569 _1169_
*4570 _1170_
*4571 _1171_
*4572 _1172_
*4573 _1173_
*4574 _1174_
*4575 _1175_
*4576 _1176_
*4577 _1177_
*4578 _1178_
*4579 _1179_
*4580 _1180_
*4581 _1181_
*4582 _1182_
*4583 _1183_
*4584 _1184_
*4585 _1185_
*4586 _1186_
*4587 _1187_
*4588 _1188_
*4589 _1189_
*4590 _1190_
*4591 _1191_
*4592 _1192_
*4593 _1193_
*4594 _1194_
*4595 _1195_
*4596 _1196_
*4597 _1201_
*4598 _1202_
*4599 _1203_
*4600 _1204_
*4601 _1205_
*4602 clkbuf_0_clk
*4603 clkbuf_4_0_0_clk
*4604 clkbuf_4_10_0_clk
*4605 clkbuf_4_11_0_clk
*4606 clkbuf_4_12_0_clk
*4607 clkbuf_4_13_0_clk
*4608 clkbuf_4_14_0_clk
*4609 clkbuf_4_15_0_clk
*4610 clkbuf_4_1_0_clk
*4611 clkbuf_4_2_0_clk
*4612 clkbuf_4_3_0_clk
*4613 clkbuf_4_4_0_clk
*4614 clkbuf_4_5_0_clk
*4615 clkbuf_4_6_0_clk
*4616 clkbuf_4_7_0_clk
*4617 clkbuf_4_8_0_clk
*4618 clkbuf_4_9_0_clk
*4619 clkbuf_5_0__f_clk
*4620 clkbuf_5_10__f_clk
*4621 clkbuf_5_11__f_clk
*4622 clkbuf_5_12__f_clk
*4623 clkbuf_5_13__f_clk
*4624 clkbuf_5_14__f_clk
*4625 clkbuf_5_15__f_clk
*4626 clkbuf_5_16__f_clk
*4627 clkbuf_5_17__f_clk
*4628 clkbuf_5_18__f_clk
*4629 clkbuf_5_19__f_clk
*4630 clkbuf_5_1__f_clk
*4631 clkbuf_5_20__f_clk
*4632 clkbuf_5_21__f_clk
*4633 clkbuf_5_22__f_clk
*4634 clkbuf_5_23__f_clk
*4635 clkbuf_5_24__f_clk
*4636 clkbuf_5_25__f_clk
*4637 clkbuf_5_26__f_clk
*4638 clkbuf_5_27__f_clk
*4639 clkbuf_5_28__f_clk
*4640 clkbuf_5_29__f_clk
*4641 clkbuf_5_2__f_clk
*4642 clkbuf_5_30__f_clk
*4643 clkbuf_5_31__f_clk
*4644 clkbuf_5_3__f_clk
*4645 clkbuf_5_4__f_clk
*4646 clkbuf_5_5__f_clk
*4647 clkbuf_5_6__f_clk
*4648 clkbuf_5_7__f_clk
*4649 clkbuf_5_8__f_clk
*4650 clkbuf_5_9__f_clk
*4651 clkload0
*4652 clkload1
*4653 clkload2
*4654 clkload3
*4655 clkload4
*4656 clkload5
*4657 clkload6
*4658 fanout10
*4659 fanout11
*4660 fanout12
*4661 fanout13
*4662 fanout14
*4663 fanout15
*4664 fanout16
*4665 fanout17
*4666 fanout18
*4667 fanout19
*4668 fanout20
*4669 fanout21
*4670 fanout22
*4671 fanout23
*4672 fanout24
*4673 fanout25
*4674 fanout26
*4675 fanout27
*4676 fanout28
*4677 fanout29
*4678 fanout30
*4679 fanout31
*4680 fanout32
*4681 fanout33
*4682 fanout34
*4683 fanout35
*4684 fanout36
*4685 fanout37
*4686 fanout38
*4687 fanout39
*4688 fanout40
*4689 fanout41
*4690 fanout42
*4691 fanout43
*4692 fanout44
*4693 fanout45
*4694 fanout46
*4695 fanout47
*4696 fanout48
*4697 fanout49
*4698 fanout50
*4699 fanout51
*4700 fanout52
*4701 fanout53
*4702 fanout54
*4703 fanout55
*4704 fanout56
*4705 fanout57
*4706 fanout58
*4707 fanout59
*4708 fanout60
*4709 fanout61
*4710 fanout62
*4711 fanout63
*4712 fanout64
*4713 fanout65
*4714 fanout66
*4715 fanout67
*4716 fanout68
*4717 fanout69
*4718 fanout70
*4719 fanout71
*4720 fanout72
*4721 fanout73
*4722 fanout74
*4723 fanout75
*4724 fanout76
*4725 fanout77
*4726 fanout78
*4727 fanout79
*4728 fanout8
*4729 fanout80
*4730 fanout81
*4731 fanout82
*4732 fanout83
*4733 fanout84
*4734 fanout9
*4735 hold100
*4736 hold101
*4737 hold102
*4738 hold103
*4739 hold104
*4740 hold105
*4741 hold106
*4742 hold107
*4743 hold108
*4744 hold109
*4745 hold110
*4746 hold111
*4747 hold112
*4748 hold113
*4749 hold114
*4750 hold115
*4751 hold116
*4752 hold117
*4753 hold118
*4754 hold119
*4755 hold120
*4756 hold121
*4757 hold122
*4758 hold123
*4759 hold124
*4760 hold125
*4761 hold126
*4762 hold127
*4763 hold128
*4764 hold129
*4765 hold130
*4766 hold131
*4767 hold132
*4768 hold133
*4769 hold134
*4770 hold135
*4771 hold136
*4772 hold137
*4773 hold138
*4774 hold139
*4775 hold140
*4776 hold141
*4777 hold142
*4778 hold143
*4779 hold144
*4780 hold145
*4781 hold146
*4782 hold147
*4783 hold148
*4784 hold149
*4785 hold150
*4786 hold151
*4787 hold152
*4788 hold153
*4789 hold154
*4790 hold155
*4791 hold156
*4792 hold157
*4793 hold158
*4794 hold159
*4795 hold160
*4796 hold161
*4797 hold162
*4798 hold163
*4799 hold164
*4800 hold165
*4801 hold166
*4802 hold167
*4803 hold168
*4804 hold169
*4805 hold170
*4806 hold171
*4807 hold172
*4808 hold173
*4809 hold174
*4810 hold175
*4811 hold176
*4812 hold177
*4813 hold178
*4814 hold179
*4815 hold180
*4816 hold181
*4817 hold182
*4818 hold183
*4819 hold184
*4820 hold185
*4821 hold186
*4822 hold187
*4823 hold188
*4824 hold189
*4825 hold190
*4826 hold191
*4827 hold192
*4828 hold193
*4829 hold194
*4830 hold195
*4831 hold196
*4832 hold197
*4833 hold198
*4834 hold199
*4835 hold200
*4836 hold201
*4837 hold202
*4838 hold203
*4839 hold88
*4840 hold89
*4841 hold90
*4842 hold91
*4843 hold92
*4844 hold93
*4845 hold94
*4846 hold95
*4847 hold96
*4848 hold97
*4849 hold98
*4850 hold99
*4851 input1
*4852 output2
*4853 output3
*4854 output4
*4855 output5
*4856 output6
*4857 output7
*4858 riscv_soc_top
*4859 riscv_soc_top_85
*4860 riscv_soc_top_86

*PORTS
clk I
led[0] O
led[1] O
led[2] O
led[3] O
led[4] O
led[5] O
led[6] O
led[7] O
rst_n I
uart_rx I
uart_tx O

*D_NET *3 0.0158615
*CONN
*P clk I
*I *4602:A I *D sky130_fd_sc_hd__clkbuf_16
*CAP
1 clk 0.0059321
2 *4602:A 0
3 *3:22 0.001203
4 *3:14 0.0071351
5 *3:14 *3862:B 8.97282e-06
6 *3:14 *3918:A 5.02533e-05
7 *3:14 *3919:B2 0.0001315
8 *3:14 *3919:C1 1.33911e-05
9 *3:14 *3942:C 4.06694e-06
10 *3:14 *4165:A1 0
11 *3:14 *4166:A1 0
12 *3:14 *4255:A2 0
13 *3:14 *4256:B 0
14 *3:14 *4353:A3 0.000527046
15 *3:14 *4360:B1 0.000229913
16 *3:14 *106:10 6.84294e-05
17 *3:14 *449:246 0
18 *3:14 *459:12 0.000271978
19 *3:14 *747:25 0.000126118
20 *3:14 *747:40 0
21 *3:14 *748:23 1.08301e-05
22 *3:22 *3917:B1 9.23852e-05
23 *3:22 *3934:B2 0
24 *3:22 *751:10 5.64107e-05
*RES
1 clk *3:14 46.9647 
2 *3:14 *3:22 26.75 
3 *3:22 *4602:A 13.8 
*END

*D_NET *4 0.0016099
*CONN
*P led[0] O
*I *4852:X O *D sky130_fd_sc_hd__clkdlybuf4s25_1
*CAP
1 led[0] 0.000790493
2 *4852:X 0.000790493
3 led[0] *4852:A 2.89114e-05
*RES
1 *4852:X led[0] 27.3179 
*END

*D_NET *5 0.00165468
*CONN
*P led[1] O
*I *4853:X O *D sky130_fd_sc_hd__clkdlybuf4s25_1
*CAP
1 led[1] 0.000813133
2 *4853:X 0.000813133
3 led[1] *4853:A 2.84109e-05
*RES
1 *4853:X led[1] 27.3179 
*END

*D_NET *6 0.00159885
*CONN
*P led[2] O
*I *4854:X O *D sky130_fd_sc_hd__clkdlybuf4s25_1
*CAP
1 led[2] 0.000799423
2 *4854:X 0.000799423
*RES
1 *4854:X led[2] 27.3179 
*END

*D_NET *7 0.00159885
*CONN
*P led[3] O
*I *4855:X O *D sky130_fd_sc_hd__clkdlybuf4s25_1
*CAP
1 led[3] 0.000799423
2 *4855:X 0.000799423
*RES
1 *4855:X led[3] 27.3179 
*END

*D_NET *8 0.00175868
*CONN
*P led[4] O
*I *4856:X O *D sky130_fd_sc_hd__clkdlybuf4s25_1
*CAP
1 led[4] 0.00087934
2 *4856:X 0.00087934
*RES
1 *4856:X led[4] 28.9205 
*END

*D_NET *9 0.00133542
*CONN
*P led[5] O
*I *4858:LO O *D sky130_fd_sc_hd__conb_1
*CAP
1 led[5] 0.000667711
2 *4858:LO 0.000667711
*RES
1 *4858:LO led[5] 26.6527 
*END

*D_NET *10 0.00129165
*CONN
*P led[6] O
*I *4859:LO O *D sky130_fd_sc_hd__conb_1
*CAP
1 led[6] 0.000645827
2 *4859:LO 0.000645827
*RES
1 *4859:LO led[6] 26.6527 
*END

*D_NET *11 0.00129165
*CONN
*P led[7] O
*I *4860:LO O *D sky130_fd_sc_hd__conb_1
*CAP
1 led[7] 0.000645827
2 *4860:LO 0.000645827
*RES
1 *4860:LO led[7] 26.6527 
*END

*D_NET *12 0.000952613
*CONN
*P rst_n I
*I *4851:A I *D sky130_fd_sc_hd__clkdlybuf4s25_1
*CAP
1 rst_n 0.000476306
2 *4851:A 0.000476306
*RES
1 rst_n *4851:A 24.5554 
*END

*D_NET *14 0.00083676
*CONN
*P uart_tx O
*I *4857:X O *D sky130_fd_sc_hd__clkdlybuf4s25_1
*CAP
1 uart_tx 0.00041838
2 *4857:X 0.00041838
3 uart_tx *4430:RESET_B 0
*RES
1 *4857:X uart_tx 19.8095 
*END

*D_NET *15 0.000280907
*CONN
*I *4409:D I *D sky130_fd_sc_hd__dfrtp_2
*I *3870:X O *D sky130_fd_sc_hd__o211a_2
*CAP
1 *4409:D 8.31707e-05
2 *3870:X 8.31707e-05
3 *4409:D *3849:A2 3.39935e-05
4 *4409:D *3870:A2 5.52302e-05
5 *4409:D *4409:CLK 1.92905e-05
6 *4409:D *107:111 6.05161e-06
*RES
1 *3870:X *4409:D 20.3679 
*END

*D_NET *16 0.000217489
*CONN
*I *4775:A I *D sky130_fd_sc_hd__dlygate4sd3_1
*I *3868:X O *D sky130_fd_sc_hd__o21a_2
*CAP
1 *4775:A 0.000108745
2 *3868:X 0.000108745
*RES
1 *3868:X *4775:A 29.2429 
*END

*D_NET *17 0.00556062
*CONN
*I *4415:D I *D sky130_fd_sc_hd__dfrtp_2
*I *3921:B1 I *D sky130_fd_sc_hd__a31oi_2
*I *3867:X O *D sky130_fd_sc_hd__and3_2
*CAP
1 *4415:D 4.26984e-05
2 *3921:B1 0.000446368
3 *3867:X 0.000697695
4 *17:10 0.00118676
5 *3921:B1 *3920:A 5.83304e-05
6 *3921:B1 *3921:A1 0.000123288
7 *3921:B1 *3921:A2 1.81805e-05
8 *3921:B1 *3925:A3 0.000137983
9 *3921:B1 *4783:A 0.000125724
10 *3921:B1 *154:6 6.05161e-06
11 *3921:B1 *664:27 0.000392283
12 *3921:B1 *664:33 0.000312029
13 *3921:B1 *703:90 0.000220455
14 *3921:B1 *713:12 0.000410641
15 *3921:B1 *741:14 0.000226021
16 *17:10 *3867:C 0.00091485
17 *17:10 *3938:B2 1.98839e-05
18 *17:10 *664:27 0.000142082
19 *17:10 *713:12 7.92879e-05
*RES
1 *3867:X *17:10 24.9071 
2 *17:10 *3921:B1 29.55 
3 *17:10 *4415:D 14.3357 
*END

*D_NET *18 0.00191721
*CONN
*I *4401:D I *D sky130_fd_sc_hd__dfrtp_2
*I *3863:X O *D sky130_fd_sc_hd__o21ba_2
*CAP
1 *4401:D 0.00070372
2 *3863:X 0.00070372
3 *4401:D *4531:RESET_B 0
4 *4401:D *4655:A 1.76135e-05
5 *4401:D *449:222 0.000119718
6 *4401:D *449:226 3.97657e-05
7 *4401:D *449:296 3.1521e-05
8 *4401:D *475:8 0
9 *4401:D *475:65 0
10 *4401:D *519:14 6.87574e-05
11 *4401:D *519:20 0.000232399
*RES
1 *3863:X *4401:D 39.2964 
*END

*D_NET *19 0.0013293
*CONN
*I *4818:A I *D sky130_fd_sc_hd__dlygate4sd3_1
*I *3860:X O *D sky130_fd_sc_hd__o21a_2
*CAP
1 *4818:A 0.000321493
2 *3860:X 0.000321493
3 *4818:A *3868:A1 0.00012249
4 *4818:A *3948:A_N 4.25176e-05
5 *4818:A *3948:B 0.000137561
6 *4818:A *3950:A1 0.000316986
7 *4818:A *520:23 1.34548e-05
8 *4818:A *984:36 5.33005e-05
*RES
1 *3860:X *4818:A 33.6 
*END

*D_NET *20 0.00205231
*CONN
*I *3925:B1 I *D sky130_fd_sc_hd__a31oi_2
*I *4407:D I *D sky130_fd_sc_hd__dfrtp_2
*I *3859:X O *D sky130_fd_sc_hd__and3_2
*CAP
1 *3925:B1 0.000463636
2 *4407:D 0.000128615
3 *3859:X 7.59536e-05
4 *20:6 0.000668205
5 *3925:B1 *3925:A2 0
6 *3925:B1 *3938:A2 3.56976e-05
7 *3925:B1 *4410:RESET_B 0.000130274
8 *3925:B1 *4712:A 0.000392276
9 *3925:B1 *449:13 0
10 *3925:B1 *449:222 0.000103266
11 *4407:D *482:27 5.06983e-05
12 *20:6 *482:27 3.69047e-06
*RES
1 *3859:X *20:6 10.2464 
2 *20:6 *4407:D 11.0857 
3 *20:6 *3925:B1 29.6571 
*END

*D_NET *21 0.00152647
*CONN
*I *4414:D I *D sky130_fd_sc_hd__dfrtp_2
*I *3945:X O *D sky130_fd_sc_hd__a32o_2
*CAP
1 *4414:D 0.000488946
2 *3945:X 0.000488946
3 *4414:D *3923:A2 0
4 *4414:D *3945:A1 5.44049e-05
5 *4414:D *3945:A2 0.000428613
6 *4414:D *3945:B1 6.55592e-05
7 *4414:D *449:222 0
*RES
1 *3945:X *4414:D 36.0286 
*END

*D_NET *22 0.00174868
*CONN
*I *4408:D I *D sky130_fd_sc_hd__dfrtp_2
*I *3952:X O *D sky130_fd_sc_hd__a21o_2
*CAP
1 *4408:D 0.000338875
2 *3952:X 0.000338875
3 *4408:D *3853:A 0.000105957
4 *4408:D *3868:B1 0.00059527
5 *4408:D *3952:A1 1.39841e-05
6 *4408:D *3952:A2 2.89016e-05
7 *4408:D *3952:B1 9.99853e-05
8 *4408:D *4402:CLK 9.97242e-06
9 *4408:D *100:14 6.85279e-05
10 *4408:D *101:8 0.000105638
11 *4408:D *483:21 4.26914e-05
*RES
1 *3952:X *4408:D 37.2964 
*END

*D_NET *23 0.000713412
*CONN
*I *4410:D I *D sky130_fd_sc_hd__dfrtp_2
*I *3950:X O *D sky130_fd_sc_hd__a32o_2
*CAP
1 *4410:D 0.000178515
2 *3950:X 0.000178515
3 *4410:D *3925:A2 0.000125731
4 *4410:D *3941:A 0.000166416
5 *4410:D *4410:RESET_B 6.42338e-05
*RES
1 *3950:X *4410:D 32.2429 
*END

*D_NET *24 0.00216818
*CONN
*I *4411:D I *D sky130_fd_sc_hd__dfrtp_2
*I *3949:X O *D sky130_fd_sc_hd__a21o_2
*CAP
1 *4411:D 0.000522053
2 *3949:X 0.000522053
3 *4411:D *4363:A2 1.92384e-05
4 *4411:D *4365:A1 1.70057e-05
5 *4411:D *4365:B2 0.000450939
6 *4411:D *4411:CLK 9.55226e-05
7 *4411:D *4427:CLK 0.000171355
8 *4411:D *449:39 3.4689e-05
9 *4411:D *482:69 0.000331429
10 *4411:D *541:10 3.89621e-06
*RES
1 *3949:X *4411:D 39.408 
*END

*D_NET *25 0.000396902
*CONN
*I *4814:A I *D sky130_fd_sc_hd__dlygate4sd3_1
*I *3947:X O *D sky130_fd_sc_hd__a32o_2
*CAP
1 *4814:A 0.000124194
2 *3947:X 0.000124194
3 *4814:A *3947:B2 0.000148514
4 *4814:A *89:23 0
*RES
1 *3947:X *4814:A 30.0821 
*END

*D_NET *26 0.0014186
*CONN
*I *4406:D I *D sky130_fd_sc_hd__dfrtp_2
*I *3934:X O *D sky130_fd_sc_hd__a32o_2
*CAP
1 *4406:D 0.000223635
2 *3934:X 0.000223635
3 *4406:D *3934:B1 5.38886e-05
4 *4406:D *3934:B2 0.000511901
5 *4406:D *3945:B1 0.000128154
6 *4406:D *3945:B2 0.00012798
7 *4406:D *167:35 9.60771e-05
8 *4406:D *518:38 5.33334e-05
*RES
1 *3934:X *4406:D 35.8679 
*END

*D_NET *27 0.000834964
*CONN
*I *4752:A I *D sky130_fd_sc_hd__dlygate4sd3_1
*I *3941:Y O *D sky130_fd_sc_hd__nand2_2
*CAP
1 *4752:A 0.000211908
2 *3941:Y 0.000211908
3 *4752:A *3855:A 0
4 *4752:A *4400:CLK 6.65302e-05
5 *4752:A *4404:CLK 3.18676e-05
6 *4752:A *100:14 0
7 *4752:A *529:23 0.00031275
*RES
1 *3941:Y *4752:A 32.2071 
*END

*D_NET *28 0.00100582
*CONN
*I *4402:D I *D sky130_fd_sc_hd__dfrtp_2
*I *3939:X O *D sky130_fd_sc_hd__a32o_2
*CAP
1 *4402:D 0.000268035
2 *3939:X 0.000268035
3 *4402:D *3939:A2 7.6644e-05
4 *4402:D *3939:A3 0.000179142
5 *4402:D *3941:A 0.000213965
*RES
1 *3939:X *4402:D 32.4393 
*END

*D_NET *29 0.000543685
*CONN
*I *4403:D I *D sky130_fd_sc_hd__dfrtp_2
*I *3938:X O *D sky130_fd_sc_hd__a22o_2
*CAP
1 *4403:D 0.000142015
2 *3938:X 0.000142015
3 *4403:D *3867:B 5.52302e-05
4 *4403:D *3867:C 5.06983e-05
5 *4403:D *4407:RESET_B 1.02504e-05
6 *4403:D *449:13 6.53781e-05
7 *4403:D *482:10 7.80968e-05
*RES
1 *3938:X *4403:D 31.5107 
*END

*D_NET *30 0.0015542
*CONN
*I *4404:D I *D sky130_fd_sc_hd__dfrtp_2
*I *3936:X O *D sky130_fd_sc_hd__a31o_2
*CAP
1 *4404:D 0.000337214
2 *3936:X 0.000337214
3 *4404:D *3873:A0 0
4 *4404:D *3935:A2 0
5 *4404:D *3936:A3 1.39841e-05
6 *4404:D *3941:B 0.000361823
7 *4404:D *529:23 1.69115e-05
8 *4404:D *529:57 0.000149415
9 *4404:D *744:34 0.000337637
*RES
1 *3936:X *4404:D 35.7607 
*END

*D_NET *31 0.00211183
*CONN
*I *4451:D I *D sky130_fd_sc_hd__dfstp_2
*I *3929:X O *D sky130_fd_sc_hd__a311o_2
*CAP
1 *4451:D 0.000594773
2 *3929:X 0.000594773
3 *4451:D *3922:A 1.83053e-05
4 *4451:D *3922:B 0.00021443
5 *4451:D *3929:A1 0
6 *4451:D *3929:B1 0.000326846
7 *4451:D *154:38 0.000141131
8 *4451:D *159:14 0.000143375
9 *4451:D *476:70 7.8195e-05
*RES
1 *3929:X *4451:D 38.2071 
*END

*D_NET *32 0.00119793
*CONN
*I *4452:D I *D sky130_fd_sc_hd__dfrtp_2
*I *3926:X O *D sky130_fd_sc_hd__a22o_2
*CAP
1 *4452:D 0.000163461
2 *3926:X 0.000163461
3 *4452:D *3923:A1 0.000268521
4 *4452:D *3926:A2 5.7616e-05
5 *4452:D *4452:CLK 0.000390724
6 *4452:D *4713:A 5.71472e-05
7 *4452:D *154:16 4.13477e-05
8 *4452:D *743:10 9.99644e-06
9 *4452:D *745:27 4.56587e-05
*RES
1 *3926:X *4452:D 34.0286 
*END

*D_NET *33 0.00177113
*CONN
*I *4453:D I *D sky130_fd_sc_hd__dfrtp_2
*I *3923:X O *D sky130_fd_sc_hd__a22o_2
*CAP
1 *4453:D 0.000515037
2 *3923:X 0.000515037
3 *4453:D *3923:A1 3.70397e-05
4 *4453:D *3923:A2 7.54606e-05
5 *4453:D *3923:B2 0.000312253
6 *4453:D *3926:B2 0.000141144
7 *4453:D *3927:A_N 6.50905e-05
8 *4453:D *4424:RESET_B 7.00768e-05
9 *4453:D *4793:A 0
10 *4453:D *154:16 1.10868e-05
11 *4453:D *713:37 2.89016e-05
*RES
1 *3923:X *4453:D 38.6714 
*END

*D_NET *34 0.00120671
*CONN
*I *4448:D I *D sky130_fd_sc_hd__dfstp_2
*I *3919:X O *D sky130_fd_sc_hd__a221o_2
*CAP
1 *4448:D 0.000389628
2 *3919:X 0.000389628
3 *4448:D *3918:B 7.12595e-05
4 *4448:D *682:14 0.000125717
5 *4448:D *749:42 0.000230482
*RES
1 *3919:X *4448:D 33.475 
*END

*D_NET *35 0.000854953
*CONN
*I *4444:D I *D sky130_fd_sc_hd__dfstp_2
*I *3891:X O *D sky130_fd_sc_hd__a21o_2
*CAP
1 *4444:D 0.000189516
2 *3891:X 0.000189516
3 *4444:D *3891:B1 0.000124521
4 *4444:D *4073:A 0.000149911
5 *4444:D *4398:B_N 5.33005e-05
6 *4444:D *126:10 0.000148189
*RES
1 *3891:X *4444:D 31.3143 
*END

*D_NET *36 0.000303549
*CONN
*I *4445:D I *D sky130_fd_sc_hd__dfrtp_2
*I *3889:X O *D sky130_fd_sc_hd__a2bb2o_2
*CAP
1 *4445:D 0.000112968
2 *3889:X 0.000112968
3 *4445:D *3889:A1_N 3.18676e-05
4 *4445:D *4445:CLK 0
5 *4445:D *125:10 4.57445e-05
*RES
1 *3889:X *4445:D 29.7786 
*END

*D_NET *37 0.000496321
*CONN
*I *4446:D I *D sky130_fd_sc_hd__dfrtp_2
*I *3888:X O *D sky130_fd_sc_hd__a32o_2
*CAP
1 *4446:D 6.44553e-05
2 *3888:X 6.44553e-05
3 *4446:D *3887:A2 0.000173021
4 *4446:D *4724:A 0.000194389
*RES
1 *3888:X *4446:D 30.1536 
*END

*D_NET *38 0.000864782
*CONN
*I *4447:D I *D sky130_fd_sc_hd__dfrtp_2
*I *3887:X O *D sky130_fd_sc_hd__a22o_2
*CAP
1 *4447:D 0.00028588
2 *3887:X 0.00028588
3 *4447:D *3887:A2 1.77958e-05
4 *4447:D *3887:B1 0.000183157
5 *4447:D *4724:A 1.67073e-05
6 *4447:D *449:192 7.5362e-05
*RES
1 *3887:X *4447:D 33.8321 
*END

*D_NET *39 0.00181852
*CONN
*I *4467:D I *D sky130_fd_sc_hd__dfrtp_2
*I *4048:X O *D sky130_fd_sc_hd__and2_2
*CAP
1 *4467:D 0.000549567
2 *4048:X 0.000549567
3 *4467:D *4048:A 0
4 *4467:D *4054:A1 9.84729e-05
5 *4467:D *4054:B1 0.000315317
6 *4467:D *4467:CLK 7.86899e-05
7 *4467:D *4468:CLK 4.96177e-05
8 *4467:D *4702:A 0.000177288
9 *4467:D *642:28 0
10 *4467:D *714:20 0
*RES
1 *4048:X *4467:D 40.0464 
*END

*D_NET *40 0.000621106
*CONN
*I *4468:D I *D sky130_fd_sc_hd__dfrtp_2
*I *4049:X O *D sky130_fd_sc_hd__and2_2
*CAP
1 *4468:D 0.00021309
2 *4049:X 0.00021309
3 *4468:D *4054:B1 0.000186668
4 *4468:D *642:28 0
5 *4468:D *714:61 8.25843e-06
*RES
1 *4049:X *4468:D 31.0107 
*END

*D_NET *41 0.000597773
*CONN
*I *4465:D I *D sky130_fd_sc_hd__dfrtp_2
*I *4050:X O *D sky130_fd_sc_hd__o21a_2
*CAP
1 *4465:D 0.00023481
2 *4050:X 0.00023481
3 *4465:D *4051:B1 0.000128154
4 *4465:D *4466:D 0
*RES
1 *4050:X *4465:D 31.8321 
*END

*D_NET *42 0.00122964
*CONN
*I *4466:D I *D sky130_fd_sc_hd__dfrtp_2
*I *4051:X O *D sky130_fd_sc_hd__o21a_2
*CAP
1 *4466:D 0.000397018
2 *4051:X 0.000397018
3 *4466:D *4051:B1 0
4 *4466:D *4457:CLK 0
5 *4466:D *4465:CLK 4.57538e-05
6 *4466:D *259:50 0.00012401
7 *4466:D *666:81 0.00012401
8 *4466:D *714:61 0.00014183
9 *4465:D *4466:D 0
*RES
1 *4051:X *4466:D 35.1536 
*END

*D_NET *43 0.000692638
*CONN
*I *4463:D I *D sky130_fd_sc_hd__dfrtp_2
*I *4053:X O *D sky130_fd_sc_hd__o21a_2
*CAP
1 *4463:D 0.00033043
2 *4053:X 0.00033043
3 *4463:D *714:20 3.17784e-05
*RES
1 *4053:X *4463:D 32.7607 
*END

*D_NET *44 0.001284
*CONN
*I *4464:D I *D sky130_fd_sc_hd__dfrtp_2
*I *4054:X O *D sky130_fd_sc_hd__o21a_2
*CAP
1 *4464:D 0.000357069
2 *4054:X 0.000357069
3 *4464:D *4054:A1 0.000306944
4 *4464:D *4467:CLK 9.84673e-05
5 *4464:D *142:20 7.95286e-05
6 *4464:D *261:41 8.49275e-05
*RES
1 *4054:X *4464:D 35.6536 
*END

*D_NET *45 0.00119985
*CONN
*I *4461:D I *D sky130_fd_sc_hd__dfrtp_2
*I *4058:X O *D sky130_fd_sc_hd__a31o_2
*CAP
1 *4461:D 0.000352929
2 *4058:X 0.000352929
3 *4461:D *4058:A2 4.79842e-05
4 *4461:D *4058:A3 2.89016e-05
5 *4461:D *4059:B1 8.49843e-05
6 *4461:D *4745:A 0.00030922
7 *4461:D *470:18 2.29031e-05
*RES
1 *4058:X *4461:D 35.1937 
*END

*D_NET *46 0.00131938
*CONN
*I *4745:A I *D sky130_fd_sc_hd__dlygate4sd3_1
*I *4059:Y O *D sky130_fd_sc_hd__a211oi_2
*CAP
1 *4745:A 0.000228513
2 *4059:Y 0.000228513
3 *4745:A *4059:B1 0.000499837
4 *4745:A *4623:A 5.33005e-05
5 *4461:D *4745:A 0.00030922
*RES
1 *4059:Y *4745:A 34.6357 
*END

*D_NET *47 0.00132583
*CONN
*I *4459:D I *D sky130_fd_sc_hd__dfrtp_2
*I *4061:X O *D sky130_fd_sc_hd__and2_2
*CAP
1 *4459:D 0.000332769
2 *4061:X 0.000332769
3 *4459:D *4459:RESET_B 7.33229e-06
4 *4459:D *4583:CLK 0.000308098
5 *4459:D *265:12 0.000156032
6 *4459:D *469:36 2.10974e-05
7 *4459:D *469:42 0.000167737
*RES
1 *4061:X *4459:D 35.5866 
*END

*D_NET *48 0.000643274
*CONN
*I *4460:D I *D sky130_fd_sc_hd__dfrtp_2
*I *4062:X O *D sky130_fd_sc_hd__and2_2
*CAP
1 *4460:D 0.000245374
2 *4062:X 0.000245374
3 *4460:D *4061:A 5.33433e-05
4 *4460:D *4583:CLK 9.91836e-05
5 *4460:D *4622:A 0
*RES
1 *4062:X *4460:D 32.3143 
*END

*D_NET *49 0.00131598
*CONN
*I *4457:D I *D sky130_fd_sc_hd__dfrtp_2
*I *4063:X O *D sky130_fd_sc_hd__o31a_2
*CAP
1 *4457:D 0.000302768
2 *4063:X 0.000302768
3 *4457:D *3901:C 3.54498e-05
4 *4457:D *4047:B 0.000150476
5 *4457:D *4051:B1 1.98839e-05
6 *4457:D *4063:A2 0.000370764
7 *4457:D *4848:A 3.29901e-05
8 *4457:D *666:64 5.57647e-05
9 *4457:D *666:81 4.51113e-05
*RES
1 *4063:X *4457:D 35.033 
*END

*D_NET *50 0.00175918
*CONN
*I *4458:D I *D sky130_fd_sc_hd__dfrtp_2
*I *4064:X O *D sky130_fd_sc_hd__o31a_2
*CAP
1 *4458:D 0.000335242
2 *4064:X 0.000335242
3 *4458:D *3901:B 0.000481218
4 *4458:D *3905:A1 1.10285e-05
5 *4458:D *4060:C 3.59795e-05
6 *4458:D *4064:A3 0.000135028
7 *4458:D *4738:A 0.000126416
8 *4458:D *259:21 0.000161621
9 *4458:D *259:38 9.10794e-05
10 *4458:D *668:31 4.63305e-05
*RES
1 *4064:X *4458:D 37.2429 
*END

*D_NET *51 0.000414365
*CONN
*I *4472:D I *D sky130_fd_sc_hd__dfrtp_2
*I *4066:X O *D sky130_fd_sc_hd__and2_2
*CAP
1 *4472:D 0.000148253
2 *4066:X 0.000148253
3 *4472:D *4067:A 5.03772e-05
4 *4472:D *714:20 6.74815e-05
*RES
1 *4066:X *4472:D 30.1893 
*END

*D_NET *52 0.000652762
*CONN
*I *4473:D I *D sky130_fd_sc_hd__dfrtp_2
*I *4067:X O *D sky130_fd_sc_hd__and2_2
*CAP
1 *4473:D 0.000326381
2 *4067:X 0.000326381
3 *4473:D *3988:A 0
4 *4473:D *4472:CLK 0
5 *4473:D *4811:A 0
*RES
1 *4067:X *4473:D 32.35 
*END

*D_NET *53 0.000910319
*CONN
*I *4474:D I *D sky130_fd_sc_hd__dfrtp_2
*I *4071:X O *D sky130_fd_sc_hd__a31o_2
*CAP
1 *4474:D 0.00031684
2 *4071:X 0.00031684
3 *4474:D *4071:A1 0.000103353
4 *4474:D *4475:CLK 0.000133456
5 *4474:D *4688:A 0
6 *4474:D *4693:A 3.56976e-05
7 *4474:D *4740:A 0
8 *4474:D *264:8 0
9 *4474:D *470:20 4.1331e-06
10 *4474:D *668:10 0
*RES
1 *4071:X *4474:D 34.9393 
*END

*D_NET *54 0.000404437
*CONN
*I *4475:D I *D sky130_fd_sc_hd__dfrtp_2
*I *4072:X O *D sky130_fd_sc_hd__o211a_2
*CAP
1 *4475:D 0.000115158
2 *4072:X 0.000115158
3 *4475:D *4071:B1 3.67257e-05
4 *4475:D *4688:A 8.16036e-05
5 *4475:D *267:8 5.57914e-05
*RES
1 *4072:X *4475:D 30.4929 
*END

*D_NET *55 0.000184364
*CONN
*I *4737:A I *D sky130_fd_sc_hd__dlygate4sd3_1
*I *4349:X O *D sky130_fd_sc_hd__o32a_2
*CAP
1 *4737:A 1.35522e-05
2 *4349:X 1.35522e-05
3 *4737:A *261:65 5.62995e-05
4 *4737:A *671:40 0.00010096
*RES
1 *4349:X *4737:A 19.5464 
*END

*D_NET *56 0.000621675
*CONN
*I *4417:D I *D sky130_fd_sc_hd__dfrtp_2
*I *4350:X O *D sky130_fd_sc_hd__o31a_2
*CAP
1 *4417:D 0.000308139
2 *4350:X 0.000308139
3 *4417:D *4354:A1 0
4 *4417:D *86:36 0
5 *4417:D *497:77 0
6 *4417:D *503:10 5.39629e-06
*RES
1 *4350:X *4417:D 31.6536 
*END

*D_NET *57 0.0012172
*CONN
*I *4418:D I *D sky130_fd_sc_hd__dfrtp_2
*I *4351:X O *D sky130_fd_sc_hd__o21a_2
*CAP
1 *4418:D 0.000449827
2 *4351:X 0.000449827
3 *4418:D *4355:A2 7.83659e-05
4 *4418:D *4644:A 0.000122748
5 *4418:D *107:47 7.83659e-05
6 *4418:D *491:6 3.80688e-05
*RES
1 *4351:X *4418:D 34.0196 
*END

*D_NET *58 0.00114568
*CONN
*I *4419:D I *D sky130_fd_sc_hd__dfrtp_2
*I *4352:X O *D sky130_fd_sc_hd__o21a_2
*CAP
1 *4419:D 0.000509983
2 *4352:X 0.000509983
3 *4419:D *4354:A3 0
4 *4419:D *4356:B1 0
5 *4419:D *4423:CLK 0
6 *4419:D *4423:D 0.000125717
7 *4419:D *4666:A 0
8 *4419:D *107:47 0
9 *4419:D *642:28 0
*RES
1 *4352:X *4419:D 36.6 
*END

*D_NET *59 0.000224162
*CONN
*I *4741:A I *D sky130_fd_sc_hd__dlygate4sd3_1
*I *4353:X O *D sky130_fd_sc_hd__o32a_2
*CAP
1 *4741:A 1.1121e-05
2 *4353:X 1.1121e-05
3 *4741:A *4353:A2 0.00010096
4 *4741:A *4353:A3 0.00010096
*RES
1 *4353:X *4741:A 19.5464 
*END

*D_NET *60 0.00103646
*CONN
*I *4421:D I *D sky130_fd_sc_hd__dfrtp_2
*I *4354:X O *D sky130_fd_sc_hd__o31a_2
*CAP
1 *4421:D 0.000338112
2 *4354:X 0.000338112
3 *4421:D *4421:CLK 9.25014e-06
4 *4421:D *642:28 3.28804e-05
5 *4421:D *683:84 0.000318101
*RES
1 *4354:X *4421:D 32.7607 
*END

*D_NET *61 0.00170821
*CONN
*I *4422:D I *D sky130_fd_sc_hd__dfrtp_2
*I *4355:X O *D sky130_fd_sc_hd__o21a_2
*CAP
1 *4422:D 0.000706642
2 *4355:X 0.000706642
3 *4422:D *4012:A 0.000188586
4 *4422:D *4012:B 4.1331e-06
5 *4422:D *4355:B1 0
6 *4422:D *449:266 0.000102207
7 *4422:D *676:20 0
*RES
1 *4355:X *4422:D 37.658 
*END

*D_NET *62 0.000670994
*CONN
*I *4423:D I *D sky130_fd_sc_hd__dfrtp_2
*I *4356:X O *D sky130_fd_sc_hd__o21a_2
*CAP
1 *4423:D 0.000241606
2 *4356:X 0.000241606
3 *4423:D *4666:A 0
4 *4423:D *4701:A 6.20656e-05
5 *4419:D *4423:D 0.000125717
*RES
1 *4356:X *4423:D 31.4214 
*END

*D_NET *63 0.000527133
*CONN
*I *4424:D I *D sky130_fd_sc_hd__dfrtp_2
*I *4358:X O *D sky130_fd_sc_hd__a22o_2
*CAP
1 *4424:D 0.000245713
2 *4358:X 0.000245713
3 *4424:D *4358:A1 0
4 *4424:D *4569:CLK 3.5707e-05
*RES
1 *4358:X *4424:D 31.042 
*END

*D_NET *64 0.00138287
*CONN
*I *4425:D I *D sky130_fd_sc_hd__dfrtp_2
*I *4360:X O *D sky130_fd_sc_hd__a22o_2
*CAP
1 *4425:D 0.000324708
2 *4360:X 0.000324708
3 *4425:D *3870:A1 0
4 *4425:D *3870:C1 7.50601e-05
5 *4425:D *4359:B 0.000247047
6 *4425:D *4471:D 0.000228627
7 *4425:D *495:33 0.000182726
*RES
1 *4360:X *4425:D 36.2429 
*END

*D_NET *65 0.000623433
*CONN
*I *4426:D I *D sky130_fd_sc_hd__dfrtp_2
*I *4363:X O *D sky130_fd_sc_hd__a221o_2
*CAP
1 *4426:D 0.000199008
2 *4363:X 0.000199008
3 *4426:D *4365:B1 8.8175e-05
4 *4426:D *482:69 9.96553e-05
5 *4426:D *742:12 3.75868e-05
*RES
1 *4363:X *4426:D 30.7071 
*END

*D_NET *66 0.000423324
*CONN
*I *4427:D I *D sky130_fd_sc_hd__dfrtp_2
*I *4365:X O *D sky130_fd_sc_hd__a221o_2
*CAP
1 *4427:D 0.000134335
2 *4365:X 0.000134335
3 *4427:D *4365:A2 1.24368e-05
4 *4427:D *4427:CLK 4.37451e-05
5 *4427:D *4427:RESET_B 9.84729e-05
*RES
1 *4365:X *4427:D 21.2071 
*END

*D_NET *67 0.00130925
*CONN
*I *4428:D I *D sky130_fd_sc_hd__dfrtp_2
*I *4366:X O *D sky130_fd_sc_hd__o21a_2
*CAP
1 *4428:D 0.000141235
2 *4366:X 0.000141235
3 *4428:D *4476:RESET_B 0.000177941
4 *4428:D *115:12 0.000508764
5 *4428:D *707:12 0.000340073
*RES
1 *4366:X *4428:D 34.1 
*END

*D_NET *68 0.000426067
*CONN
*I *4429:D I *D sky130_fd_sc_hd__dfrtp_2
*I *4367:X O *D sky130_fd_sc_hd__o21a_2
*CAP
1 *4429:D 0.000213033
2 *4367:X 0.000213033
3 *4429:D *4367:A2 0
*RES
1 *4367:X *4429:D 30.6 
*END

*D_NET *69 0.000278769
*CONN
*I *4430:D I *D sky130_fd_sc_hd__dfrtp_2
*I *4372:X O *D sky130_fd_sc_hd__a31o_2
*CAP
1 *4430:D 0.000121998
2 *4372:X 0.000121998
3 *4430:D *4372:B1 0
4 *4430:D *490:30 3.47737e-05
*RES
1 *4372:X *4430:D 29.475 
*END

*D_NET *70 0.0003134
*CONN
*I *4431:D I *D sky130_fd_sc_hd__dfrtp_2
*I *4374:X O *D sky130_fd_sc_hd__a31o_2
*CAP
1 *4431:D 8.34225e-05
2 *4374:X 8.34225e-05
3 *4431:D *4372:A3 5.33786e-05
4 *4431:D *490:39 3.79467e-05
5 *4431:D *651:86 5.52302e-05
*RES
1 *4374:X *4431:D 29.475 
*END

*D_NET *71 0.000797949
*CONN
*I *4432:D I *D sky130_fd_sc_hd__dfrtp_2
*I *4376:X O *D sky130_fd_sc_hd__a31o_2
*CAP
1 *4432:D 0.000338135
2 *4376:X 0.000338135
3 *4432:D *4376:A1 3.80953e-06
4 *4432:D *4376:A3 5.62995e-05
5 *4432:D *4376:B1 1.94142e-05
6 *4432:D *4432:CLK 4.21568e-05
*RES
1 *4376:X *4432:D 24.2429 
*END

*D_NET *72 0.000518122
*CONN
*I *4433:D I *D sky130_fd_sc_hd__dfrtp_2
*I *4378:X O *D sky130_fd_sc_hd__a31o_2
*CAP
1 *4433:D 0.000132204
2 *4378:X 0.000132204
3 *4433:D *4377:B 0
4 *4433:D *4380:A2 0
5 *4433:D *4380:B1 0
6 *4433:D *4434:RESET_B 0.000200413
7 *4433:D *4856:A 5.33005e-05
*RES
1 *4378:X *4433:D 30.6893 
*END

*D_NET *73 0.00101128
*CONN
*I *4756:A I *D sky130_fd_sc_hd__dlygate4sd3_1
*I *4380:X O *D sky130_fd_sc_hd__a31o_2
*CAP
1 *4756:A 0.00031081
2 *4380:X 0.00031081
3 *4756:A *4379:A 0.000224647
4 *4756:A *4381:A 3.51442e-05
5 *4756:A *4382:A2 0
6 *4756:A *4755:A 0.000129868
*RES
1 *4380:X *4756:A 34.9393 
*END

*D_NET *74 0.000663143
*CONN
*I *4435:D I *D sky130_fd_sc_hd__dfrtp_2
*I *4382:X O *D sky130_fd_sc_hd__a31o_2
*CAP
1 *4435:D 0.000161818
2 *4382:X 0.000161818
3 *4435:D *4383:B 0
4 *4435:D *4384:B1 0.000154762
5 *4435:D *939:46 0.000184745
*RES
1 *4382:X *4435:D 31.3143 
*END

*D_NET *75 0.000698648
*CONN
*I *4436:D I *D sky130_fd_sc_hd__dfrtp_2
*I *4384:X O *D sky130_fd_sc_hd__a31o_2
*CAP
1 *4436:D 0.000197358
2 *4384:X 0.000197358
3 *4436:D *4384:A2 5.17614e-05
4 *4436:D *4436:CLK 0.000101545
5 *4436:D *715:89 0.000150625
6 *4436:D *939:46 0
*RES
1 *4384:X *4436:D 31.725 
*END

*D_NET *76 0.000420812
*CONN
*I *4437:D I *D sky130_fd_sc_hd__dfrtp_2
*I *4386:X O *D sky130_fd_sc_hd__a31o_2
*CAP
1 *4437:D 0.000167302
2 *4386:X 0.000167302
3 *4437:D *4384:A3 5.33786e-05
4 *4437:D *4437:CLK 3.28285e-05
5 *4437:D *4596:D 0
*RES
1 *4386:X *4437:D 30.2116 
*END

*D_NET *77 0.000235819
*CONN
*I *4438:D I *D sky130_fd_sc_hd__dfrtp_2
*I *4388:X O *D sky130_fd_sc_hd__a31o_2
*CAP
1 *4438:D 9.08346e-05
2 *4388:X 9.08346e-05
3 *4438:D *4438:CLK 5.41494e-05
*RES
1 *4388:X *4438:D 20.3679 
*END

*D_NET *78 0.00133607
*CONN
*I *4439:D I *D sky130_fd_sc_hd__dfrtp_2
*I *4389:X O *D sky130_fd_sc_hd__a2bb2o_2
*CAP
1 *4439:D 0.000372727
2 *4389:X 0.000372727
3 *4439:D *4387:B 0.000183258
4 *4439:D *4388:B1 0.000268396
5 *4439:D *489:10 3.5707e-05
6 *4439:D *709:40 0.00010326
*RES
1 *4389:X *4439:D 33.5821 
*END

*D_NET *79 0.00150194
*CONN
*I *4440:D I *D sky130_fd_sc_hd__dfrtp_2
*I *4392:X O *D sky130_fd_sc_hd__o21a_2
*CAP
1 *4440:D 0.000582294
2 *4392:X 0.000582294
3 *4440:D *4440:RESET_B 0.000120802
4 *4440:D *454:8 0.000216546
*RES
1 *4392:X *4440:D 37.5107 
*END

*D_NET *80 0.000910003
*CONN
*I *4441:D I *D sky130_fd_sc_hd__dfrtp_2
*I *4394:X O *D sky130_fd_sc_hd__a21o_2
*CAP
1 *4441:D 0.000359337
2 *4394:X 0.000359337
3 *4441:D *4596:RESET_B 0
4 *4441:D *4637:A 1.58163e-05
5 *4441:D *454:8 0.000175512
*RES
1 *4394:X *4441:D 32.85 
*END

*D_NET *81 0.0013957
*CONN
*I *4442:D I *D sky130_fd_sc_hd__dfrtp_2
*I *4397:X O *D sky130_fd_sc_hd__and2_2
*CAP
1 *4442:D 0.000515816
2 *4397:X 0.000515816
3 *4442:D *4442:CLK 0.000106698
4 *4442:D *4443:CLK 0.000257375
5 *4442:D *454:8 0
*RES
1 *4397:X *4442:D 35.6893 
*END

*D_NET *82 0.000508835
*CONN
*I *4443:D I *D sky130_fd_sc_hd__dfrtp_2
*I *4399:X O *D sky130_fd_sc_hd__a21o_2
*CAP
1 *4443:D 0.000155875
2 *4399:X 0.000155875
3 *4443:D *4399:A2 8.28073e-05
4 *4443:D *4399:B1 0
5 *4443:D *446:8 9.11365e-06
6 *4443:D *449:177 0.000105163
*RES
1 *4399:X *4443:D 31.0107 
*END

*D_NET *83 0.00176828
*CONN
*I *3889:A1_N I *D sky130_fd_sc_hd__a2bb2o_2
*I *4391:A1 I *D sky130_fd_sc_hd__o21ai_2
*I *3834:Y O *D sky130_fd_sc_hd__inv_2
*CAP
1 *3889:A1_N 0.000432378
2 *4391:A1 8.71934e-05
3 *3834:Y 0.000105413
4 *83:10 0.000624985
5 *4391:A1 *3886:C 0.000140368
6 *4391:A1 *4396:B1 1.00375e-05
7 *4391:A1 *4397:B 6.17227e-05
8 *83:10 *3886:C 1.02504e-05
9 *83:10 *4397:B 5.5782e-05
10 *83:10 *124:10 0.000153047
11 *83:10 *715:31 5.52302e-05
12 *4445:D *3889:A1_N 3.18676e-05
*RES
1 *3834:Y *83:10 16.2821 
2 *83:10 *4391:A1 16.05 
3 *83:10 *3889:A1_N 20.8268 
*END

*D_NET *84 0.00196354
*CONN
*I *3942:C I *D sky130_fd_sc_hd__and4b_2
*I *3918:A I *D sky130_fd_sc_hd__nor2_2
*I *3835:Y O *D sky130_fd_sc_hd__inv_2
*CAP
1 *3942:C 0.000176692
2 *3918:A 0.000320854
3 *3835:Y 9.06203e-06
4 *84:8 0.000506608
5 *3918:A *3919:A2 3.28686e-05
6 *3918:A *3919:B1 1.07719e-05
7 *3918:A *3919:B2 4.17828e-06
8 *3918:A *3919:C1 7.56452e-06
9 *3918:A *749:42 0.000386816
10 *3942:C *3847:B1 0.000312222
11 *3942:C *3851:A3 6.87574e-05
12 *3942:C *3942:A_N 5.52238e-05
13 *3942:C *747:25 1.76039e-05
14 *84:8 *3942:A_N 0
15 *3:14 *3918:A 5.02533e-05
16 *3:14 *3942:C 4.06694e-06
*RES
1 *3835:Y *84:8 14.0768 
2 *84:8 *3918:A 20.1304 
3 *84:8 *3942:C 18.2911 
*END

*D_NET *85 0.000333739
*CONN
*I *3871:A2 I *D sky130_fd_sc_hd__a21o_2
*I *3836:Y O *D sky130_fd_sc_hd__inv_2
*CAP
1 *3871:A2 7.40481e-05
2 *3836:Y 7.40481e-05
3 *3871:A2 *3871:B1 0.000185643
*RES
1 *3836:Y *3871:A2 20.3679 
*END

*D_NET *86 0.0115723
*CONN
*I *3896:B I *D sky130_fd_sc_hd__nand2_2
*I *4060:B I *D sky130_fd_sc_hd__or3_2
*I *3905:A1 I *D sky130_fd_sc_hd__a31o_2
*I *3911:A I *D sky130_fd_sc_hd__or4_2
*I *4065:B I *D sky130_fd_sc_hd__or3_2
*I *4350:A1 I *D sky130_fd_sc_hd__o31a_2
*I *4354:A1 I *D sky130_fd_sc_hd__o31a_2
*I *3953:A I *D sky130_fd_sc_hd__nor2_2
*I *3837:Y O *D sky130_fd_sc_hd__inv_2
*CAP
1 *3896:B 0.000874308
2 *4060:B 0
3 *3905:A1 0.000118792
4 *3911:A 3.82418e-05
5 *4065:B 0.000126892
6 *4350:A1 3.46459e-05
7 *4354:A1 0.000248362
8 *3953:A 0.000187911
9 *3837:Y 0
10 *86:71 0.000284364
11 *86:65 0.00110084
12 *86:36 0.000223837
13 *86:25 0.000749213
14 *86:21 0.00108919
15 *86:8 0.00127897
16 *86:6 0.000539622
17 *3896:B *3902:C_N 1.42014e-05
18 *3896:B *3904:B 0
19 *3896:B *4064:B1 0.000149214
20 *3896:B *131:17 0.000310292
21 *3896:B *259:38 0.000172092
22 *3896:B *259:44 4.29471e-05
23 *3896:B *259:50 1.98839e-05
24 *3896:B *449:113 9.24491e-05
25 *3896:B *666:81 2.59355e-05
26 *3896:B *686:10 0.00036868
27 *3905:A1 *3901:B 2.29112e-05
28 *3905:A1 *3904:B 0.000194527
29 *3905:A1 *4738:A 4.27842e-06
30 *3911:A *4469:CLK 0
31 *3953:A *148:12 0.000234523
32 *3953:A *149:18 0
33 *3953:A *259:8 0.000202835
34 *4065:B *3892:A 0
35 *4065:B *4350:A3 3.78069e-05
36 *4354:A1 *4350:A3 0.000185732
37 *4354:A1 *4417:RESET_B 0
38 *4354:A1 *683:84 0
39 *86:8 *3906:B 0
40 *86:8 *3906:C 4.70865e-05
41 *86:8 *3913:A2 0
42 *86:8 *3913:B2 0
43 *86:8 *4064:B1 1.03904e-05
44 *86:8 *148:12 0.000141122
45 *86:8 *259:8 0.000908697
46 *86:8 *259:21 0.000206087
47 *86:8 *668:44 0.000235228
48 *86:21 *3911:B 2.32517e-05
49 *86:21 *4469:CLK 0.000181803
50 *86:25 *3911:B 4.0342e-06
51 *86:25 *3911:C 4.70048e-05
52 *86:36 *4350:A3 6.04396e-05
53 *86:65 *4064:B1 1.25366e-05
54 *86:65 *259:21 0.000177594
55 *86:65 *259:38 8.25123e-06
56 *86:65 *668:44 0.000162926
57 *86:71 *4060:A 0.000306302
58 *86:71 *4738:A 5.50052e-05
59 *4417:D *4354:A1 0
60 *4417:D *86:36 0
61 *4458:D *3905:A1 1.10285e-05
*RES
1 *3837:Y *86:6 13.8 
2 *86:6 *86:8 14.3929 
3 *86:8 *3953:A 19.3893 
4 *86:8 *86:21 11.6071 
5 *86:21 *86:25 9.55357 
6 *86:25 *4354:A1 19.3893 
7 *86:25 *86:36 1.49107 
8 *86:36 *4350:A1 14.6125 
9 *86:36 *4065:B 15.8982 
10 *86:21 *3911:A 10.0321 
11 *86:6 *86:65 2.55357 
12 *86:65 *86:71 7.92857 
13 *86:71 *3905:A1 20.8536 
14 *86:71 *4060:B 9.3 
15 *86:65 *3896:B 30.8536 
*END

*D_NET *87 0.00782349
*CONN
*I *3905:A2 I *D sky130_fd_sc_hd__a31o_2
*I *3900:B I *D sky130_fd_sc_hd__and4_2
*I *3908:A I *D sky130_fd_sc_hd__or4_2
*I *4046:A I *D sky130_fd_sc_hd__or3_2
*I *3954:A I *D sky130_fd_sc_hd__nor2_2
*I *3838:Y O *D sky130_fd_sc_hd__inv_2
*CAP
1 *3905:A2 0.000692511
2 *3900:B 0.000236543
3 *3908:A 0.000102713
4 *4046:A 0.000253664
5 *3954:A 0
6 *3838:Y 7.96685e-05
7 *87:34 0.000442504
8 *87:30 0.000944989
9 *87:14 0.000809169
10 *87:8 0.000784404
11 *3900:B *3906:A 0.000274036
12 *3900:B *672:55 9.8126e-05
13 *3905:A2 *3837:A 0.000164464
14 *3905:A2 *3901:C 3.17215e-05
15 *3905:A2 *3904:B 9.16418e-05
16 *3905:A2 *3904:C 0.000490482
17 *3905:A2 *666:58 3.14003e-05
18 *3905:A2 *666:64 4.85354e-05
19 *3908:A *3908:C 3.11088e-05
20 *3908:A *3913:A2 0.000185403
21 *3908:A *497:27 6.48098e-05
22 *4046:A *4470:D 5.52238e-05
23 *87:8 *261:22 2.40379e-05
24 *87:14 *3906:D_N 0.000106542
25 *87:14 *4354:A2 2.8266e-06
26 *87:14 *138:25 0.000334053
27 *87:14 *666:14 0.000223599
28 *87:14 *670:25 2.47186e-05
29 *87:14 *670:27 6.04162e-05
30 *87:14 *670:29 8.27217e-05
31 *87:14 *670:31 6.95205e-05
32 *87:30 *3906:D_N 6.79873e-05
33 *87:30 *666:14 9.25014e-06
34 *87:30 *666:58 0.000272647
35 *87:34 *3913:A2 0.00042688
36 *87:34 *666:64 9.84673e-05
37 *87:34 *672:59 0.000106708
*RES
1 *3838:Y *87:8 14.7464 
2 *87:8 *87:14 18.25 
3 *87:14 *3954:A 9.3 
4 *87:14 *4046:A 13.55 
5 *87:8 *87:30 3.76786 
6 *87:30 *87:34 8.73214 
7 *87:34 *3908:A 12.3179 
8 *87:34 *3900:B 22.2286 
9 *87:30 *3905:A2 25.0857 
*END

*D_NET *88 0.00544419
*CONN
*I *3941:A I *D sky130_fd_sc_hd__nand2_2
*I *4072:C1 I *D sky130_fd_sc_hd__o211a_2
*I *3839:Y O *D sky130_fd_sc_hd__inv_2
*CAP
1 *3941:A 0.00166954
2 *4072:C1 3.11956e-05
3 *3839:Y 0.00170073
4 *3941:A *3939:A1 0.000540731
5 *3941:A *3939:A3 6.66635e-05
6 *3941:A *3939:B1 1.03742e-05
7 *3941:A *3939:B2 0.000114631
8 *3941:A *4072:A1 0.000361914
9 *3941:A *4410:CLK 0.000143557
10 *3941:A *4751:A 1.21289e-05
11 *3941:A *703:90 5.03485e-05
12 *4072:C1 *4071:B1 0.000232399
13 *4072:C1 *4072:A1 0.000129595
14 *4402:D *3941:A 0.000213965
15 *4410:D *3941:A 0.000166416
*RES
1 *3839:Y *4072:C1 20.7786 
2 *3839:Y *3941:A 46.4214 
*END

*D_NET *89 0.00531812
*CONN
*I *3875:A I *D sky130_fd_sc_hd__or3_2
*I *3951:A I *D sky130_fd_sc_hd__nand2_2
*I *3947:A2 I *D sky130_fd_sc_hd__a32o_2
*I *3936:A2 I *D sky130_fd_sc_hd__a31o_2
*I *3840:Y O *D sky130_fd_sc_hd__inv_2
*CAP
1 *3875:A 0.0003872
2 *3951:A 0.000367955
3 *3947:A2 0.00010448
4 *3936:A2 5.18731e-05
5 *3840:Y 0.000113469
6 *89:23 0.000796949
7 *89:10 0.000434573
8 *89:8 0.000558854
9 *3875:A *3873:S 6.19181e-05
10 *3875:A *3875:B 4.51641e-05
11 *3875:A *3875:C 3.93247e-05
12 *3875:A *3946:A 0.000139405
13 *3936:A2 *3936:A1 5.52238e-05
14 *3936:A2 *529:57 5.62995e-05
15 *3947:A2 *4686:A 2.32625e-05
16 *3947:A2 *665:22 2.85321e-05
17 *3951:A *3951:B 0.000599799
18 *3951:A *3952:A1 0.000319271
19 *3951:A *3952:A2 6.70699e-05
20 *3951:A *528:47 3.34634e-05
21 *89:8 *3935:A1 0.000221634
22 *89:8 *3936:A1 0.000181803
23 *89:8 *4428:CLK 0
24 *89:10 *3873:A0 2.89016e-05
25 *89:10 *3935:A2 1.15281e-05
26 *89:10 *3936:A1 0.000359997
27 *89:10 *3936:B1 0.000144773
28 *89:10 *529:57 6.58597e-05
29 *89:23 *3873:S 0
30 *89:23 *3947:B1 0
31 *89:23 *3952:A1 4.27842e-06
32 *89:23 *3952:A2 5.07263e-06
33 *89:23 *103:18 0
34 *89:23 *103:29 0
35 *89:23 *665:32 1.01912e-05
36 *4814:A *89:23 0
*RES
1 *3840:Y *89:8 12.3179 
2 *89:8 *89:10 3.41071 
3 *89:10 *3936:A2 10.675 
4 *89:10 *89:23 9.78571 
5 *89:23 *3947:A2 15.1571 
6 *89:23 *3951:A 25.1571 
7 *89:8 *3875:A 25.8357 
*END

*D_NET *90 0.00713508
*CONN
*I *3875:B I *D sky130_fd_sc_hd__or3_2
*I *3946:A I *D sky130_fd_sc_hd__nand2_2
*I *3939:A2 I *D sky130_fd_sc_hd__a32o_2
*I *3950:A2 I *D sky130_fd_sc_hd__a32o_2
*I *3841:Y O *D sky130_fd_sc_hd__inv_2
*CAP
1 *3875:B 9.0828e-05
2 *3946:A 0.000402212
3 *3939:A2 0.000101262
4 *3950:A2 0.000545829
5 *3841:Y 0.00133603
6 *90:45 0.000860632
7 *90:10 0.00161553
8 *3875:B *3875:C 1.33343e-05
9 *3939:A2 *3929:A3 2.26973e-05
10 *3950:A2 *3925:A2 0.000135028
11 *3950:A2 *4400:RESET_B 0.000269729
12 *3950:A2 *4402:RESET_B 0
13 *3950:A2 *703:90 0.000180777
14 *90:10 *4400:D 0.00013728
15 *90:10 *4400:RESET_B 0.000736836
16 *90:10 *102:34 0.000101967
17 *90:10 *523:10 2.27416e-05
18 *90:10 *987:14 0.000144773
19 *90:45 *3840:A 4.58192e-05
20 *90:45 *3873:A1 0
21 *90:45 *3935:A1 1.69115e-05
22 *90:45 *3940:A1 5.10822e-05
23 *90:45 *707:10 0
24 *90:45 *707:12 0
25 *90:45 *987:14 4.25716e-05
26 *3875:A *3875:B 4.51641e-05
27 *3875:A *3946:A 0.000139405
28 *4402:D *3939:A2 7.6644e-05
*RES
1 *3841:Y *90:10 26.7107 
2 *90:10 *3950:A2 17.8 
3 *90:10 *3939:A2 19.9429 
4 *3841:Y *90:45 25.4071 
5 *90:45 *3946:A 15.9071 
6 *90:45 *3875:B 11.0857 
*END

*D_NET *91 0.000464566
*CONN
*I *4059:A1 I *D sky130_fd_sc_hd__a211oi_2
*I *3842:Y O *D sky130_fd_sc_hd__inv_2
*CAP
1 *4059:A1 0.000232283
2 *3842:Y 0.000232283
*RES
1 *3842:Y *4059:A1 22.0286 
*END

*D_NET *92 0.00217909
*CONN
*I *4261:A1 I *D sky130_fd_sc_hd__o21ai_2
*I *3843:Y O *D sky130_fd_sc_hd__inv_2
*CAP
1 *4261:A1 0.000604459
2 *3843:Y 0.000604459
3 *4261:A1 *3909:B 5.33005e-05
4 *4261:A1 *4261:B1 0
5 *4261:A1 *4262:B 0.000126629
6 *4261:A1 *4355:A1 0.000150618
7 *4261:A1 *4842:A 6.05161e-06
8 *4261:A1 *107:24 1.90002e-05
9 *4261:A1 *107:47 0.000105696
10 *4261:A1 *227:10 0
11 *4261:A1 *227:21 0
12 *4261:A1 *494:12 0.000245349
13 *4261:A1 *494:60 0.000226817
14 *4261:A1 *884:10 3.67142e-05
*RES
1 *3843:Y *4261:A1 41.6893 
*END

*D_NET *93 0.00199709
*CONN
*I *4205:A1 I *D sky130_fd_sc_hd__o211ai_2
*I *3844:Y O *D sky130_fd_sc_hd__inv_2
*CAP
1 *4205:A1 0.00047455
2 *3844:Y 0.00047455
3 *4205:A1 *4203:B1 0.00022936
4 *4205:A1 *4661:A 0.000322082
5 *4205:A1 *4676:A 0.000271958
6 *4205:A1 *564:95 0
7 *4205:A1 *840:12 0.000224592
*RES
1 *3844:Y *4205:A1 36.5286 
*END

*D_NET *94 0.00287389
*CONN
*I *4148:A1 I *D sky130_fd_sc_hd__o21ai_2
*I *3845:Y O *D sky130_fd_sc_hd__inv_2
*CAP
1 *4148:A1 0.00112924
2 *3845:Y 0.00112924
3 *4148:A1 *4147:B1 4.25358e-05
4 *4148:A1 *4149:B 0.000103267
5 *4148:A1 *4150:B1_N 1.76039e-05
6 *4148:A1 *4573:D 0.000226507
7 *4148:A1 *4821:A 0.000117621
8 *4148:A1 *660:14 3.06406e-05
9 *4148:A1 *794:6 7.7233e-05
*RES
1 *3845:Y *4148:A1 43.8857 
*END

*D_NET *95 0.00231572
*CONN
*I *3919:A2 I *D sky130_fd_sc_hd__a221o_2
*I *3846:Y O *D sky130_fd_sc_hd__nor2_2
*CAP
1 *3919:A2 0.000656747
2 *3846:Y 0.000656747
3 *3919:A2 *3846:B 3.57366e-05
4 *3919:A2 *3862:C 0.000400888
5 *3919:A2 *150:18 4.70078e-05
6 *3919:A2 *150:37 0.00033484
7 *3919:A2 *681:53 0.000104974
8 *3919:A2 *749:8 0
9 *3919:A2 *749:14 4.59075e-05
10 *3918:A *3919:A2 3.28686e-05
*RES
1 *3846:Y *3919:A2 38.6089 
*END

*D_NET *96 0.00223528
*CONN
*I *4070:A I *D sky130_fd_sc_hd__or3_2
*I *4057:A I *D sky130_fd_sc_hd__or3b_2
*I *3848:A I *D sky130_fd_sc_hd__inv_2
*I *4069:A I *D sky130_fd_sc_hd__nor3_2
*I *3847:Y O *D sky130_fd_sc_hd__o21ai_2
*CAP
1 *4070:A 0
2 *4057:A 0
3 *3848:A 0.00019017
4 *4069:A 0
5 *3847:Y 0.00016442
6 *96:27 0.000357144
7 *96:18 0.000232026
8 *96:12 0.000229472
9 *96:12 *4449:CLK 0.000183674
10 *96:12 *160:27 0.000342495
11 *96:12 *751:23 4.58194e-05
12 *96:18 *4069:B 0.000141382
13 *96:18 *4070:B 5.66157e-05
14 *96:18 *160:27 3.34366e-05
15 *96:18 *160:38 0.00017309
16 *96:27 *4057:C_N 5.52238e-05
17 *96:27 *4069:C 3.03071e-05
*RES
1 *3847:Y *96:12 23.6214 
2 *96:12 *96:18 11.5536 
3 *96:18 *4069:A 9.3 
4 *96:18 *96:27 3.01786 
5 *96:27 *3848:A 12.3179 
6 *96:27 *4057:A 9.3 
7 *96:12 *4070:A 9.3 
*END

*D_NET *97 0.0018511
*CONN
*I *3851:B1 I *D sky130_fd_sc_hd__a31oi_2
*I *3849:Y O *D sky130_fd_sc_hd__a21oi_2
*CAP
1 *3851:B1 0.000648711
2 *3849:Y 0.000648711
3 *3851:B1 *3849:B1 0.000309114
4 *3851:B1 *3851:A1 8.72308e-05
5 *3851:B1 *3870:A1 4.53834e-05
6 *3851:B1 *162:16 4.32957e-05
7 *3851:B1 *449:226 4.58194e-05
8 *3851:B1 *519:26 2.28378e-05
*RES
1 *3849:Y *3851:B1 37.9434 
*END

*D_NET *98 0.00294967
*CONN
*I *3942:D I *D sky130_fd_sc_hd__and4b_2
*I *3851:A3 I *D sky130_fd_sc_hd__a31oi_2
*I *3850:Y O *D sky130_fd_sc_hd__nand2b_2
*CAP
1 *3942:D 0
2 *3851:A3 0.0005016
3 *3850:Y 0.000216918
4 *98:16 0.000718518
5 *3851:A3 *3847:B1 1.39726e-05
6 *3851:A3 *3869:B 9.88136e-05
7 *3851:A3 *3870:B1 0.000106542
8 *3851:A3 *3942:A_N 5.71472e-05
9 *3851:A3 *3942:B 9.71197e-05
10 *3851:A3 *4449:CLK 0
11 *3851:A3 *111:10 8.91904e-05
12 *3851:A3 *747:25 0
13 *3851:A3 *747:40 0.000310384
14 *98:16 *3846:A 0.000136951
15 *98:16 *4449:CLK 0.000191403
16 *98:16 *107:92 0.000166725
17 *98:16 *111:10 9.99989e-05
18 *98:16 *150:18 7.56308e-05
19 *3942:C *3851:A3 6.87574e-05
*RES
1 *3850:Y *98:16 23.9964 
2 *98:16 *3851:A3 30.1393 
3 *98:16 *3942:D 9.3 
*END

*D_NET *99 0.00378542
*CONN
*I *3857:A I *D sky130_fd_sc_hd__nor2_2
*I *3929:A2 I *D sky130_fd_sc_hd__a311o_2
*I *3852:Y O *D sky130_fd_sc_hd__nor3_2
*CAP
1 *3857:A 0.000228554
2 *3929:A2 0.000905947
3 *3852:Y 0.000188161
4 *99:12 0.00132266
5 *3857:A *3852:C 5.07619e-05
6 *3857:A *523:22 1.59373e-05
7 *3929:A2 *3922:B 0.000141734
8 *3929:A2 *3929:A1 2.84109e-05
9 *3929:A2 *3929:A3 0
10 *3929:A2 *3929:B1 0.000262301
11 *3929:A2 *3929:C1 3.27526e-05
12 *3929:A2 *4357:B 2.42642e-05
13 *3929:A2 *4357:C_N 5.42961e-05
14 *3929:A2 *4402:CLK 0.00014338
15 *3929:A2 *154:38 1.24368e-05
16 *99:12 *3852:C 0.000172091
17 *99:12 *3936:A3 2.59355e-05
18 *99:12 *4402:CLK 5.0198e-05
19 *99:12 *103:10 0.000125593
*RES
1 *3852:Y *99:12 18.0321 
2 *99:12 *3929:A2 38.55 
3 *99:12 *3857:A 17.6571 
*END

*D_NET *100 0.00455464
*CONN
*I *3855:B I *D sky130_fd_sc_hd__nor2_2
*I *3929:A3 I *D sky130_fd_sc_hd__a311o_2
*I *3853:Y O *D sky130_fd_sc_hd__nor3_2
*CAP
1 *3855:B 2.22847e-05
2 *3929:A3 0.000680651
3 *3853:Y 0.000508538
4 *100:14 0.00121147
5 *3929:A3 *3929:A1 3.34295e-05
6 *3929:A3 *3939:A3 8.45518e-05
7 *3929:A3 *3939:B1 4.69774e-05
8 *3929:A3 *4357:B 0.000249493
9 *3929:A3 *4402:CLK 0.000123068
10 *3929:A3 *102:10 0.000185124
11 *3929:A3 *102:34 4.33899e-05
12 *100:14 *3855:A 0.000221818
13 *100:14 *3865:A 0
14 *100:14 *3868:B1 6.8646e-06
15 *100:14 *4402:CLK 0.000855771
16 *100:14 *4636:A 5.33005e-05
17 *100:14 *102:34 0.000136676
18 *100:14 *103:18 0
19 *100:14 *529:23 0
20 *100:14 *529:57 0
21 *3929:A2 *3929:A3 0
22 *3939:A2 *3929:A3 2.26973e-05
23 *4408:D *100:14 6.85279e-05
24 *4752:A *100:14 0
*RES
1 *3853:Y *100:14 31.2464 
2 *100:14 *3929:A3 32.1036 
3 *100:14 *3855:B 9.72857 
*END

*D_NET *101 0.00202671
*CONN
*I *3864:A I *D sky130_fd_sc_hd__and2_2
*I *3865:A I *D sky130_fd_sc_hd__nand2_2
*I *3854:X O *D sky130_fd_sc_hd__or3_2
*CAP
1 *3864:A 0
2 *3865:A 0.000179956
3 *3854:X 0.000331711
4 *101:8 0.000511667
5 *3865:A *3868:B1 5.71263e-05
6 *3865:A *103:18 0.000106669
7 *3865:A *103:29 0.000117385
8 *101:8 *3854:A 0.000159792
9 *101:8 *3868:B1 0.000296235
10 *101:8 *103:29 4.6025e-06
11 *101:8 *103:42 0.000155928
12 *4408:D *101:8 0.000105638
13 *100:14 *3865:A 0
*RES
1 *3854:X *101:8 22.7286 
2 *101:8 *3865:A 18.425 
3 *101:8 *3864:A 13.8 
*END

*D_NET *102 0.00608972
*CONN
*I *3935:A2 I *D sky130_fd_sc_hd__o21a_2
*I *3940:A2 I *D sky130_fd_sc_hd__o21ai_2
*I *3860:A2 I *D sky130_fd_sc_hd__o21a_2
*I *3857:B I *D sky130_fd_sc_hd__nor2_2
*I *3855:Y O *D sky130_fd_sc_hd__nor2_2
*CAP
1 *3935:A2 0.000176142
2 *3940:A2 0
3 *3860:A2 0.000567328
4 *3857:B 0
5 *3855:Y 0
6 *102:34 0.000928927
7 *102:10 0.000901913
8 *102:4 0.00108737
9 *3860:A2 *3868:A1 0.000192835
10 *3860:A2 *3868:A2 6.1684e-05
11 *3860:A2 *3939:A3 0.000135321
12 *3860:A2 *3950:A1 0.000420666
13 *3860:A2 *4635:A 0
14 *3860:A2 *4636:A 0.000187828
15 *3860:A2 *109:10 0.000105447
16 *3860:A2 *521:18 9.41642e-05
17 *3860:A2 *521:22 0
18 *3860:A2 *521:32 0
19 *3935:A2 *3873:A0 0.000172924
20 *3935:A2 *529:57 6.05161e-06
21 *102:10 *3939:A3 6.74911e-05
22 *102:10 *4400:RESET_B 5.28656e-05
23 *102:34 *3855:A 2.14658e-05
24 *102:34 *3873:A0 3.51442e-05
25 *102:34 *3941:B 0
26 *102:34 *4400:D 0
27 *102:34 *4400:RESET_B 0.000395471
28 *102:34 *523:47 0
29 *3929:A3 *102:10 0.000185124
30 *3929:A3 *102:34 4.33899e-05
31 *4404:D *3935:A2 0
32 *89:10 *3935:A2 1.15281e-05
33 *90:10 *102:34 0.000101967
34 *100:14 *102:34 0.000136676
*RES
1 *3855:Y *102:4 9.3 
2 *102:4 *102:10 9.55357 
3 *102:10 *3857:B 13.8 
4 *102:10 *3860:A2 28.5857 
5 *102:4 *102:34 14.8929 
6 *102:34 *3940:A2 13.8 
7 *102:34 *3935:A2 17.1214 
*END

*D_NET *103 0.00640246
*CONN
*I *3865:B I *D sky130_fd_sc_hd__nand2_2
*I *3951:B I *D sky130_fd_sc_hd__nand2_2
*I *3948:B I *D sky130_fd_sc_hd__and3b_2
*I *3864:B I *D sky130_fd_sc_hd__and2_2
*I *3946:B I *D sky130_fd_sc_hd__nand2_2
*I *3856:Y O *D sky130_fd_sc_hd__o31ai_2
*CAP
1 *3865:B 2.29251e-05
2 *3951:B 0.000389888
3 *3948:B 0.000493031
4 *3864:B 2.37608e-05
5 *3946:B 0.000135379
6 *3856:Y 0.000231844
7 *103:42 0.00105239
8 *103:29 0.00031141
9 *103:18 0.000575616
10 *103:10 0.000576823
11 *3864:B *3952:A2 5.49995e-05
12 *3865:B *4402:CLK 5.7119e-05
13 *3948:B *520:23 0.000197117
14 *3948:B *520:36 0.000131235
15 *3948:B *984:36 4.60153e-05
16 *3951:B *3854:C 0.000167639
17 *3951:B *4774:A 6.3629e-05
18 *3951:B *520:36 6.05161e-06
19 *3951:B *528:47 5.72374e-05
20 *103:10 *3852:B 8.46259e-06
21 *103:10 *4402:CLK 0.000261044
22 *103:10 *109:10 0
23 *103:10 *523:22 0.000138606
24 *103:18 *109:8 2.51343e-06
25 *103:42 *3952:A2 0.00015019
26 *3865:A *103:18 0.000106669
27 *3865:A *103:29 0.000117385
28 *3951:A *3951:B 0.000599799
29 *4818:A *3948:B 0.000137561
30 *89:23 *103:18 0
31 *89:23 *103:29 0
32 *99:12 *103:10 0.000125593
33 *100:14 *103:18 0
34 *101:8 *103:29 4.6025e-06
35 *101:8 *103:42 0.000155928
*RES
1 *3856:Y *103:10 18.6214 
2 *103:10 *103:18 13.1429 
3 *103:18 *3946:B 15.9786 
4 *103:18 *103:29 2.85714 
5 *103:29 *3864:B 14.3357 
6 *103:29 *103:42 8.875 
7 *103:42 *3948:B 18.0679 
8 *103:42 *3951:B 28.6036 
9 *103:10 *3865:B 14.5321 
*END

*D_NET *104 0.00664973
*CONN
*I *3934:A3 I *D sky130_fd_sc_hd__a32o_2
*I *3924:B I *D sky130_fd_sc_hd__nand2_2
*I *3925:A3 I *D sky130_fd_sc_hd__a31oi_2
*I *3926:A2 I *D sky130_fd_sc_hd__a22o_2
*I *3859:C I *D sky130_fd_sc_hd__and3_2
*I *3858:B I *D sky130_fd_sc_hd__nand2_2
*I *3857:Y O *D sky130_fd_sc_hd__nor2_2
*CAP
1 *3934:A3 0.000140359
2 *3924:B 4.51404e-05
3 *3925:A3 0.000381026
4 *3926:A2 0.000173968
5 *3859:C 0
6 *3858:B 0.000110635
7 *3857:Y 0.000116687
8 *104:40 0.000706729
9 *104:38 0.000763766
10 *104:16 0.0005401
11 *104:6 0.000972684
12 *3858:B *3859:A 0.000190983
13 *3858:B *3945:A2 2.8266e-06
14 *3858:B *4410:RESET_B 0.000125731
15 *3858:B *583:10 4.038e-06
16 *3924:B *741:12 5.20751e-05
17 *3925:A3 *3934:A1 0
18 *3925:A3 *3934:A2 0.000433787
19 *3925:A3 *154:6 2.95726e-05
20 *3925:A3 *154:38 5.06983e-05
21 *3925:A3 *157:10 6.62868e-05
22 *3926:A2 *3926:B1 1.7491e-05
23 *3926:A2 *4357:A 0
24 *3926:A2 *4452:CLK 3.04297e-05
25 *3926:A2 *154:16 3.84385e-05
26 *3926:A2 *745:27 4.13122e-06
27 *3934:A3 *3934:A1 0.000161868
28 *3934:A3 *3934:A2 4.70078e-05
29 *3934:A3 *157:10 0.000312215
30 *104:6 *584:10 0.000259467
31 *104:16 *3859:B 7.05014e-05
32 *104:16 *4782:A 9.41642e-05
33 *104:16 *4783:A 0.000271345
34 *104:16 *583:10 5.52302e-05
35 *104:16 *584:10 0.000184745
36 *104:38 *3934:A2 0
37 *104:38 *584:10 0
38 *104:38 *713:12 0
39 *104:40 *3934:A2 0
40 *3921:B1 *3925:A3 0.000137983
41 *4452:D *3926:A2 5.7616e-05
*RES
1 *3857:Y *104:6 12.3 
2 *104:6 *104:16 8.92857 
3 *104:16 *3858:B 21.3 
4 *104:16 *3859:C 9.3 
5 *104:6 *104:38 11.3036 
6 *104:38 *104:40 4.67857 
7 *104:40 *3926:A2 17.2643 
8 *104:40 *3925:A3 20.1036 
9 *104:38 *3924:B 14.7464 
10 *3925:A3 *3934:A3 22.8321 
*END

*D_NET *105 0.000985922
*CONN
*I *3938:A2 I *D sky130_fd_sc_hd__a22o_2
*I *3858:Y O *D sky130_fd_sc_hd__nand2_2
*CAP
1 *3938:A2 0.000268728
2 *3858:Y 0.000268728
3 *3938:A2 *3867:C 1.46576e-05
4 *3938:A2 *3938:B1 4.46186e-06
5 *3938:A2 *4403:RESET_B 4.43698e-05
6 *3938:A2 *4410:RESET_B 0
7 *3938:A2 *4415:CLK 6.58289e-05
8 *3938:A2 *449:13 0.000283449
9 *3925:B1 *3938:A2 3.56976e-05
*RES
1 *3858:Y *3938:A2 34.5509 
*END

*D_NET *106 0.0030802
*CONN
*I *4207:A I *D sky130_fd_sc_hd__nand2_2
*I *3869:B I *D sky130_fd_sc_hd__nand2_2
*I *3870:B1 I *D sky130_fd_sc_hd__o211a_2
*I *3861:Y O *D sky130_fd_sc_hd__nor2_2
*CAP
1 *4207:A 0
2 *3869:B 0.000113092
3 *3870:B1 0.000273638
4 *3861:Y 0.000136703
5 *106:16 0.000664783
6 *106:10 0.000414756
7 *3869:B *4359:B 0
8 *3869:B *495:23 0
9 *3869:B *495:33 3.34366e-05
10 *3870:B1 *3851:A2 4.49293e-05
11 *3870:B1 *3870:A2 3.57366e-05
12 *3870:B1 *3870:C1 5.33005e-05
13 *3870:B1 *4360:B1 0
14 *3870:B1 *4409:CLK 1.56e-05
15 *3870:B1 *4529:CLK 2.77143e-05
16 *3870:B1 *495:33 0.00015886
17 *3870:B1 *747:40 0
18 *3870:B1 *747:55 0.000101545
19 *106:10 *4207:B 0.00031345
20 *106:10 *4353:A3 5.05058e-05
21 *106:10 *150:37 3.34366e-05
22 *106:10 *459:12 0.00012501
23 *106:10 *681:63 0
24 *106:16 *4207:B 3.93247e-05
25 *106:16 *4425:RESET_B 0.000170596
26 *3851:A3 *3869:B 9.88136e-05
27 *3851:A3 *3870:B1 0.000106542
28 *3:14 *106:10 6.84294e-05
*RES
1 *3861:Y *106:10 22.9786 
2 *106:10 *106:16 9.98214 
3 *106:16 *3870:B1 20.3714 
4 *106:16 *3869:B 16.3536 
5 *106:10 *4207:A 9.3 
*END

*D_NET *107 0.0196167
*CONN
*I *3934:B1 I *D sky130_fd_sc_hd__a32o_2
*I *3863:B1_N I *D sky130_fd_sc_hd__o21ba_2
*I *4151:A I *D sky130_fd_sc_hd__nand2_2
*I *4353:A3 I *D sky130_fd_sc_hd__o32a_2
*I *4354:A3 I *D sky130_fd_sc_hd__o31a_2
*I *4356:A1 I *D sky130_fd_sc_hd__o21a_2
*I *4355:A1 I *D sky130_fd_sc_hd__o21a_2
*I *3862:X O *D sky130_fd_sc_hd__or3_2
*CAP
1 *3934:B1 0.000976943
2 *3863:B1_N 0
3 *4151:A 0.000230934
4 *4353:A3 0.00110111
5 *4354:A3 0.000193036
6 *4356:A1 2.5733e-05
7 *4355:A1 4.38849e-05
8 *3862:X 0
9 *107:111 0.00147802
10 *107:92 0.00170743
11 *107:47 0.00124398
12 *107:24 0.00195652
13 *107:8 0.00215504
14 *107:4 0.00114192
15 *3934:B1 *3863:A2 3.95175e-05
16 *3934:B1 *3934:B2 0
17 *3934:B1 *3945:B1 1.17968e-05
18 *3934:B1 *3945:B2 0.00050775
19 *3934:B1 *4094:A 0
20 *3934:B1 *4531:RESET_B 0
21 *3934:B1 *167:35 0
22 *3934:B1 *519:26 0
23 *3934:B1 *694:10 0
24 *3934:B1 *694:14 0
25 *4151:A *4360:B2 9.90367e-05
26 *4151:A *162:16 0
27 *4353:A3 *3916:A 5.28575e-05
28 *4353:A3 *3919:A1 0.000169449
29 *4353:A3 *3919:B1 1.90936e-05
30 *4353:A3 *3919:B2 0.000152884
31 *4353:A3 *4045:B 8.58182e-05
32 *4353:A3 *4052:A 7.6021e-05
33 *4353:A3 *4353:A2 0.000209416
34 *4353:A3 *4693:A 1.56e-05
35 *4353:A3 *4838:A 6.42242e-05
36 *4353:A3 *150:37 0.000145172
37 *4353:A3 *671:16 3.17163e-05
38 *4353:A3 *673:10 0
39 *4353:A3 *673:23 0
40 *4353:A3 *749:8 0
41 *4353:A3 *750:14 0.000121606
42 *4354:A3 *4350:A3 9.4724e-05
43 *4354:A3 *4352:A1 8.00806e-05
44 *4354:A3 *4356:B1 0.000115474
45 *4354:A3 *127:12 0
46 *4355:A1 *4355:A2 0.00015234
47 *4356:A1 *4356:A2 5.71472e-05
48 *4356:A1 *4701:A 9.90431e-05
49 *107:8 *150:18 0.000131293
50 *107:24 *3843:A 0.000268403
51 *107:24 *3909:B 1.92905e-05
52 *107:24 *4529:D 0.000119512
53 *107:24 *4842:A 2.59355e-05
54 *107:24 *150:18 0.000103747
55 *107:24 *749:14 0.000238911
56 *107:47 *4355:A2 0.00034085
57 *107:47 *4356:B1 1.02504e-05
58 *107:47 *4423:RESET_B 4.85567e-05
59 *107:47 *4696:A 2.83257e-05
60 *107:47 *127:12 0
61 *107:47 *138:25 3.15645e-05
62 *107:47 *138:40 0
63 *107:47 *494:12 8.89289e-05
64 *107:47 *494:23 0.000303963
65 *107:47 *676:6 0.000518849
66 *107:47 *676:16 0
67 *107:47 *735:12 0
68 *107:47 *739:8 0
69 *107:92 *3850:B 2.89114e-05
70 *107:92 *3862:B 5.33005e-05
71 *107:92 *3870:A2 3.2534e-05
72 *107:92 *3915:A1 0
73 *107:92 *4360:B2 0
74 *107:92 *4409:RESET_B 0.000128022
75 *107:92 *150:18 0.000279392
76 *107:92 *162:16 0.000162611
77 *107:92 *519:38 4.58976e-05
78 *107:111 *3849:A2 0.000456632
79 *107:111 *3863:A2 0
80 *107:111 *4409:RESET_B 5.03076e-05
81 *107:111 *4531:RESET_B 0
82 *107:111 *500:10 0.000186488
83 *4261:A1 *4355:A1 0.000150618
84 *4261:A1 *107:24 1.90002e-05
85 *4261:A1 *107:47 0.000105696
86 *4406:D *3934:B1 5.38886e-05
87 *4409:D *107:111 6.05161e-06
88 *4418:D *107:47 7.83659e-05
89 *4419:D *4354:A3 0
90 *4419:D *107:47 0
91 *4741:A *4353:A3 0.00010096
92 *3:14 *4353:A3 0.000527046
93 *98:16 *107:92 0.000166725
94 *106:10 *4353:A3 5.05058e-05
*RES
1 *3862:X *107:4 9.3 
2 *107:4 *107:8 2.60714 
3 *107:8 *107:24 18.5 
4 *107:24 *4355:A1 15.7464 
5 *107:24 *107:47 28.875 
6 *107:47 *4356:A1 14.7464 
7 *107:47 *4354:A3 18.175 
8 *107:8 *4353:A3 44.4786 
9 *107:4 *107:92 22.2143 
10 *107:92 *4151:A 17.3 
11 *107:92 *107:111 21.5357 
12 *107:111 *3863:B1_N 13.8 
13 *107:111 *3934:B1 32.8536 
*END

*D_NET *108 0.00216287
*CONN
*I *4686:A I *D sky130_fd_sc_hd__clkdlybuf4s25_1
*I *3864:X O *D sky130_fd_sc_hd__and2_2
*CAP
1 *4686:A 0.000633566
2 *3864:X 0.000633566
3 *4686:A *3872:A0 7.84584e-05
4 *4686:A *3873:A1 0.000216291
5 *4686:A *3947:B1 6.28499e-05
6 *4686:A *3947:B2 6.93072e-05
7 *4686:A *3952:A1 1.32552e-05
8 *4686:A *3952:A2 2.27416e-05
9 *4686:A *4412:D 3.73361e-05
10 *4686:A *665:14 4.08637e-05
11 *4686:A *665:16 8.46829e-05
12 *4686:A *665:22 0.000246691
13 *3947:A2 *4686:A 2.32625e-05
*RES
1 *3864:X *4686:A 40.5643 
*END

*D_NET *109 0.00358794
*CONN
*I *3868:A2 I *D sky130_fd_sc_hd__o21a_2
*I *3936:A3 I *D sky130_fd_sc_hd__a31o_2
*I *3939:A3 I *D sky130_fd_sc_hd__a32o_2
*I *3865:Y O *D sky130_fd_sc_hd__nand2_2
*CAP
1 *3868:A2 0.000127241
2 *3936:A3 0.00052521
3 *3939:A3 0.000307919
4 *3865:Y 0.000233769
5 *109:10 0.000938347
6 *109:8 0.000466228
7 *3868:A2 *3868:B1 9.71197e-05
8 *3936:A3 *529:57 2.89114e-05
9 *3939:A3 *3856:A1 0.000115466
10 *3939:A3 *521:32 4.99283e-06
11 *3860:A2 *3868:A2 6.1684e-05
12 *3860:A2 *3939:A3 0.000135321
13 *3860:A2 *109:10 0.000105447
14 *3929:A3 *3939:A3 8.45518e-05
15 *3941:A *3939:A3 6.66635e-05
16 *4402:D *3939:A3 0.000179142
17 *4404:D *3936:A3 1.39841e-05
18 *99:12 *3936:A3 2.59355e-05
19 *102:10 *3939:A3 6.74911e-05
20 *103:10 *109:10 0
21 *103:18 *109:8 2.51343e-06
*RES
1 *3865:Y *109:8 17.2107 
2 *109:8 *109:10 2.55357 
3 *109:10 *3939:A3 22.175 
4 *109:10 *3936:A3 21.3179 
5 *109:8 *3868:A2 16.3893 
*END

*D_NET *110 0.000870724
*CONN
*I *3949:A2 I *D sky130_fd_sc_hd__a21o_2
*I *3866:Y O *D sky130_fd_sc_hd__nand2_2
*CAP
1 *3949:A2 0.000113848
2 *3866:Y 0.000113848
3 *3949:A2 *3949:A1 0.000400145
4 *3949:A2 *3949:B1 9.84673e-05
5 *3949:A2 *449:125 0.000144416
*RES
1 *3866:Y *3949:A2 23.2429 
*END

*D_NET *111 0.0177699
*CONN
*I *4349:A3 I *D sky130_fd_sc_hd__o32a_2
*I *4094:A I *D sky130_fd_sc_hd__nand2_2
*I *3945:B1 I *D sky130_fd_sc_hd__a32o_2
*I *4351:A1 I *D sky130_fd_sc_hd__o21a_2
*I *4350:A3 I *D sky130_fd_sc_hd__o31a_2
*I *4352:A1 I *D sky130_fd_sc_hd__o21a_2
*I *3869:Y O *D sky130_fd_sc_hd__nand2_2
*CAP
1 *4349:A3 0.00071646
2 *4094:A 0.000487319
3 *3945:B1 0.000139652
4 *4351:A1 0
5 *4350:A3 0.000472883
6 *4352:A1 4.63915e-05
7 *3869:Y 0.000289756
8 *111:65 0.00188526
9 *111:61 0.00206574
10 *111:28 0.00155968
11 *111:18 0.00233483
12 *111:10 0.00167517
13 *3945:B1 *3945:B2 0.00015656
14 *4094:A *3943:A 5.52238e-05
15 *4094:A *3944:A2 5.33005e-05
16 *4094:A *167:35 0.000125724
17 *4094:A *694:10 2.31791e-05
18 *4094:A *694:12 0.000219193
19 *4094:A *694:14 0.000197991
20 *4349:A3 *3919:B2 0
21 *4349:A3 *4057:B 0.000216064
22 *4349:A3 *4349:B2 9.25014e-06
23 *4349:A3 *4353:B2 8.16036e-05
24 *4349:A3 *4420:RESET_B 0.000254337
25 *4349:A3 *4449:CLK 4.06782e-05
26 *4349:A3 *261:69 3.17163e-05
27 *4349:A3 *264:8 0.000296278
28 *4349:A3 *673:10 0.000317594
29 *4349:A3 *673:23 0.000186419
30 *4349:A3 *732:10 5.74562e-05
31 *4349:A3 *748:23 0.00013651
32 *4349:A3 *751:10 0.000248493
33 *4350:A3 *3892:A 0
34 *4350:A3 *3911:D 0
35 *4350:A3 *4350:A2 5.52238e-05
36 *4350:A3 *127:8 0
37 *4352:A1 *127:12 0
38 *111:10 *3942:A_N 3.69697e-05
39 *111:10 *4449:CLK 5.90416e-05
40 *111:10 *669:50 5.62995e-05
41 *111:10 *747:25 0
42 *111:18 *3847:B1 0.000354111
43 *111:18 *3909:B 3.92757e-05
44 *111:18 *3919:A1 9.41642e-05
45 *111:18 *4448:CLK 0.000178459
46 *111:18 *4448:SET_B 1.52723e-05
47 *111:18 *494:23 2.18733e-05
48 *111:18 *747:19 9.71197e-05
49 *111:28 *3912:B1 0
50 *111:28 *4352:A2 0.000184745
51 *111:28 *4352:B1 0.000161937
52 *111:28 *4450:D 0.000442063
53 *111:28 *494:23 0.000106542
54 *111:28 *494:32 0.00023777
55 *111:61 *3942:A_N 3.48235e-05
56 *111:61 *4449:CLK 7.04538e-05
57 *111:61 *748:23 6.98068e-05
58 *111:65 *3847:A2 5.33334e-05
59 *111:65 *3931:C 9.90607e-05
60 *111:65 *161:10 5.58128e-05
61 *111:65 *518:10 1.15339e-05
62 *3851:A3 *111:10 8.91904e-05
63 *3934:B1 *3945:B1 1.17968e-05
64 *3934:B1 *4094:A 0
65 *4065:B *4350:A3 3.78069e-05
66 *4354:A1 *4350:A3 0.000185732
67 *4354:A3 *4350:A3 9.4724e-05
68 *4354:A3 *4352:A1 8.00806e-05
69 *4406:D *3945:B1 0.000128154
70 *4414:D *3945:B1 6.55592e-05
71 *86:36 *4350:A3 6.04396e-05
72 *98:16 *111:10 9.99989e-05
*RES
1 *3869:Y *111:10 19.7286 
2 *111:10 *111:18 25.8571 
3 *111:18 *111:28 26.7143 
4 *111:28 *4352:A1 14.8357 
5 *111:28 *4350:A3 24.5321 
6 *111:18 *4351:A1 13.8 
7 *111:10 *111:61 2.55357 
8 *111:61 *111:65 19.4107 
9 *111:65 *3945:B1 21.9161 
10 *111:65 *4094:A 27.425 
11 *111:61 *4349:A3 35.4071 
*END

*D_NET *112 0.00347433
*CONN
*I *3888:A2 I *D sky130_fd_sc_hd__a32o_2
*I *3874:A I *D sky130_fd_sc_hd__nand2_2
*I *4366:A2 I *D sky130_fd_sc_hd__o21a_2
*I *3872:X O *D sky130_fd_sc_hd__mux2_1
*CAP
1 *3888:A2 0.000121879
2 *3874:A 0
3 *4366:A2 0.000469478
4 *3872:X 0.000136654
5 *112:25 0.000319688
6 *112:8 0.000803941
7 *3888:A2 *3874:B 5.49995e-05
8 *3888:A2 *3888:A3 0.000163863
9 *3888:A2 *113:21 3.14003e-05
10 *3888:A2 *114:8 2.71964e-05
11 *4366:A2 *3875:C 5.35516e-05
12 *4366:A2 *4366:A1 0.000324167
13 *4366:A2 *4367:A2 0
14 *4366:A2 *113:21 0
15 *4366:A2 *115:12 0.00023857
16 *4366:A2 *707:10 0
17 *112:8 *665:14 0.000273269
18 *112:8 *707:8 5.52238e-05
19 *112:25 *3874:B 3.15034e-05
20 *112:25 *3875:C 2.8266e-06
21 *112:25 *4724:A 0.000148651
22 *112:25 *114:8 1.46893e-05
23 *112:25 *665:14 0.00020278
*RES
1 *3872:X *112:8 16.8 
2 *112:8 *4366:A2 25.1571 
3 *112:8 *112:25 9.25 
4 *112:25 *3874:A 9.3 
5 *112:25 *3888:A2 21.3893 
*END

*D_NET *113 0.00380689
*CONN
*I *3888:A3 I *D sky130_fd_sc_hd__a32o_2
*I *3874:B I *D sky130_fd_sc_hd__nand2_2
*I *4367:A2 I *D sky130_fd_sc_hd__o21a_2
*I *3873:X O *D sky130_fd_sc_hd__mux2_1
*CAP
1 *3888:A3 8.93636e-05
2 *3874:B 6.39675e-05
3 *4367:A2 0.000394554
4 *3873:X 0.00047655
5 *113:21 0.000630704
6 *113:8 0.00134848
7 *3874:B *114:36 0.000137639
8 *4367:A2 *4366:A1 0
9 *4367:A2 *4367:A1 0
10 *4367:A2 *4367:B1 0.00010096
11 *4367:A2 *4795:A 0
12 *113:8 *4366:A1 6.38036e-05
13 *113:8 *4786:A 9.40011e-05
14 *113:21 *3875:C 5.35516e-05
15 *113:21 *4640:A 0
16 *113:21 *114:8 7.15468e-05
17 *3888:A2 *3874:B 5.49995e-05
18 *3888:A2 *3888:A3 0.000163863
19 *3888:A2 *113:21 3.14003e-05
20 *4366:A2 *4367:A2 0
21 *4366:A2 *113:21 0
22 *4429:D *4367:A2 0
23 *112:25 *3874:B 3.15034e-05
*RES
1 *3873:X *113:8 19.675 
2 *113:8 *4367:A2 20.4429 
3 *113:8 *113:21 9.23214 
4 *113:21 *3874:B 15.5857 
5 *113:21 *3888:A3 16.05 
*END

*D_NET *114 0.00671681
*CONN
*I *3890:B I *D sky130_fd_sc_hd__and2_2
*I *4368:A2 I *D sky130_fd_sc_hd__a221o_2
*I *4074:A I *D sky130_fd_sc_hd__or2_2
*I *4085:B2 I *D sky130_fd_sc_hd__o2bb2a_2
*I *3875:C I *D sky130_fd_sc_hd__or3_2
*I *3874:Y O *D sky130_fd_sc_hd__nand2_2
*CAP
1 *3890:B 3.78187e-05
2 *4368:A2 0.000452329
3 *4074:A 0.000336683
4 *4085:B2 0.000533129
5 *3875:C 0.000322126
6 *3874:Y 0
7 *114:51 0.000594483
8 *114:36 0.000881891
9 *114:8 0.000992759
10 *114:4 0.000578377
11 *3875:C *115:12 1.92905e-05
12 *3890:B *3887:A1 4.84159e-05
13 *3890:B *126:10 1.98839e-05
14 *4074:A *3888:B2 2.79421e-05
15 *4074:A *4074:B 2.85234e-05
16 *4074:A *1024:29 1.58163e-05
17 *4085:B2 *4657:A 7.50473e-05
18 *4368:A2 *3887:A1 6.96806e-05
19 *4368:A2 *3887:B2 0
20 *4368:A2 *4368:A1 8.74117e-05
21 *4368:A2 *4398:A_N 1.46576e-05
22 *4368:A2 *123:67 0.000763446
23 *4368:A2 *126:10 6.05161e-06
24 *4368:A2 *456:12 0
25 *114:8 *4724:A 0.00011441
26 *114:36 *3888:A1 0
27 *114:36 *3888:B2 2.90582e-05
28 *114:36 *123:37 9.71799e-05
29 *114:51 *3888:A1 0
30 *114:51 *123:37 5.58875e-06
31 *114:51 *123:67 9.53894e-05
32 *114:51 *126:10 5.5764e-05
33 *3874:B *114:36 0.000137639
34 *3875:A *3875:C 3.93247e-05
35 *3875:B *3875:C 1.33343e-05
36 *3888:A2 *114:8 2.71964e-05
37 *4366:A2 *3875:C 5.35516e-05
38 *112:25 *3875:C 2.8266e-06
39 *112:25 *114:8 1.46893e-05
40 *113:21 *3875:C 5.35516e-05
41 *113:21 *114:8 7.15468e-05
*RES
1 *3874:Y *114:4 9.3 
2 *114:4 *114:8 7.96429 
3 *114:8 *3875:C 19.9964 
4 *114:8 *4085:B2 22.1393 
5 *114:4 *114:36 12.5893 
6 *114:36 *4074:A 19.2821 
7 *114:36 *114:51 7.05357 
8 *114:51 *4368:A2 29.6437 
9 *114:51 *3890:B 10.2464 
*END

*D_NET *115 0.00234685
*CONN
*I *4367:B1 I *D sky130_fd_sc_hd__o21a_2
*I *4366:B1 I *D sky130_fd_sc_hd__o21a_2
*I *3876:A I *D sky130_fd_sc_hd__inv_2
*I *3875:X O *D sky130_fd_sc_hd__or3_2
*CAP
1 *4367:B1 0.00014974
2 *4366:B1 0
3 *3876:A 0.000109097
4 *3875:X 0.000318101
5 *115:23 0.00017337
6 *115:12 0.000450828
7 *3876:A *4476:D 0.000125057
8 *4367:B1 *4476:D 3.14078e-05
9 *115:12 *4366:A1 0
10 *115:12 *4476:RESET_B 2.82057e-05
11 *115:12 *707:10 5.01213e-05
12 *115:12 *707:12 2.58997e-05
13 *115:23 *4476:D 1.74352e-05
14 *3875:C *115:12 1.92905e-05
15 *4366:A2 *115:12 0.00023857
16 *4367:A2 *4367:B1 0.00010096
17 *4428:D *115:12 0.000508764
*RES
1 *3875:X *115:12 27.7643 
2 *115:12 *3876:A 11.9071 
3 *115:12 *115:23 0.535714 
4 *115:23 *4366:B1 9.3 
5 *115:23 *4367:B1 12.3 
*END

*D_NET *116 0.00121526
*CONN
*I *4081:B I *D sky130_fd_sc_hd__nand2_2
*I *4080:A1 I *D sky130_fd_sc_hd__a21oi_2
*I *3877:X O *D sky130_fd_sc_hd__or3_2
*CAP
1 *4081:B 4.09455e-05
2 *4080:A1 0.000151642
3 *3877:X 0.00016843
4 *116:8 0.000361017
5 *4080:A1 *3877:A 0.000150618
6 *4080:A1 *4076:B 3.51442e-05
7 *4080:A1 *4079:A2 0
8 *4080:A1 *4480:CLK 5.83233e-05
9 *4080:A1 *272:20 0
10 *4080:A1 *999:16 4.00025e-05
11 *4081:B *4480:CLK 0.000128154
12 *4081:B *999:12 1.99099e-05
13 *4081:B *999:16 4.89264e-05
14 *116:8 *3877:C 3.69047e-06
15 *116:8 *4079:A2 8.46044e-06
*RES
1 *3877:X *116:8 15.5679 
2 *116:8 *4080:A1 17.2643 
3 *116:8 *4081:B 15.4429 
*END

*D_NET *117 0.00308593
*CONN
*I *3880:D I *D sky130_fd_sc_hd__or4_2
*I *3879:B I *D sky130_fd_sc_hd__or2_2
*I *4083:B I *D sky130_fd_sc_hd__nand2_2
*I *4082:A1 I *D sky130_fd_sc_hd__a21oi_2
*I *3878:X O *D sky130_fd_sc_hd__or4_2
*CAP
1 *3880:D 0.000213891
2 *3879:B 0
3 *4083:B 0.000121518
4 *4082:A1 7.79066e-05
5 *3878:X 0.000415139
6 *117:41 0.000271382
7 *117:28 0.000516241
8 *3880:D *3880:A 5.50052e-05
9 *3880:D *3880:B 0.000141433
10 *3880:D *4084:C 7.79781e-06
11 *3880:D *4483:RESET_B 0.000272984
12 *3880:D *119:10 8.50569e-05
13 *3880:D *272:12 0
14 *4082:A1 *4081:A 5.52302e-05
15 *4082:A1 *4480:RESET_B 0.000153054
16 *4082:A1 *998:36 5.57914e-05
17 *4083:B *4084:C 0.000175502
18 *4083:B *1004:10 4.01768e-05
19 *117:28 *3878:A 2.89016e-05
20 *117:28 *3878:B 2.65105e-05
21 *117:28 *3878:C 5.30637e-06
22 *117:28 *4077:A1 0.000126439
23 *117:28 *4084:C 2.19778e-05
24 *117:28 *272:12 0
25 *117:41 *4084:C 6.39262e-05
26 *117:41 *4483:RESET_B 0.000154762
*RES
1 *3878:X *4082:A1 30.0821 
2 *3878:X *117:28 19.6393 
3 *117:28 *4083:B 17.2286 
4 *117:28 *117:41 2.25 
5 *117:41 *3879:B 13.8 
6 *117:41 *3880:D 19.675 
*END

*D_NET *118 0.00337134
*CONN
*I *4084:A I *D sky130_fd_sc_hd__nand3_2
*I *4086:A2 I *D sky130_fd_sc_hd__o21ai_2
*I *4087:A2 I *D sky130_fd_sc_hd__o21ai_2
*I *4085:A2_N I *D sky130_fd_sc_hd__o2bb2a_2
*I *3879:X O *D sky130_fd_sc_hd__or2_2
*CAP
1 *4084:A 0
2 *4086:A2 0.000141366
3 *4087:A2 0.000444108
4 *4085:A2_N 3.92518e-05
5 *3879:X 0.000223355
6 *118:25 0.000640251
7 *118:14 0.000553149
8 *118:8 0.000682474
9 *4085:A2_N *4657:A 5.50052e-05
10 *4086:A2 *4086:B1 2.3942e-05
11 *4086:A2 *4482:CLK 0.000104896
12 *4087:A2 *4482:CLK 3.4689e-05
13 *4087:A2 *4482:SET_B 0.000263791
14 *4087:A2 *1003:6 3.11088e-05
15 *118:8 *4084:B 5.33005e-05
16 *118:8 *4084:C 5.71472e-05
17 *118:14 *4086:B1 2.53112e-06
18 *118:14 *4640:A 0
19 *118:14 *487:73 0
20 *118:25 *4086:B1 2.09722e-05
*RES
1 *3879:X *118:8 13.1393 
2 *118:8 *118:14 12.1964 
3 *118:14 *4085:A2_N 14.3357 
4 *118:14 *118:25 1.03571 
5 *118:25 *4087:A2 20.1214 
6 *118:25 *4086:A2 17.2643 
7 *118:8 *4084:A 9.3 
*END

*D_NET *119 0.00460755
*CONN
*I *3882:C I *D sky130_fd_sc_hd__or3_2
*I *3881:B I *D sky130_fd_sc_hd__or2_2
*I *4090:A2 I *D sky130_fd_sc_hd__a21o_2
*I *4088:A1 I *D sky130_fd_sc_hd__a21oi_2
*I *3880:X O *D sky130_fd_sc_hd__or4_2
*CAP
1 *3882:C 0.000289252
2 *3881:B 0
3 *4090:A2 0
4 *4088:A1 2.50978e-05
5 *3880:X 0.0005977
6 *119:34 0.000350001
7 *119:25 0.000225131
8 *119:10 0.00078718
9 *3882:C *3881:A 0
10 *3882:C *3882:A 0.000175519
11 *3882:C *4089:A 2.33087e-05
12 *3882:C *4089:B 1.62025e-05
13 *3882:C *4090:B1 0.000236129
14 *3882:C *4092:A2 0
15 *3882:C *4794:A 1.41029e-05
16 *4088:A1 *4088:A2 5.49995e-05
17 *119:10 *3880:A 0.000185408
18 *119:10 *3880:B 5.67351e-05
19 *119:10 *3880:C 2.60984e-05
20 *119:10 *4088:A2 6.44649e-05
21 *119:10 *4481:SET_B 0.000335947
22 *119:10 *4483:RESET_B 4.83849e-05
23 *119:10 *1003:35 6.44649e-05
24 *119:25 *4075:A 4.36699e-05
25 *119:25 *4089:B 2.59355e-05
26 *119:25 *4090:B1 5.33005e-05
27 *119:25 *4481:SET_B 0.000387072
28 *119:25 *123:10 0.000185216
29 *119:34 *4089:B 0.000128111
30 *119:34 *4090:B1 0.000123059
31 *3880:D *119:10 8.50569e-05
*RES
1 *3880:X *119:10 24.4607 
2 *119:10 *4088:A1 14.3357 
3 *119:10 *119:25 10.0179 
4 *119:25 *4090:A2 9.3 
5 *119:25 *119:34 2.60714 
6 *119:34 *3881:B 9.3 
7 *119:34 *3882:C 25.1571 
*END

*D_NET *120 0.00229062
*CONN
*I *4089:A I *D sky130_fd_sc_hd__nand2_2
*I *4092:A2 I *D sky130_fd_sc_hd__a21o_2
*I *3881:X O *D sky130_fd_sc_hd__or2_2
*CAP
1 *4089:A 0.000210216
2 *4092:A2 0.00032885
3 *3881:X 0.000539065
4 *4089:A *4089:B 0.000219103
5 *4089:A *4090:B1 1.19813e-05
6 *4092:A2 *3881:A 8.79078e-05
7 *4092:A2 *4092:A1 0.000137437
8 *4092:A2 *4481:SET_B 0.000120368
9 *4092:A2 *4486:RESET_B 1.08359e-05
10 *4092:A2 *708:10 0.000420776
11 *4092:A2 *710:26 0.00018077
12 *3882:C *4089:A 2.33087e-05
13 *3882:C *4092:A2 0
*RES
1 *3881:X *4092:A2 36.6893 
2 *3881:X *4089:A 22.225 
*END

*D_NET *121 0.00466766
*CONN
*I *4093:B I *D sky130_fd_sc_hd__and3_2
*I *3884:B I *D sky130_fd_sc_hd__or2_2
*I *3883:B I *D sky130_fd_sc_hd__nor2_2
*I *4091:A I *D sky130_fd_sc_hd__nand2_2
*I *3882:X O *D sky130_fd_sc_hd__or3_2
*CAP
1 *4093:B 0
2 *3884:B 0.000238907
3 *3883:B 0
4 *4091:A 0
5 *3882:X 0.00107496
6 *121:32 0.000571918
7 *121:19 0.000464884
8 *121:10 0.00120683
9 *3884:B *3871:A1 0.00036192
10 *3884:B *3884:A 5.71472e-05
11 *3884:B *4486:CLK 0
12 *3884:B *4857:A 0.000192489
13 *3884:B *123:10 0
14 *121:10 *4485:CLK 4.01768e-05
15 *121:10 *271:56 4.25809e-05
16 *121:10 *486:10 0
17 *121:10 *1006:6 1.67276e-05
18 *121:19 *4093:C 5.88692e-05
19 *121:19 *4486:CLK 3.51442e-05
20 *121:19 *271:56 1.19309e-05
21 *121:19 *486:8 0
22 *121:19 *486:10 0
23 *121:32 *3871:B1 0
24 *121:32 *4093:C 4.0552e-05
25 *121:32 *4486:CLK 0.000252623
26 *121:32 *486:8 0
*RES
1 *3882:X *121:10 26.6571 
2 *121:10 *4091:A 13.8 
3 *121:10 *121:19 2.85714 
4 *121:19 *3883:B 13.8 
5 *121:19 *121:32 10.25 
6 *121:32 *3884:B 24.7821 
7 *121:32 *4093:B 9.3 
*END

*D_NET *122 0.0026148
*CONN
*I *3891:A2 I *D sky130_fd_sc_hd__a21o_2
*I *3889:B1 I *D sky130_fd_sc_hd__a2bb2o_2
*I *3883:Y O *D sky130_fd_sc_hd__nor2_2
*CAP
1 *3891:A2 0
2 *3889:B1 0.000462129
3 *3883:Y 0.000270103
4 *122:8 0.000732231
5 *3889:B1 *3871:B1 0
6 *3889:B1 *3889:B2 0.00065196
7 *3889:B1 *3891:A1 5.58941e-05
8 *3889:B1 *4389:A2_N 0.000200406
9 *3889:B1 *715:8 1.58163e-05
10 *122:8 *3891:A1 5.33005e-05
11 *122:8 *3891:B1 3.99614e-06
12 *122:8 *4733:A 5.75275e-05
13 *122:8 *716:22 0.000111439
*RES
1 *3883:Y *122:8 14.3714 
2 *122:8 *3889:B1 28.3714 
3 *122:8 *3891:A2 9.3 
*END

*D_NET *123 0.0128561
*CONN
*I *4390:A2 I *D sky130_fd_sc_hd__a21oi_2
*I *3886:B I *D sky130_fd_sc_hd__nor3_2
*I *4368:B1 I *D sky130_fd_sc_hd__a221o_2
*I *3888:B1 I *D sky130_fd_sc_hd__a32o_2
*I *3887:A2 I *D sky130_fd_sc_hd__a22o_2
*I *4075:A I *D sky130_fd_sc_hd__nand2_2
*I *3884:X O *D sky130_fd_sc_hd__or2_2
*CAP
1 *4390:A2 0.000161376
2 *3886:B 0.000349419
3 *4368:B1 7.33439e-05
4 *3888:B1 0
5 *3887:A2 0.000343987
6 *4075:A 0.000188652
7 *3884:X 0.000758311
8 *123:88 0.000919463
9 *123:67 0.000860611
10 *123:37 0.000591141
11 *123:27 0.0018292
12 *123:10 0.00215041
13 *3886:B *3886:C 3.18676e-05
14 *3886:B *125:10 0.000318101
15 *3887:A2 *3887:A1 1.43743e-05
16 *3887:A2 *3888:B2 6.70812e-05
17 *3887:A2 *4412:CLK 0.000101804
18 *3887:A2 *4724:A 0.000169903
19 *4075:A *271:43 0
20 *4075:A *272:10 9.84673e-05
21 *4368:B1 *4368:A1 4.81734e-05
22 *4368:B1 *4398:A_N 1.21258e-05
23 *4368:B1 *716:22 1.77538e-05
24 *4390:A2 *4390:A1 3.37555e-05
25 *4390:A2 *443:6 5.71472e-05
26 *4390:A2 *709:40 0.000100831
27 *123:10 *3884:A 0
28 *123:10 *4090:A1 7.89362e-05
29 *123:10 *4093:C 0
30 *123:10 *4430:RESET_B 0
31 *123:10 *4481:SET_B 3.17203e-05
32 *123:10 *4485:SET_B 0.000100823
33 *123:10 *4486:CLK 0
34 *123:10 *4486:D 0
35 *123:10 *4486:RESET_B 0.000288316
36 *123:10 *4725:A 7.76316e-05
37 *123:10 *4857:A 5.52302e-05
38 *123:10 *271:43 0
39 *123:10 *271:56 0
40 *123:10 *708:10 0.000141988
41 *123:10 *1007:19 0
42 *123:37 *3888:B2 0.000257905
43 *123:67 *4073:A 0.000410634
44 *123:67 *126:10 0.000119583
45 *123:67 *431:10 4.1331e-06
46 *123:67 *456:12 0
47 *123:67 *716:41 4.56437e-05
48 *123:88 *125:10 5.83233e-05
49 *123:88 *431:10 0.000109239
50 *123:88 *709:33 5.83304e-05
51 *123:88 *709:40 2.31791e-05
52 *123:88 *716:41 0.000128154
53 *123:88 *716:52 0.000187733
54 *3884:B *123:10 0
55 *4368:A2 *123:67 0.000763446
56 *4446:D *3887:A2 0.000173021
57 *4447:D *3887:A2 1.77958e-05
58 *114:36 *123:37 9.71799e-05
59 *114:51 *123:37 5.58875e-06
60 *114:51 *123:67 9.53894e-05
61 *119:25 *4075:A 4.36699e-05
62 *119:25 *123:10 0.000185216
*RES
1 *3884:X *123:10 30.7018 
2 *123:10 *4075:A 17.3804 
3 *123:10 *123:27 9.31727 
4 *123:27 *123:37 10.4375 
5 *123:37 *3887:A2 26.733 
6 *123:37 *3888:B1 9.3 
7 *123:27 *123:67 12.7232 
8 *123:67 *4368:B1 15.0679 
9 *123:67 *123:88 17.9286 
10 *123:88 *3886:B 19.3 
11 *123:88 *4390:A2 16.6393 
*END

*D_NET *124 0.00223878
*CONN
*I *3886:C I *D sky130_fd_sc_hd__nor3_2
*I *4395:A2 I *D sky130_fd_sc_hd__a21bo_2
*I *3885:Y O *D sky130_fd_sc_hd__nand3_2
*CAP
1 *3886:C 0.00039913
2 *4395:A2 0
3 *3885:Y 0.000196191
4 *124:10 0.000595321
5 *3886:C *4391:A2 6.05161e-06
6 *3886:C *4396:B1 6.42242e-05
7 *124:10 *3834:A 5.7616e-05
8 *124:10 *3885:B 7.61932e-05
9 *124:10 *4392:A2 0.00018372
10 *124:10 *4397:B 0
11 *124:10 *4399:B1 0.000142856
12 *124:10 *715:31 2.89016e-05
13 *124:10 *715:44 0.000153047
14 *3886:B *3886:C 3.18676e-05
15 *4391:A1 *3886:C 0.000140368
16 *83:10 *3886:C 1.02504e-05
17 *83:10 *124:10 0.000153047
*RES
1 *3885:Y *124:10 20.0679 
2 *124:10 *4395:A2 13.8 
3 *124:10 *3886:C 20.8179 
*END

*D_NET *125 0.00302689
*CONN
*I *3889:A2_N I *D sky130_fd_sc_hd__a2bb2o_2
*I *4398:C I *D sky130_fd_sc_hd__and4bb_2
*I *3887:B1 I *D sky130_fd_sc_hd__a22o_2
*I *3886:Y O *D sky130_fd_sc_hd__nor3_2
*CAP
1 *3889:A2_N 3.72884e-05
2 *4398:C 4.12137e-05
3 *3887:B1 0.000413978
4 *3886:Y 0.000216473
5 *125:12 0.000526085
6 *125:10 0.000324655
7 *3887:B1 *3887:B2 4.038e-06
8 *3887:B1 *4398:B_N 5.7616e-05
9 *3887:B1 *4445:CLK 0
10 *3887:B1 *4447:CLK 0
11 *3887:B1 *4724:A 0.000390114
12 *3887:B1 *449:192 0
13 *3887:B1 *709:33 0.000173255
14 *4398:C *715:25 1.24368e-05
15 *4398:C *715:31 5.52238e-05
16 *125:10 *4445:CLK 0
17 *125:10 *709:33 0.000104002
18 *125:12 *4445:CLK 0
19 *125:12 *709:33 6.5185e-05
20 *3886:B *125:10 0.000318101
21 *4445:D *125:10 4.57445e-05
22 *4447:D *3887:B1 0.000183157
23 *123:88 *125:10 5.83233e-05
*RES
1 *3886:Y *125:10 19.9607 
2 *125:10 *125:12 1.64286 
3 *125:12 *3887:B1 23.9429 
4 *125:12 *4398:C 14.3357 
5 *125:10 *3889:A2_N 14.3357 
*END

*D_NET *126 0.0051867
*CONN
*I *4389:A1_N I *D sky130_fd_sc_hd__a2bb2o_2
*I *3891:B1 I *D sky130_fd_sc_hd__a21o_2
*I *4398:B_N I *D sky130_fd_sc_hd__and4bb_2
*I *3890:X O *D sky130_fd_sc_hd__and2_2
*CAP
1 *4389:A1_N 0.000357781
2 *3891:B1 0.000110003
3 *4398:B_N 0.000286856
4 *3890:X 0.000321329
5 *126:12 0.000396859
6 *126:10 0.00067911
7 *3891:B1 *4368:C1 5.7661e-06
8 *3891:B1 *4398:A_N 5.33005e-05
9 *3891:B1 *4733:A 0
10 *3891:B1 *716:22 0.000127944
11 *3891:B1 *1025:34 4.08637e-05
12 *4389:A1_N *4073:A 2.39876e-05
13 *4389:A1_N *4369:B 0.000143804
14 *4389:A1_N *4370:B 0.000148189
15 *4389:A1_N *4387:B 6.05161e-06
16 *4389:A1_N *4639:A 0.000195555
17 *4389:A1_N *433:14 0
18 *4389:A1_N *650:25 6.8824e-06
19 *4389:A1_N *716:41 9.4736e-05
20 *4389:A1_N *716:52 0.000311655
21 *4389:A1_N *1024:44 0
22 *4389:A1_N *1024:57 0
23 *4398:B_N *4398:A_N 0.000514617
24 *4398:B_N *709:33 5.59013e-05
25 *126:10 *3888:A1 1.75535e-05
26 *126:10 *4073:A 0.000109957
27 *126:10 *4639:A 0.000526822
28 *126:10 *4779:A 1.27e-05
29 *126:10 *1022:31 4.95689e-05
30 *3887:B1 *4398:B_N 5.7616e-05
31 *3890:B *126:10 1.98839e-05
32 *4368:A2 *126:10 6.05161e-06
33 *4444:D *3891:B1 0.000124521
34 *4444:D *4398:B_N 5.33005e-05
35 *4444:D *126:10 0.000148189
36 *114:51 *126:10 5.5764e-05
37 *122:8 *3891:B1 3.99614e-06
38 *123:67 *126:10 0.000119583
*RES
1 *3890:X *126:10 24.175 
2 *126:10 *126:12 4.5 
3 *126:12 *4398:B_N 24.0857 
4 *126:12 *3891:B1 12.4607 
5 *126:10 *4389:A1_N 24.2732 
*END

*D_NET *127 0.00208789
*CONN
*I *4352:A2 I *D sky130_fd_sc_hd__o21a_2
*I *3912:A3 I *D sky130_fd_sc_hd__o311a_2
*I *4356:A2 I *D sky130_fd_sc_hd__o21a_2
*I *3892:Y O *D sky130_fd_sc_hd__nand2_2
*CAP
1 *4352:A2 5.70281e-05
2 *3912:A3 4.2524e-05
3 *4356:A2 5.95761e-05
4 *3892:Y 0.000242436
5 *127:12 0.000285973
6 *127:8 0.000483337
7 *3912:A3 *3912:A1 0.00010946
8 *3912:A3 *3913:B2 0.00014285
9 *3912:A3 *4701:A 1.21289e-05
10 *4352:A2 *4352:B1 0.000225609
11 *4356:A2 *3913:B2 2.44318e-05
12 *4356:A2 *4701:A 7.03295e-05
13 *127:8 *3911:D 1.76135e-05
14 *127:8 *3912:C1 0
15 *127:8 *4845:A 0
16 *127:12 *3912:C1 0
17 *127:12 *4846:A 6.07626e-05
18 *127:12 *739:8 1.19402e-05
19 *4350:A3 *127:8 0
20 *4352:A1 *127:12 0
21 *4354:A3 *127:12 0
22 *4356:A1 *4356:A2 5.71472e-05
23 *107:47 *127:12 0
24 *111:28 *4352:A2 0.000184745
*RES
1 *3892:Y *127:8 17.8714 
2 *127:8 *127:12 7.66071 
3 *127:12 *4356:A2 11.0679 
4 *127:12 *3912:A3 11.0857 
5 *127:8 *4352:A2 15.9786 
*END

*D_NET *128 0.000589961
*CONN
*I *3905:B1 I *D sky130_fd_sc_hd__a31o_2
*I *3893:X O *D sky130_fd_sc_hd__o311a_2
*CAP
1 *3905:B1 0.000137924
2 *3893:X 0.000137924
3 *3905:B1 *3893:C1 0.000314114
*RES
1 *3893:X *3905:B1 22.0107 
*END

*D_NET *129 0.00552101
*CONN
*I *3895:D I *D sky130_fd_sc_hd__or4_2
*I *3894:Y O *D sky130_fd_sc_hd__nor2_2
*CAP
1 *3895:D 0.00247974
2 *3894:Y 0.00247974
3 *3895:D *3894:A 5.62995e-05
4 *3895:D *3895:A 3.99614e-06
5 *3895:D *3913:A1 9.41642e-05
6 *3895:D *3913:A2 8.7636e-06
7 *3895:D *4416:D 5.33005e-05
8 *3895:D *4474:RESET_B 4.85567e-05
9 *3895:D *4691:A 0.000102197
10 *3895:D *732:10 5.52238e-05
11 *3895:D *758:12 0.000139028
*RES
1 *3894:Y *3895:D 48.6 
*END

*D_NET *130 0.00128046
*CONN
*I *3906:D_N I *D sky130_fd_sc_hd__or4b_2
*I *3895:X O *D sky130_fd_sc_hd__or4_2
*CAP
1 *3906:D_N 0.000176045
2 *3895:X 0.000176045
3 *3906:D_N *3904:A_N 1.71697e-05
4 *3906:D_N *3906:A 0.000223675
5 *3906:D_N *138:25 0.000178847
6 *3906:D_N *670:10 2.87584e-05
7 *3906:D_N *670:23 0.000177941
8 *3906:D_N *670:25 0.000127446
9 *3906:D_N *672:37 0
10 *87:14 *3906:D_N 0.000106542
11 *87:30 *3906:D_N 6.79873e-05
*RES
1 *3895:X *3906:D_N 34.1536 
*END

*D_NET *131 0.00485987
*CONN
*I *4056:A I *D sky130_fd_sc_hd__or2_2
*I *4055:A I *D sky130_fd_sc_hd__nor2_2
*I *4050:A1 I *D sky130_fd_sc_hd__o21a_2
*I *4051:A1 I *D sky130_fd_sc_hd__o21a_2
*I *3896:Y O *D sky130_fd_sc_hd__nand2_2
*CAP
1 *4056:A 0.000262234
2 *4055:A 2.23854e-05
3 *4050:A1 2.83028e-05
4 *4051:A1 6.50508e-05
5 *3896:Y 0
6 *131:26 0.000937881
7 *131:17 0.000746456
8 *131:4 0.000129943
9 *4051:A1 *4047:B 1.02504e-05
10 *4051:A1 *4051:B1 4.94362e-05
11 *4051:A1 *259:50 0.000149911
12 *4056:A *4055:B 0
13 *4056:A *4058:A2 2.49484e-05
14 *4056:A *4058:A3 0.000225822
15 *4056:A *4059:B1 0.000186662
16 *4056:A *4753:A 6.69778e-05
17 *4056:A *4759:A 8.6229e-06
18 *4056:A *691:32 0.000146523
19 *131:17 *4050:B1 1.98839e-05
20 *131:17 *259:50 0.000269428
21 *131:26 *3902:C_N 3.65607e-05
22 *131:26 *4050:B1 0.000170964
23 *131:26 *686:10 5.33005e-05
24 *131:26 *691:32 0.000938031
25 *3896:B *131:17 0.000310292
*RES
1 *3896:Y *131:4 9.3 
2 *131:4 *4051:A1 20.2464 
3 *131:4 *131:17 3 
4 *131:17 *4050:A1 9.72857 
5 *131:17 *131:26 14.0893 
6 *131:26 *4055:A 9.72857 
7 *131:26 *4056:A 25.5679 
*END

*D_NET *132 0.00331895
*CONN
*I *3905:A3 I *D sky130_fd_sc_hd__a31o_2
*I *3897:X O *D sky130_fd_sc_hd__o21a_2
*CAP
1 *3905:A3 0.00117393
2 *3897:X 0.00117393
3 *3905:A3 *3901:B 0.00014852
4 *3905:A3 *3904:B 1.06172e-05
5 *3905:A3 *668:25 0.000481793
6 *3905:A3 *668:29 0.000282964
7 *3905:A3 *668:31 4.71921e-05
*RES
1 *3897:X *3905:A3 44.4571 
*END

*D_NET *133 0.00258685
*CONN
*I *3900:C I *D sky130_fd_sc_hd__and4_2
*I *3898:X O *D sky130_fd_sc_hd__or3_2
*CAP
1 *3900:C 0.000733896
2 *3898:X 0.000733896
3 *3900:C *3898:C 0.000202835
4 *3900:C *3899:A 6.58195e-05
5 *3900:C *3899:C_N 0
6 *3900:C *3900:D 9.90431e-05
7 *3900:C *3906:A 2.14658e-05
8 *3900:C *4649:A 2.89114e-05
9 *3900:C *4746:A 0.000129868
10 *3900:C *266:10 0.000571118
*RES
1 *3898:X *3900:C 40.975 
*END

*D_NET *134 0.000723425
*CONN
*I *3900:D I *D sky130_fd_sc_hd__and4_2
*I *3899:X O *D sky130_fd_sc_hd__or3b_2
*CAP
1 *3900:D 0.000118106
2 *3899:X 0.000118106
3 *3900:D *3899:A 2.72449e-05
4 *3900:D *3899:B 0.000150348
5 *3900:D *3899:C_N 3.40128e-05
6 *3900:D *3906:A 9.84729e-05
7 *3900:D *261:41 7.80914e-05
8 *3900:C *3900:D 9.90431e-05
*RES
1 *3899:X *3900:D 32.0107 
*END

*D_NET *135 0.00219607
*CONN
*I *3906:A I *D sky130_fd_sc_hd__or4b_2
*I *3900:X O *D sky130_fd_sc_hd__and4_2
*CAP
1 *3906:A 0.000571281
2 *3900:X 0.000571281
3 *3906:A *3900:A 0.00022887
4 *3906:A *3903:A_N 5.50052e-05
5 *3906:A *3903:B 1.74352e-05
6 *3906:A *138:25 4.43256e-05
7 *3906:A *670:10 9.02232e-05
8 *3900:B *3906:A 0.000274036
9 *3900:C *3906:A 2.14658e-05
10 *3900:D *3906:A 9.84729e-05
11 *3906:D_N *3906:A 0.000223675
*RES
1 *3900:X *3906:A 30.6714 
*END

*D_NET *136 0.00126272
*CONN
*I *3904:C I *D sky130_fd_sc_hd__and3b_2
*I *3901:X O *D sky130_fd_sc_hd__or3_2
*CAP
1 *3904:C 0.000126742
2 *3901:X 0.000126742
3 *3904:C *3837:A 0.000163107
4 *3904:C *3904:A_N 0.000181107
5 *3904:C *666:64 0.000174544
6 *3905:A2 *3904:C 0.000490482
*RES
1 *3901:X *3904:C 33.3009 
*END

*D_NET *137 0.00273246
*CONN
*I *3904:B I *D sky130_fd_sc_hd__and3b_2
*I *3902:X O *D sky130_fd_sc_hd__or3b_2
*CAP
1 *3904:B 0.000714395
2 *3902:X 0.000714395
3 *3904:B *3837:A 0.000186293
4 *3904:B *3893:C1 3.02892e-05
5 *3904:B *3906:B 0.000303705
6 *3904:B *4583:CLK 0
7 *3904:B *4738:A 0.000102004
8 *3904:B *259:38 0
9 *3904:B *265:12 0.000282044
10 *3904:B *449:113 0
11 *3904:B *463:8 0.000102545
12 *3896:B *3904:B 0
13 *3905:A1 *3904:B 0.000194527
14 *3905:A2 *3904:B 9.16418e-05
15 *3905:A3 *3904:B 1.06172e-05
*RES
1 *3902:X *3904:B 45.4571 
*END

*D_NET *138 0.00730027
*CONN
*I *3909:C I *D sky130_fd_sc_hd__or3_2
*I *4351:A2 I *D sky130_fd_sc_hd__o21a_2
*I *4355:A2 I *D sky130_fd_sc_hd__o21a_2
*I *3904:A_N I *D sky130_fd_sc_hd__and3b_2
*I *3903:Y O *D sky130_fd_sc_hd__nand2b_2
*CAP
1 *3909:C 6.53371e-05
2 *4351:A2 1.51658e-05
3 *4355:A2 0.000295997
4 *3904:A_N 0.000444059
5 *3903:Y 0
6 *138:40 0.000222033
7 *138:25 0.0014528
8 *138:4 0.00145933
9 *3904:A_N *3837:A 5.33005e-05
10 *3904:A_N *666:64 0.000115208
11 *3904:A_N *672:37 0
12 *3909:C *3909:A 4.43256e-05
13 *4351:A2 *3909:A 1.04232e-05
14 *4355:A2 *4355:B1 7.8327e-05
15 *138:25 *3895:B 0.00020455
16 *138:25 *3903:B 5.52238e-05
17 *138:25 *3912:C1 0
18 *138:25 *3913:A1 8.22896e-05
19 *138:25 *3913:B2 0.000612646
20 *138:25 *4352:B1 0
21 *138:25 *4354:A2 0
22 *138:25 *494:23 0
23 *138:25 *494:32 0
24 *138:25 *666:14 0.000223599
25 *138:25 *666:58 0.00012401
26 *138:25 *670:10 0.000219711
27 *138:25 *735:12 0
28 *138:40 *3909:A 0.000163313
29 *3904:C *3904:A_N 0.000181107
30 *3906:A *138:25 4.43256e-05
31 *3906:D_N *3904:A_N 1.71697e-05
32 *3906:D_N *138:25 0.000178847
33 *4355:A1 *4355:A2 0.00015234
34 *4418:D *4355:A2 7.83659e-05
35 *87:14 *138:25 0.000334053
36 *107:47 *4355:A2 0.00034085
37 *107:47 *138:25 3.15645e-05
38 *107:47 *138:40 0
*RES
1 *3903:Y *138:4 9.3 
2 *138:4 *3904:A_N 26.5857 
3 *138:4 *138:25 31.4286 
4 *138:25 *4355:A2 21.8179 
5 *138:25 *138:40 6.80357 
6 *138:40 *4351:A2 9.72857 
7 *138:40 *3909:C 10.675 
*END

*D_NET *139 0.000750874
*CONN
*I *3906:C I *D sky130_fd_sc_hd__or4b_2
*I *3904:X O *D sky130_fd_sc_hd__and3b_2
*CAP
1 *3906:C 0.000112584
2 *3904:X 0.000112584
3 *3906:C *3906:B 0.000310117
4 *3906:C *4064:B1 0.000168503
5 *86:8 *3906:C 4.70865e-05
*RES
1 *3904:X *3906:C 31.6714 
*END

*D_NET *140 0.0016075
*CONN
*I *3906:B I *D sky130_fd_sc_hd__or4b_2
*I *3905:X O *D sky130_fd_sc_hd__a31o_2
*CAP
1 *3906:B 0.000394347
2 *3905:X 0.000394347
3 *3906:B *3913:A2 0.000193727
4 *3906:B *4064:B1 1.12578e-05
5 *3904:B *3906:B 0.000303705
6 *3906:C *3906:B 0.000310117
7 *86:8 *3906:B 0
*RES
1 *3905:X *3906:B 35.8857 
*END

*D_NET *141 0.00104461
*CONN
*I *3913:A1 I *D sky130_fd_sc_hd__a22o_2
*I *3906:X O *D sky130_fd_sc_hd__or4b_2
*CAP
1 *3913:A1 0.000228504
2 *3906:X 0.000228504
3 *3913:A1 *3895:B 5.01117e-05
4 *3913:A1 *3913:A2 4.8299e-05
5 *3913:A1 *3913:B1 0.000312736
6 *3913:A1 *666:58 0
7 *3895:D *3913:A1 9.41642e-05
8 *138:25 *3913:A1 8.22896e-05
*RES
1 *3906:X *3913:A1 33.8321 
*END

*D_NET *142 0.00548284
*CONN
*I *4047:A I *D sky130_fd_sc_hd__or2_2
*I *3908:D I *D sky130_fd_sc_hd__or4_2
*I *4054:A1 I *D sky130_fd_sc_hd__o21a_2
*I *4053:A1 I *D sky130_fd_sc_hd__o21a_2
*I *3907:Y O *D sky130_fd_sc_hd__nand2_2
*CAP
1 *4047:A 0.000144445
2 *3908:D 8.20966e-05
3 *4054:A1 0.000168975
4 *4053:A1 0.000125966
5 *3907:Y 3.68251e-05
6 *142:20 0.000847231
7 *142:14 0.00107782
8 *142:8 0.000624702
9 *3908:D *3899:B 4.28167e-05
10 *3908:D *3908:B 2.29031e-05
11 *3908:D *4735:A 3.75868e-05
12 *4047:A *3908:C 4.79282e-05
13 *4047:A *4047:B 1.32293e-05
14 *4047:A *4457:CLK 7.79481e-05
15 *4053:A1 *4053:A2 0.000111329
16 *4053:A1 *4053:B1 5.49995e-05
17 *4054:A1 *4054:A2 0.000340466
18 *4054:A1 *4054:B1 1.00887e-05
19 *4054:A1 *4467:CLK 9.84729e-05
20 *142:14 *3908:C 0.000145482
21 *142:14 *4457:CLK 9.14132e-05
22 *142:14 *4650:A 3.69047e-06
23 *142:14 *497:10 9.15842e-06
24 *142:14 *672:89 8.52031e-05
25 *142:20 *4053:A2 5.33005e-05
26 *142:20 *4054:A2 4.66056e-05
27 *142:20 *4650:A 4.04683e-05
28 *142:20 *4843:A 0.000525347
29 *142:20 *261:41 3.14003e-05
30 *4464:D *4054:A1 0.000306944
31 *4464:D *142:20 7.95286e-05
32 *4467:D *4054:A1 9.84729e-05
*RES
1 *3907:Y *142:8 14.3357 
2 *142:8 *142:14 13.0893 
3 *142:14 *142:20 12.6429 
4 *142:20 *4053:A1 16.3893 
5 *142:20 *4054:A1 19.7286 
6 *142:14 *3908:D 20.2464 
7 *142:8 *4047:A 17.1214 
*END

*D_NET *143 0.00324448
*CONN
*I *3913:A2 I *D sky130_fd_sc_hd__a22o_2
*I *3908:X O *D sky130_fd_sc_hd__or4_2
*CAP
1 *3913:A2 0.000942977
2 *3908:X 0.000942977
3 *3913:A2 *3913:B1 0.000335201
4 *3913:A2 *4064:A2 3.14161e-05
5 *3913:A2 *4064:B1 9.84673e-05
6 *3913:A2 *666:64 1.98839e-05
7 *3913:A2 *672:59 1.0484e-05
8 *3895:D *3913:A2 8.7636e-06
9 *3906:B *3913:A2 0.000193727
10 *3908:A *3913:A2 0.000185403
11 *3913:A1 *3913:A2 4.8299e-05
12 *86:8 *3913:A2 0
13 *87:34 *3913:A2 0.00042688
*RES
1 *3908:X *3913:A2 43.533 
*END

*D_NET *144 0.00236233
*CONN
*I *3912:B1 I *D sky130_fd_sc_hd__o311a_2
*I *3909:X O *D sky130_fd_sc_hd__or3_2
*CAP
1 *3912:B1 0.000551849
2 *3909:X 0.000551849
3 *3912:B1 *3912:A1 3.28977e-05
4 *3912:B1 *3913:B2 9.99644e-06
5 *3912:B1 *3918:B 5.52238e-05
6 *3912:B1 *4450:D 0
7 *3912:B1 *4701:A 0.000830717
8 *3912:B1 *4739:A 0.000195396
9 *3912:B1 *148:12 0.000108734
10 *3912:B1 *149:12 2.56694e-05
11 *3912:B1 *149:18 0
12 *111:28 *3912:B1 0
*RES
1 *3909:X *3912:B1 41.1714 
*END

*D_NET *145 0.00326725
*CONN
*I *3913:B1 I *D sky130_fd_sc_hd__a22o_2
*I *3910:X O *D sky130_fd_sc_hd__or4_2
*CAP
1 *3913:B1 0.00102573
2 *3910:X 0.00102573
3 *3913:B1 *3893:B1 0.000170955
4 *3913:B1 *3893:C1 0.000111811
5 *3913:B1 *3895:B 5.90443e-06
6 *3913:B1 *3910:A 1.98839e-05
7 *3913:B1 *3913:B2 5.80706e-06
8 *3913:B1 *4690:A 2.89016e-05
9 *3913:B1 *670:10 0.000224583
10 *3913:A1 *3913:B1 0.000312736
11 *3913:A2 *3913:B1 0.000335201
*RES
1 *3910:X *3913:B1 47.2964 
*END

*D_NET *146 0.00150951
*CONN
*I *3912:C1 I *D sky130_fd_sc_hd__o311a_2
*I *3911:X O *D sky130_fd_sc_hd__or4_2
*CAP
1 *3912:C1 0.000419146
2 *3911:X 0.000419146
3 *3912:C1 *3911:B 5.33005e-05
4 *3912:C1 *3911:D 0
5 *3912:C1 *4352:B1 0.000197977
6 *3912:C1 *4354:A2 0.00015134
7 *3912:C1 *4845:A 6.42242e-05
8 *3912:C1 *4846:A 5.94737e-05
9 *3912:C1 *670:31 0.000142082
10 *3912:C1 *739:8 2.8266e-06
11 *127:8 *3912:C1 0
12 *127:12 *3912:C1 0
13 *138:25 *3912:C1 0
*RES
1 *3911:X *3912:C1 37.0643 
*END

*D_NET *147 0.00359274
*CONN
*I *3913:B2 I *D sky130_fd_sc_hd__a22o_2
*I *3912:X O *D sky130_fd_sc_hd__o311a_2
*CAP
1 *3913:B2 0.000887547
2 *3912:X 0.000887547
3 *3913:B2 *3895:B 8.49318e-05
4 *3913:B2 *3912:A1 4.43256e-05
5 *3913:B2 *4469:D 0.000346639
6 *3913:B2 *4470:CLK 7.38652e-05
7 *3913:B2 *4739:A 0.000189345
8 *3913:B2 *148:12 0
9 *3913:B2 *494:32 0.000282811
10 *3912:A3 *3913:B2 0.00014285
11 *3912:B1 *3913:B2 9.99644e-06
12 *3913:B1 *3913:B2 5.80706e-06
13 *4356:A2 *3913:B2 2.44318e-05
14 *86:8 *3913:B2 0
15 *138:25 *3913:B2 0.000612646
*RES
1 *3912:X *3913:B2 49.4929 
*END

*D_NET *148 0.00417223
*CONN
*I *3918:B I *D sky130_fd_sc_hd__nor2_2
*I *3914:B I *D sky130_fd_sc_hd__and2_2
*I *3913:X O *D sky130_fd_sc_hd__a22o_2
*CAP
1 *3918:B 0.00041935
2 *3914:B 0
3 *3913:X 0.000479579
4 *148:12 0.000898929
5 *3918:B *3914:A 0.000271345
6 *3918:B *4700:A 6.98302e-05
7 *3918:B *4701:A 0.000161947
8 *3918:B *149:18 4.71964e-05
9 *3918:B *682:14 0.00031588
10 *3918:B *749:42 6.05161e-06
11 *148:12 *3954:B 0.000177234
12 *148:12 *4450:D 0.000393991
13 *148:12 *4470:CLK 0
14 *148:12 *4470:D 0.000320031
15 *148:12 *149:18 0
16 *148:12 *494:32 0
17 *3912:B1 *3918:B 5.52238e-05
18 *3912:B1 *148:12 0.000108734
19 *3913:B2 *148:12 0
20 *3953:A *148:12 0.000234523
21 *4448:D *3918:B 7.12595e-05
22 *86:8 *148:12 0.000141122
*RES
1 *3913:X *148:12 33.0321 
2 *148:12 *3914:B 9.3 
3 *148:12 *3918:B 28.8714 
*END

*D_NET *149 0.00416443
*CONN
*I *3917:B1 I *D sky130_fd_sc_hd__a21o_2
*I *4052:B I *D sky130_fd_sc_hd__or3_2
*I *4046:B I *D sky130_fd_sc_hd__or3_2
*I *3914:X O *D sky130_fd_sc_hd__and2_2
*CAP
1 *3917:B1 0.000645976
2 *4052:B 0.00012617
3 *4046:B 0
4 *3914:X 0.000301582
5 *149:18 0.000698408
6 *149:12 0.0015198
7 *3917:B1 *3916:A 2.89016e-05
8 *3917:B1 *3917:A1 2.28598e-05
9 *3917:B1 *3917:A2 0.000296915
10 *3917:B1 *4045:B 0.00010096
11 *3917:B1 *4450:RESET_B 5.33005e-05
12 *4052:B *4046:C 2.32625e-05
13 *4052:B *261:12 0.00010096
14 *149:12 *4450:D 8.00806e-05
15 *149:18 *4045:C_N 0
16 *149:18 *4700:A 0
17 *149:18 *258:12 0
18 *149:18 *259:8 0
19 *149:18 *261:12 0
20 *149:18 *748:52 0
21 *3912:B1 *149:12 2.56694e-05
22 *3912:B1 *149:18 0
23 *3918:B *149:18 4.71964e-05
24 *3953:A *149:18 0
25 *3:22 *3917:B1 9.23852e-05
26 *148:12 *149:18 0
*RES
1 *3914:X *149:12 22.3357 
2 *149:12 *149:18 18.8393 
3 *149:18 *4046:B 9.3 
4 *149:18 *4052:B 11.0679 
5 *149:12 *3917:B1 21.1036 
*END

*D_NET *150 0.00565613
*CONN
*I *3916:A I *D sky130_fd_sc_hd__inv_2
*I *3919:B1 I *D sky130_fd_sc_hd__a221o_2
*I *4207:B I *D sky130_fd_sc_hd__nand2_2
*I *3915:X O *D sky130_fd_sc_hd__mux2_1
*CAP
1 *3916:A 0.000115097
2 *3919:B1 0.000172454
3 *4207:B 0.00015583
4 *3915:X 0.000519616
5 *150:37 0.000513331
6 *150:18 0.000901226
7 *3916:A *3917:A2 5.71472e-05
8 *3916:A *749:8 0
9 *3919:B1 *3919:B2 2.51696e-05
10 *3919:B1 *3919:C1 0.000158552
11 *4207:B *4425:RESET_B 9.41642e-05
12 *4207:B *681:53 0.000292708
13 *4207:B *681:63 0
14 *150:18 *3846:A 0.000139907
15 *150:18 *3846:B 0.000147419
16 *150:18 *3850:A_N 0.000104803
17 *150:18 *3850:B 2.59355e-05
18 *150:18 *3861:A 5.71472e-05
19 *150:18 *3862:C 9.79995e-05
20 *150:18 *519:38 4.59075e-05
21 *150:18 *747:34 0.000129515
22 *150:18 *749:14 4.58194e-05
23 *150:37 *3919:A1 0.000168735
24 *150:37 *3919:C1 0
25 *150:37 *681:53 7.27305e-05
26 *150:37 *749:8 0
27 *3917:B1 *3916:A 2.89016e-05
28 *3918:A *3919:B1 1.07719e-05
29 *3919:A2 *150:18 4.70078e-05
30 *3919:A2 *150:37 0.00033484
31 *4353:A3 *3916:A 5.28575e-05
32 *4353:A3 *3919:B1 1.90936e-05
33 *4353:A3 *150:37 0.000145172
34 *98:16 *150:18 7.56308e-05
35 *106:10 *4207:B 0.00031345
36 *106:10 *150:37 3.34366e-05
37 *106:16 *4207:B 3.93247e-05
38 *107:8 *150:18 0.000131293
39 *107:24 *150:18 0.000103747
40 *107:92 *150:18 0.000279392
*RES
1 *3915:X *150:18 27.2643 
2 *150:18 *4207:B 19.2464 
3 *150:18 *150:37 7.00893 
4 *150:37 *3919:B1 22.1243 
5 *150:37 *3916:A 16.4875 
*END

*D_NET *151 0.00189958
*CONN
*I *4045:B I *D sky130_fd_sc_hd__or3b_2
*I *3917:A2 I *D sky130_fd_sc_hd__a21o_2
*I *3916:Y O *D sky130_fd_sc_hd__inv_2
*CAP
1 *4045:B 0.000327385
2 *3917:A2 0.000208668
3 *3916:Y 0.000536053
4 *3917:A2 *3917:A1 5.52238e-05
5 *4045:B *3914:A 0
6 *4045:B *4045:C_N 0
7 *4045:B *4838:A 7.6644e-05
8 *4045:B *681:12 0
9 *4045:B *748:52 0
10 *4045:B *749:8 0
11 *4045:B *750:14 0.000154762
12 *3916:A *3917:A2 5.71472e-05
13 *3917:B1 *3917:A2 0.000296915
14 *3917:B1 *4045:B 0.00010096
15 *4353:A3 *4045:B 8.58182e-05
*RES
1 *3916:Y *3917:A2 22.8321 
2 *3916:Y *4045:B 34.4393 
*END

*D_NET *152 0.00212541
*CONN
*I *3919:C1 I *D sky130_fd_sc_hd__a221o_2
*I *3918:Y O *D sky130_fd_sc_hd__nor2_2
*CAP
1 *3919:C1 0.000870095
2 *3918:Y 0.000870095
3 *3919:C1 *3835:A 4.70488e-05
4 *3919:C1 *3919:B2 5.56908e-05
5 *3919:C1 *3931:A 2.65105e-05
6 *3919:C1 *748:23 4.38243e-05
7 *3919:C1 *749:8 2.62984e-05
8 *3919:C1 *749:42 6.33806e-06
9 *3918:A *3919:C1 7.56452e-06
10 *3919:B1 *3919:C1 0.000158552
11 *3:14 *3919:C1 1.33911e-05
12 *150:37 *3919:C1 0
*RES
1 *3918:Y *3919:C1 39.7757 
*END

*D_NET *153 0.000783621
*CONN
*I *3950:B1 I *D sky130_fd_sc_hd__a32o_2
*I *3920:Y O *D sky130_fd_sc_hd__nand2_2
*CAP
1 *3950:B1 0.000205066
2 *3920:Y 0.000205066
3 *3950:B1 *3921:A2 0.000104974
4 *3950:B1 *3925:A2 3.34161e-05
5 *3950:B1 *3945:A2 0
6 *3950:B1 *4782:A 0.000235099
*RES
1 *3920:Y *3950:B1 32.5866 
*END

*D_NET *154 0.00504
*CONN
*I *3922:B I *D sky130_fd_sc_hd__nand2_2
*I *4357:B I *D sky130_fd_sc_hd__or3b_2
*I *3927:A_N I *D sky130_fd_sc_hd__and2b_2
*I *3923:B1 I *D sky130_fd_sc_hd__a22o_2
*I *3921:Y O *D sky130_fd_sc_hd__a31oi_2
*CAP
1 *3922:B 8.19842e-05
2 *4357:B 0.000158519
3 *3927:A_N 0.000208372
4 *3923:B1 0
5 *3921:Y 5.8371e-05
6 *154:38 0.000539802
7 *154:16 0.000847882
8 *154:6 0.000997181
9 *3922:B *3929:B1 3.14931e-05
10 *3927:A_N *3923:B2 8.6229e-06
11 *3927:A_N *3926:B2 6.05161e-06
12 *3927:A_N *4793:A 0
13 *4357:B *3929:A1 2.59093e-05
14 *154:16 *3923:A1 0.000300305
15 *154:16 *3923:A2 7.30285e-05
16 *154:16 *4357:A 0.000206307
17 *154:16 *4452:CLK 0.000387432
18 *154:16 *696:10 0
19 *154:16 *696:16 0
20 *154:16 *743:10 5.33882e-05
21 *154:38 *3929:A1 2.95726e-05
22 *3921:B1 *154:6 6.05161e-06
23 *3925:A3 *154:6 2.95726e-05
24 *3925:A3 *154:38 5.06983e-05
25 *3926:A2 *154:16 3.84385e-05
26 *3929:A2 *3922:B 0.000141734
27 *3929:A2 *4357:B 2.42642e-05
28 *3929:A2 *154:38 1.24368e-05
29 *3929:A3 *4357:B 0.000249493
30 *4451:D *3922:B 0.00021443
31 *4451:D *154:38 0.000141131
32 *4452:D *154:16 4.13477e-05
33 *4453:D *3927:A_N 6.50905e-05
34 *4453:D *154:16 1.10868e-05
*RES
1 *3921:Y *154:6 10.2464 
2 *154:6 *154:16 22.5893 
3 *154:16 *3923:B1 9.3 
4 *154:16 *3927:A_N 21.925 
5 *154:6 *154:38 5.46429 
6 *154:38 *4357:B 22.0679 
7 *154:38 *3922:B 12.2107 
*END

*D_NET *155 0.00252298
*CONN
*I *4358:A1 I *D sky130_fd_sc_hd__a22o_2
*I *3922:Y O *D sky130_fd_sc_hd__nand2_2
*CAP
1 *4358:A1 0.000586297
2 *3922:Y 0.000586297
3 *4358:A1 *3922:A 5.33005e-05
4 *4358:A1 *4358:A2 3.45415e-05
5 *4358:A1 *4569:CLK 0
6 *4358:A1 *4570:CLK 0.000339717
7 *4358:A1 *476:34 0.000315894
8 *4358:A1 *476:36 7.6644e-05
9 *4358:A1 *480:31 0
10 *4358:A1 *695:14 2.49484e-05
11 *4358:A1 *744:34 0.000505342
12 *4424:D *4358:A1 0
*RES
1 *3922:Y *4358:A1 41.6 
*END

*D_NET *156 0.000314946
*CONN
*I *3939:B1 I *D sky130_fd_sc_hd__a32o_2
*I *3924:Y O *D sky130_fd_sc_hd__nand2_2
*CAP
1 *3939:B1 0.000128797
2 *3924:Y 0.000128797
3 *3929:A3 *3939:B1 4.69774e-05
4 *3941:A *3939:B1 1.03742e-05
*RES
1 *3924:Y *3939:B1 29.7607 
*END

*D_NET *157 0.00280873
*CONN
*I *3926:B1 I *D sky130_fd_sc_hd__a22o_2
*I *3928:A_N I *D sky130_fd_sc_hd__and2b_2
*I *3925:Y O *D sky130_fd_sc_hd__a31oi_2
*CAP
1 *3926:B1 0.000456002
2 *3928:A_N 9.73487e-05
3 *3925:Y 0.0004016
4 *157:10 0.000954951
5 *3926:B1 *3929:A1 6.34274e-05
6 *3926:B1 *4452:CLK 4.43613e-05
7 *3926:B1 *4714:A 0.000102207
8 *3926:B1 *713:37 1.42162e-05
9 *3928:A_N *4451:SET_B 5.52302e-05
10 *3928:A_N *696:10 0.000100823
11 *157:10 *3923:A2 1.08359e-05
12 *157:10 *3934:A2 7.49387e-06
13 *157:10 *4357:A 0
14 *157:10 *4714:A 0
15 *157:10 *664:45 0.000104236
16 *157:10 *713:12 0
17 *3925:A3 *157:10 6.62868e-05
18 *3926:A2 *3926:B1 1.7491e-05
19 *3934:A3 *157:10 0.000312215
*RES
1 *3925:Y *157:10 21.7107 
2 *157:10 *3928:A_N 15.675 
3 *157:10 *3926:B1 19.6929 
*END

*D_NET *158 0.0035356
*CONN
*I *3929:B1 I *D sky130_fd_sc_hd__a311o_2
*I *3927:X O *D sky130_fd_sc_hd__and2b_2
*CAP
1 *3929:B1 0.000714216
2 *3927:X 0.000714216
3 *3929:B1 *3922:A 9.83388e-05
4 *3929:B1 *3927:B 0.000734261
5 *3929:B1 *4357:C_N 2.21254e-05
6 *3929:B1 *4793:A 0.000262657
7 *3929:B1 *746:10 0.000114248
8 *3929:B1 *746:32 0.000254898
9 *3922:B *3929:B1 3.14931e-05
10 *3929:A2 *3929:B1 0.000262301
11 *4451:D *3929:B1 0.000326846
*RES
1 *3927:X *3929:B1 45.1714 
*END

*D_NET *159 0.00523674
*CONN
*I *3929:C1 I *D sky130_fd_sc_hd__a311o_2
*I *4358:A2 I *D sky130_fd_sc_hd__a22o_2
*I *3928:X O *D sky130_fd_sc_hd__and2b_2
*CAP
1 *3929:C1 0.000619125
2 *4358:A2 0.000238012
3 *3928:X 0.000494307
4 *159:14 0.00135144
5 *3929:C1 *3929:A1 0
6 *3929:C1 *4358:B1 0.000283698
7 *3929:C1 *4713:A 6.73939e-05
8 *3929:C1 *713:37 0.000232352
9 *3929:C1 *746:10 0
10 *3929:C1 *746:32 0
11 *4358:A2 *4358:B1 0.000316402
12 *4358:A2 *4358:B2 9.54798e-06
13 *4358:A2 *4629:A 9.22222e-06
14 *4358:A2 *4713:A 0.000218734
15 *4358:A2 *4760:A 5.26062e-05
16 *159:14 *3923:B2 0.000427282
17 *159:14 *4424:RESET_B 2.5385e-05
18 *159:14 *4451:CLK 0.000261228
19 *159:14 *4451:SET_B 0.000307112
20 *159:14 *476:70 0.000112222
21 *3929:A2 *3929:C1 3.27526e-05
22 *4358:A1 *4358:A2 3.45415e-05
23 *4451:D *159:14 0.000143375
*RES
1 *3928:X *159:14 26.4071 
2 *159:14 *4358:A2 20.6616 
3 *159:14 *3929:C1 32.7464 
*END

*D_NET *160 0.00289611
*CONN
*I *4069:C I *D sky130_fd_sc_hd__nor3_2
*I *4057:C_N I *D sky130_fd_sc_hd__or3b_2
*I *4070:C I *D sky130_fd_sc_hd__or3_2
*I *3931:C I *D sky130_fd_sc_hd__or3_2
*I *3930:X O *D sky130_fd_sc_hd__a21bo_2
*CAP
1 *4069:C 0.000201071
2 *4057:C_N 2.10932e-05
3 *4070:C 0
4 *3931:C 0.000165788
5 *3930:X 0.000134249
6 *160:38 0.000324029
7 *160:27 0.000325631
8 *160:10 0.000523803
9 *3931:C *3931:A 2.89114e-05
10 *3931:C *161:10 6.14078e-05
11 *4069:C *4069:B 9.60939e-05
12 *160:10 *3846:B 5.33334e-05
13 *160:10 *3847:A1 0
14 *160:10 *3847:B1 0.000148911
15 *160:10 *518:46 4.46186e-06
16 *160:27 *3847:A1 4.1331e-06
17 *160:27 *3847:A2 0
18 *160:27 *3847:B1 1.31516e-05
19 *160:27 *4070:B 2.72449e-05
20 *160:27 *4449:CLK 4.98055e-06
21 *160:27 *4688:A 0
22 *160:27 *751:10 0
23 *160:38 *4057:B 0
24 *160:38 *264:8 2.42082e-05
25 *160:38 *751:10 0
26 *96:12 *160:27 0.000342495
27 *96:18 *160:27 3.34366e-05
28 *96:18 *160:38 0.00017309
29 *96:27 *4057:C_N 5.52238e-05
30 *96:27 *4069:C 3.03071e-05
31 *111:65 *3931:C 9.90607e-05
*RES
1 *3930:X *160:10 16.6929 
2 *160:10 *3931:C 17.3536 
3 *160:10 *160:27 5.82143 
4 *160:27 *4070:C 13.8 
5 *160:27 *160:38 6.75 
6 *160:38 *4057:C_N 9.83571 
7 *160:38 *4069:C 12.7464 
*END

*D_NET *161 0.00363173
*CONN
*I *3932:A I *D sky130_fd_sc_hd__inv_2
*I *3933:A2 I *D sky130_fd_sc_hd__a21o_2
*I *3931:X O *D sky130_fd_sc_hd__or3_2
*CAP
1 *3932:A 1.645e-05
2 *3933:A2 0.000465114
3 *3931:X 0.000717216
4 *161:10 0.00119878
5 *3932:A *3930:A2 9.90367e-05
6 *3932:A *167:35 9.90367e-05
7 *3933:A2 *3915:A1 1.08359e-05
8 *3933:A2 *3930:A2 0.000137224
9 *3933:A2 *4688:A 0
10 *3933:A2 *669:46 0.000175512
11 *3933:A2 *669:76 0.000148903
12 *3933:A2 *752:19 0.000383281
13 *161:10 *3847:A2 3.14048e-05
14 *161:10 *3930:A2 3.17148e-05
15 *161:10 *4688:A 0
16 *3931:C *161:10 6.14078e-05
17 *111:65 *161:10 5.58128e-05
*RES
1 *3931:X *161:10 22.8536 
2 *161:10 *3933:A2 24.0143 
3 *161:10 *3932:A 14.7464 
*END

*D_NET *162 0.00328943
*CONN
*I *4151:B I *D sky130_fd_sc_hd__nand2_2
*I *4360:A2 I *D sky130_fd_sc_hd__a22o_2
*I *3932:Y O *D sky130_fd_sc_hd__inv_2
*CAP
1 *4151:B 0
2 *4360:A2 9.87481e-05
3 *3932:Y 0.000828136
4 *162:16 0.000926884
5 *4360:A2 *4360:B2 0.000246582
6 *162:16 *3870:A1 0.000286694
7 *162:16 *3870:A2 0.000100831
8 *162:16 *3915:A1 0
9 *162:16 *4471:D 6.81459e-05
10 *162:16 *4688:A 0
11 *162:16 *167:35 0.000312215
12 *162:16 *518:46 4.46186e-06
13 *162:16 *518:48 6.19181e-05
14 *162:16 *519:49 0.000148911
15 *3851:B1 *162:16 4.32957e-05
16 *4151:A *162:16 0
17 *107:92 *162:16 0.000162611
*RES
1 *3932:Y *162:16 36.05 
2 *162:16 *4360:A2 11.6571 
3 *162:16 *4151:B 9.3 
*END

*D_NET *163 0.00260631
*CONN
*I *3934:B2 I *D sky130_fd_sc_hd__a32o_2
*I *3933:X O *D sky130_fd_sc_hd__a21o_2
*CAP
1 *3934:B2 0.0007056
2 *3933:X 0.0007056
3 *3934:B2 *3915:A0 6.07232e-05
4 *3934:B2 *3945:B2 5.66564e-05
5 *3934:B2 *4772:A 9.90431e-05
6 *3934:B2 *501:14 0.000121606
7 *3934:B2 *518:10 7.6644e-05
8 *3934:B2 *518:14 0.000268536
9 *3934:B2 *694:10 0
10 *3934:B1 *3934:B2 0
11 *4406:D *3934:B2 0.000511901
12 *3:22 *3934:B2 0
*RES
1 *3933:X *3934:B2 44.2964 
*END

*D_NET *164 0.00032144
*CONN
*I *3936:B1 I *D sky130_fd_sc_hd__a31o_2
*I *3935:X O *D sky130_fd_sc_hd__o21a_2
*CAP
1 *3936:B1 1.5947e-05
2 *3935:X 1.5947e-05
3 *3936:B1 *529:57 0.000144773
4 *89:10 *3936:B1 0.000144773
*RES
1 *3935:X *3936:B1 19.9571 
*END

*D_NET *165 0.00386239
*CONN
*I *3938:B1 I *D sky130_fd_sc_hd__a22o_2
*I *4363:A2 I *D sky130_fd_sc_hd__a221o_2
*I *4365:A2 I *D sky130_fd_sc_hd__a221o_2
*I *3937:Y O *D sky130_fd_sc_hd__nor2_2
*CAP
1 *3938:B1 0.000260237
2 *4363:A2 0.000262515
3 *4365:A2 0.000311928
4 *3937:Y 0.000323694
5 *165:8 0.0006255
6 *165:6 0.000634989
7 *3938:B1 *4403:RESET_B 0.00035375
8 *3938:B1 *449:13 0
9 *3938:B1 *703:8 7.11068e-05
10 *4363:A2 *4363:B1 3.32713e-05
11 *4363:A2 *4365:A1 1.6607e-05
12 *4363:A2 *4365:B1 9.15842e-06
13 *4363:A2 *4365:B2 3.41848e-05
14 *4363:A2 *449:13 6.96346e-05
15 *4363:A2 *541:10 1.60665e-05
16 *4365:A2 *3949:B1 3.41848e-05
17 *4365:A2 *4427:CLK 7.63435e-05
18 *4365:A2 *171:20 0.000186871
19 *4365:A2 *449:13 0.000268917
20 *4365:A2 *703:8 2.45881e-05
21 *4365:A2 *703:25 4.41329e-06
22 *165:6 *3950:A1 5.50052e-05
23 *165:6 *4411:RESET_B 1.21258e-05
24 *165:6 *4744:A 2.85321e-05
25 *165:6 *526:8 5.49995e-05
26 *165:6 *541:10 2.81855e-05
27 *165:8 *4411:RESET_B 1.60121e-05
28 *165:8 *541:10 1.34278e-05
29 *3938:A2 *3938:B1 4.46186e-06
30 *4411:D *4363:A2 1.92384e-05
31 *4427:D *4365:A2 1.24368e-05
*RES
1 *3937:Y *165:6 14.7643 
2 *165:6 *165:8 0.946429 
3 *165:8 *4365:A2 26.1482 
4 *165:8 *4363:A2 22.7732 
5 *165:6 *3938:B1 23.8893 
*END

*D_NET *166 0.00165725
*CONN
*I *3941:B I *D sky130_fd_sc_hd__nand2_2
*I *3940:Y O *D sky130_fd_sc_hd__o21ai_2
*CAP
1 *3941:B 0.000367181
2 *3940:Y 0.000367181
3 *3941:B *3939:A1 5.52238e-05
4 *3941:B *4400:D 0.000100018
5 *3941:B *4404:CLK 2.89016e-05
6 *3941:B *523:16 2.44318e-05
7 *3941:B *523:22 0.000142856
8 *3941:B *529:6 0.000183726
9 *3941:B *744:34 2.59093e-05
10 *4404:D *3941:B 0.000361823
11 *102:34 *3941:B 0
*RES
1 *3940:Y *3941:B 37.2607 
*END

*D_NET *167 0.00616063
*CONN
*I *4094:B I *D sky130_fd_sc_hd__nand2_2
*I *3943:A I *D sky130_fd_sc_hd__inv_2
*I *4359:B I *D sky130_fd_sc_hd__nand2_2
*I *3942:X O *D sky130_fd_sc_hd__and4b_2
*CAP
1 *4094:B 0
2 *3943:A 0.000130695
3 *4359:B 0.000501112
4 *3942:X 0
5 *167:35 0.00104423
6 *167:4 0.00141465
7 *3943:A *3944:A1 1.97695e-05
8 *3943:A *3944:A2 9.16074e-05
9 *4359:B *3846:B 0.000100831
10 *4359:B *3851:A1 5.33005e-05
11 *4359:B *3851:A2 5.33005e-05
12 *4359:B *3870:A1 0.000594167
13 *4359:B *4359:A 3.22063e-05
14 *4359:B *4449:CLK 0.000129015
15 *4359:B *449:226 8.50042e-05
16 *4359:B *495:23 7.2754e-05
17 *4359:B *495:33 0
18 *4359:B *518:46 1.08359e-05
19 *4359:B *518:48 5.74562e-05
20 *4359:B *747:53 0.000225609
21 *167:35 *3846:B 0.000210514
22 *167:35 *3930:A2 9.02232e-05
23 *167:35 *3942:B 9.71197e-05
24 *167:35 *518:38 0.000145342
25 *167:35 *518:42 5.04705e-05
26 *167:35 *519:53 1.51018e-05
27 *3869:B *4359:B 0
28 *3932:A *167:35 9.90367e-05
29 *3934:B1 *167:35 0
30 *4094:A *3943:A 5.52238e-05
31 *4094:A *167:35 0.000125724
32 *4406:D *167:35 9.60771e-05
33 *4425:D *4359:B 0.000247047
34 *162:16 *167:35 0.000312215
*RES
1 *3942:X *167:4 9.3 
2 *167:4 *4359:B 33.05 
3 *167:4 *167:35 26.5179 
4 *167:35 *3943:A 12.3357 
5 *167:35 *4094:B 9.3 
*END

*D_NET *168 0.000522768
*CONN
*I *3944:A2 I *D sky130_fd_sc_hd__a21o_2
*I *3943:Y O *D sky130_fd_sc_hd__inv_2
*CAP
1 *3944:A2 0.00018893
2 *3943:Y 0.00018893
3 *3943:A *3944:A2 9.16074e-05
4 *4094:A *3944:A2 5.33005e-05
*RES
1 *3943:Y *3944:A2 21.6 
*END

*D_NET *169 0.00136085
*CONN
*I *3945:B2 I *D sky130_fd_sc_hd__a32o_2
*I *3944:X O *D sky130_fd_sc_hd__a21o_2
*CAP
1 *3945:B2 0.000212407
2 *3944:X 0.000212407
3 *3945:B2 *3944:A1 3.18676e-05
4 *3945:B2 *3944:B1 5.52238e-05
5 *3934:B1 *3945:B2 0.00050775
6 *3934:B2 *3945:B2 5.66564e-05
7 *3945:B1 *3945:B2 0.00015656
8 *4406:D *3945:B2 0.00012798
*RES
1 *3944:X *3945:B2 35.1714 
*END

*D_NET *170 0.000456993
*CONN
*I *3947:B1 I *D sky130_fd_sc_hd__a32o_2
*I *3946:Y O *D sky130_fd_sc_hd__nand2_2
*CAP
1 *3947:B1 0.000165647
2 *3946:Y 0.000165647
3 *3947:B1 *3873:S 0
4 *3947:B1 *665:22 6.28499e-05
5 *4686:A *3947:B1 6.28499e-05
6 *89:23 *3947:B1 0
*RES
1 *3946:Y *3947:B1 30.4571 
*END

*D_NET *171 0.00542665
*CONN
*I *4363:C1 I *D sky130_fd_sc_hd__a221o_2
*I *3949:B1 I *D sky130_fd_sc_hd__a21o_2
*I *4365:C1 I *D sky130_fd_sc_hd__a221o_2
*I *3948:X O *D sky130_fd_sc_hd__and3b_2
*CAP
1 *4363:C1 1.64521e-05
2 *3949:B1 0.000221583
3 *4365:C1 0.000471135
4 *3948:X 0.000302872
5 *171:20 0.000929627
6 *171:10 0.000556233
7 *3949:B1 *3949:A1 2.38501e-05
8 *3949:B1 *4427:RESET_B 0.000126141
9 *3949:B1 *449:39 2.85234e-05
10 *3949:B1 *449:125 9.14454e-05
11 *4363:C1 *4363:B2 1.01454e-05
12 *4365:C1 *4427:CLK 0.000270123
13 *171:10 *4363:B2 9.21611e-05
14 *171:10 *4365:B2 0.000745837
15 *171:10 *4720:A 0.000260357
16 *171:10 *520:12 9.82112e-05
17 *171:10 *521:66 0.000101027
18 *171:10 *622:6 1.98839e-05
19 *171:10 *984:36 0.0003078
20 *171:20 *4363:B1 3.49456e-06
21 *171:20 *4363:B2 2.85234e-05
22 *171:20 *4365:B2 4.56392e-05
23 *171:20 *4427:RESET_B 0.000140822
24 *171:20 *703:25 0.000215246
25 *3949:A2 *3949:B1 9.84673e-05
26 *4365:A2 *3949:B1 3.41848e-05
27 *4365:A2 *171:20 0.000186871
*RES
1 *3948:X *171:10 20.6571 
2 *171:10 *171:20 10.6786 
3 *171:20 *4365:C1 20.425 
4 *171:20 *3949:B1 19.1393 
5 *171:10 *4363:C1 9.72857 
*END

*D_NET *172 0.00255343
*CONN
*I *3952:A2 I *D sky130_fd_sc_hd__a21o_2
*I *3951:Y O *D sky130_fd_sc_hd__nand2_2
*CAP
1 *3952:A2 0.000535221
2 *3951:Y 0.000535221
3 *3952:A2 *3854:A 0.000197131
4 *3952:A2 *3868:B1 1.39726e-05
5 *3952:A2 *3952:A1 0.000942909
6 *3864:B *3952:A2 5.49995e-05
7 *3951:A *3952:A2 6.70699e-05
8 *4408:D *3952:A2 2.89016e-05
9 *4686:A *3952:A2 2.27416e-05
10 *89:23 *3952:A2 5.07263e-06
11 *103:42 *3952:A2 0.00015019
*RES
1 *3951:Y *3952:A2 42.4929 
*END

*D_NET *173 0.00336421
*CONN
*I *3973:C I *D sky130_fd_sc_hd__or4_2
*I *4346:A2 I *D sky130_fd_sc_hd__o31a_2
*I *3972:A I *D sky130_fd_sc_hd__nor2_2
*I *3955:X O *D sky130_fd_sc_hd__or2_2
*CAP
1 *3973:C 9.76185e-05
2 *4346:A2 0.00037107
3 *3972:A 0
4 *3955:X 0.000159879
5 *173:19 0.000694178
6 *173:8 0.000385369
7 *3973:C *3973:D 0.000186765
8 *3973:C *4344:A 6.85372e-05
9 *3973:C *972:27 0.000271904
10 *4346:A2 *4345:B 0
11 *4346:A2 *4346:A1 0.000152579
12 *4346:A2 *4346:B1 2.13218e-05
13 *4346:A2 *4595:D 0.000177941
14 *4346:A2 *972:27 0.000108061
15 *173:8 *3972:B 5.7661e-06
16 *173:8 *3973:D 4.85967e-05
17 *173:8 *4340:B 5.41494e-05
18 *173:8 *189:54 2.61099e-05
19 *173:19 *3973:D 0.000381311
20 *173:19 *4595:D 0.000153054
*RES
1 *3955:X *173:8 12.7286 
2 *173:8 *3972:A 9.3 
3 *173:8 *173:19 10.4643 
4 *173:19 *4346:A2 22.2821 
5 *173:19 *3973:C 17.2107 
*END

*D_NET *174 0.00434897
*CONN
*I *3957:B I *D sky130_fd_sc_hd__or2_2
*I *4310:B I *D sky130_fd_sc_hd__nand2_2
*I *4309:A1 I *D sky130_fd_sc_hd__a21oi_2
*I *3956:X O *D sky130_fd_sc_hd__or2_2
*CAP
1 *3957:B 0
2 *4310:B 0.000451296
3 *4309:A1 0
4 *3956:X 0.00100109
5 *174:27 0.000820517
6 *174:14 0.00137031
7 *4310:B *4310:A 0
8 *4310:B *4311:A2 0
9 *174:14 *3956:B 0.000114609
10 *174:14 *4309:A2 0.000128154
11 *174:14 *4577:CLK 5.33433e-05
12 *174:14 *4577:D 2.17215e-05
13 *174:14 *471:23 0.000128154
14 *174:27 *4313:B1 5.52302e-05
15 *174:27 *4576:CLK 0.000169405
16 *174:27 *471:23 3.51442e-05
*RES
1 *3956:X *174:14 27.6214 
2 *174:14 *4309:A1 13.8 
3 *174:14 *174:27 11.7679 
4 *174:27 *4310:B 25.6036 
5 *174:27 *3957:B 9.3 
*END

*D_NET *175 0.00282392
*CONN
*I *4312:B I *D sky130_fd_sc_hd__nand2_2
*I *4311:A1 I *D sky130_fd_sc_hd__a21oi_2
*I *3957:X O *D sky130_fd_sc_hd__or2_2
*CAP
1 *4312:B 0.000136228
2 *4311:A1 0.000267624
3 *3957:X 4.60011e-05
4 *175:6 0.000449854
5 *4311:A1 *4311:A2 0.00039165
6 *4311:A1 *4313:A1 1.17968e-05
7 *4311:A1 *176:10 0.000357221
8 *4311:A1 *647:43 0
9 *4311:A1 *690:73 0
10 *4312:B *3957:A 0.000340089
11 *4312:B *4313:A2 4.88637e-05
12 *4312:B *4835:A 8.66063e-05
13 *4312:B *176:16 0.000490416
14 *175:6 *3957:A 4.43256e-05
15 *175:6 *4313:B1 5.52238e-05
16 *175:6 *4578:D 9.80173e-05
*RES
1 *3957:X *175:6 10.6571 
2 *175:6 *4311:A1 27.8357 
3 *175:6 *4312:B 15.1929 
*END

*D_NET *176 0.00828648
*CONN
*I *4313:A1 I *D sky130_fd_sc_hd__a21oi_2
*I *3960:D I *D sky130_fd_sc_hd__or4_2
*I *4314:B I *D sky130_fd_sc_hd__and2_2
*I *3959:B I *D sky130_fd_sc_hd__nor2_2
*I *4318:A3 I *D sky130_fd_sc_hd__o31ai_2
*I *3958:X O *D sky130_fd_sc_hd__or4_2
*CAP
1 *4313:A1 3.9404e-05
2 *3960:D 3.04135e-05
3 *4314:B 5.03802e-05
4 *3959:B 0.000234617
5 *4318:A3 3.7379e-05
6 *3958:X 0.000309876
7 *176:37 0.00034007
8 *176:35 0.00051547
9 *176:16 0.00144281
10 *176:10 0.00132473
11 *3959:B *3959:A 5.71472e-05
12 *3959:B *4315:A1 0.000219592
13 *3959:B *4316:A 0.000173384
14 *3959:B *177:10 0.00022497
15 *3959:B *688:36 0
16 *3959:B *979:23 2.20282e-05
17 *3960:D *3960:C 5.33005e-05
18 *4313:A1 *976:23 0
19 *4314:B *4315:A2 5.33005e-05
20 *4314:B *472:50 4.72917e-05
21 *4314:B *979:8 5.33005e-05
22 *4318:A3 *4318:A2 0
23 *176:10 *4311:A2 7.43578e-06
24 *176:10 *4576:RESET_B 0.000254337
25 *176:10 *647:18 9.00795e-06
26 *176:10 *690:73 9.56968e-05
27 *176:10 *690:82 5.49161e-05
28 *176:10 *976:23 0
29 *176:16 *4313:A2 1.74352e-05
30 *176:16 *4319:A2 0.000224366
31 *176:35 *4315:A1 0.000332238
32 *176:35 *4315:B1 0.000164193
33 *176:35 *4318:A1 9.10134e-05
34 *176:35 *4318:A2 0.000302173
35 *176:35 *4579:D 0.000230482
36 *176:35 *979:23 7.83659e-05
37 *176:37 *4315:A1 0.000164547
38 *176:37 *979:23 0.000171368
39 *4311:A1 *4313:A1 1.17968e-05
40 *4311:A1 *176:10 0.000357221
41 *4312:B *176:16 0.000490416
*RES
1 *3958:X *176:10 23.0679 
2 *176:10 *176:16 17.7857 
3 *176:16 *4318:A3 10.2643 
4 *176:16 *176:35 15.7143 
5 *176:35 *176:37 2.25 
6 *176:37 *3959:B 20.2643 
7 *176:37 *4314:B 15.1571 
8 *176:35 *3960:D 14.3357 
9 *176:10 *4313:A1 14.5321 
*END

*D_NET *177 0.0026034
*CONN
*I *4315:A1 I *D sky130_fd_sc_hd__o21a_2
*I *4316:B I *D sky130_fd_sc_hd__xnor2_2
*I *3959:Y O *D sky130_fd_sc_hd__nor2_2
*CAP
1 *4315:A1 0.000282207
2 *4316:B 1.99379e-05
3 *3959:Y 0.000175947
4 *177:10 0.000478093
5 *4315:A1 *4315:A2 0.000529507
6 *4315:A1 *4318:A2 2.39876e-05
7 *4315:A1 *4580:RESET_B 0
8 *4316:B *4316:A 9.90367e-05
9 *4316:B *4585:RESET_B 5.33334e-05
10 *177:10 *4580:RESET_B 0
11 *177:10 *688:36 0
12 *3959:B *4315:A1 0.000219592
13 *3959:B *177:10 0.00022497
14 *176:35 *4315:A1 0.000332238
15 *176:37 *4315:A1 0.000164547
*RES
1 *3959:Y *177:10 16.8 
2 *177:10 *4316:B 14.7464 
3 *177:10 *4315:A1 23.6393 
*END

*D_NET *178 0.0051005
*CONN
*I *3963:D I *D sky130_fd_sc_hd__or4_2
*I *3961:B I *D sky130_fd_sc_hd__or2_2
*I *4320:B I *D sky130_fd_sc_hd__nand2_2
*I *4322:A2 I *D sky130_fd_sc_hd__o21ai_2
*I *4319:A1 I *D sky130_fd_sc_hd__a21oi_2
*I *3960:X O *D sky130_fd_sc_hd__or4_2
*CAP
1 *3963:D 0.000119182
2 *3961:B 0
3 *4320:B 0.00020593
4 *4322:A2 0.000150283
5 *4319:A1 0.000380553
6 *3960:X 0.000671066
7 *178:38 0.000325112
8 *178:25 0.000567315
9 *178:10 0.00146865
10 *3963:D *3963:A 7.48091e-05
11 *3963:D *981:25 4.43256e-05
12 *4319:A1 *4581:D 0.000118437
13 *4320:B *4320:A 0.000188586
14 *4320:B *981:25 4.58976e-05
15 *4322:A2 *3963:B 5.26091e-05
16 *4322:A2 *4321:A2 0
17 *4322:A2 *4323:A2 5.83304e-05
18 *4322:A2 *4325:B1 0
19 *4322:A2 *4707:A 5.52238e-05
20 *4322:A2 *179:8 0
21 *4322:A2 *647:84 0
22 *4322:A2 *981:21 7.252e-05
23 *4322:A2 *982:25 4.1331e-06
24 *178:10 *3960:A 2.89016e-05
25 *178:10 *3960:C 0.000308234
26 *178:10 *4816:A 5.71472e-05
27 *178:25 *4325:B1 0
28 *178:25 *4579:CLK 0
29 *178:25 *4580:D 0.000103253
30 *178:25 *4669:A 0
31 *178:25 *472:56 0
32 *178:25 *647:84 0
*RES
1 *3960:X *178:10 19.425 
2 *178:10 *4319:A1 14.6929 
3 *178:10 *178:25 12.2143 
4 *178:25 *4322:A2 17.4964 
5 *178:25 *178:38 4.5 
6 *178:38 *4320:B 13.1393 
7 *178:38 *3961:B 9.3 
8 *178:38 *3963:D 11.4786 
*END

*D_NET *179 0.00258577
*CONN
*I *4321:A1 I *D sky130_fd_sc_hd__a21oi_2
*I *3962:B I *D sky130_fd_sc_hd__or2_2
*I *3961:X O *D sky130_fd_sc_hd__or2_2
*CAP
1 *4321:A1 3.63795e-05
2 *3962:B 0.000320073
3 *3961:X 8.47658e-05
4 *179:8 0.000441219
5 *3962:B *4323:A1 0.000398849
6 *3962:B *4323:B1 0.000202776
7 *3962:B *4583:CLK 0
8 *3962:B *4583:D 0.000153047
9 *3962:B *4841:A 0
10 *3962:B *463:8 0
11 *3962:B *982:25 0.000457292
12 *4321:A1 *4321:A2 5.52238e-05
13 *4321:A1 *4582:D 5.33334e-05
14 *4321:A1 *4707:A 4.42013e-05
15 *179:8 *3963:B 0.000138946
16 *179:8 *4321:A2 0.000150625
17 *179:8 *4323:B1 7.79781e-06
18 *179:8 *647:84 7.80714e-06
19 *179:8 *982:25 3.34295e-05
20 *4322:A2 *179:8 0
*RES
1 *3961:X *179:8 16.3536 
2 *179:8 *3962:B 25.4607 
3 *179:8 *4321:A1 15.175 
*END

*D_NET *180 0.00114692
*CONN
*I *4324:B I *D sky130_fd_sc_hd__nand2_2
*I *4323:A1 I *D sky130_fd_sc_hd__a21oi_2
*I *3962:X O *D sky130_fd_sc_hd__or2_2
*CAP
1 *4324:B 2.83799e-05
2 *4323:A1 0.000207879
3 *3962:X 0
4 *180:4 0.000236259
5 *4323:A1 *3962:A 0.000169253
6 *4323:A1 *4325:A2 0
7 *4323:A1 *4325:B1 0
8 *4323:A1 *4583:CLK 0
9 *4323:A1 *982:25 0.000106299
10 *3962:B *4323:A1 0.000398849
*RES
1 *3962:X *180:4 9.3 
2 *180:4 *4323:A1 25.3714 
3 *180:4 *4324:B 9.83571 
*END

*D_NET *181 0.00778803
*CONN
*I *4326:B I *D sky130_fd_sc_hd__and2_2
*I *3970:A I *D sky130_fd_sc_hd__or4_2
*I *3966:B I *D sky130_fd_sc_hd__or3_2
*I *4330:A1 I *D sky130_fd_sc_hd__o21ai_2
*I *3964:B I *D sky130_fd_sc_hd__nor2_2
*I *4325:A1 I *D sky130_fd_sc_hd__a21oi_2
*I *3963:X O *D sky130_fd_sc_hd__or4_2
*CAP
1 *4326:B 0.000182456
2 *3970:A 0.000207398
3 *3966:B 0.000323472
4 *4330:A1 0
5 *3964:B 0
6 *4325:A1 0.000529923
7 *3963:X 9.59764e-05
8 *181:49 0.000704703
9 *181:40 0.000416182
10 *181:36 0.000459881
11 *181:27 0.00108019
12 *181:10 0.00167102
13 *3966:B *3966:A 7.77751e-05
14 *3966:B *3966:C 0
15 *3966:B *3967:B 0
16 *3966:B *183:12 0
17 *3966:B *184:14 3.69697e-05
18 *3966:B *484:42 0
19 *3970:A *4330:A2 6.62783e-05
20 *3970:A *4337:A1 3.37729e-05
21 *3970:A *4819:A 0.000130419
22 *3970:A *188:10 1.33343e-05
23 *4325:A1 *3963:C 0
24 *4325:A1 *4325:A2 5.71472e-05
25 *4325:A1 *4325:B1 0
26 *4325:A1 *4583:RESET_B 0
27 *4325:A1 *4584:D 0.000320031
28 *4325:A1 *4584:RESET_B 0.000491151
29 *4325:A1 *688:36 0.000122754
30 *4325:A1 *983:10 0
31 *4326:B *3964:A 8.05006e-05
32 *4326:B *4327:A2 6.05161e-06
33 *4326:B *4328:B 5.80706e-06
34 *4326:B *4586:RESET_B 0
35 *4326:B *182:8 0.000105582
36 *181:10 *3963:C 0
37 *181:10 *688:36 7.6644e-05
38 *181:40 *3964:A 2.8266e-06
39 *181:40 *3967:B 0.000202128
40 *181:40 *4586:RESET_B 0
41 *181:40 *484:12 0
42 *181:49 *4330:A2 6.71755e-05
43 *181:49 *4331:A2 3.57366e-05
44 *181:49 *4819:A 0.000184745
*RES
1 *3963:X *181:10 15.3714 
2 *181:10 *4325:A1 27.2107 
3 *181:10 *181:27 16.75 
4 *181:27 *3964:B 9.3 
5 *181:27 *181:36 5.03571 
6 *181:36 *181:40 9.17857 
7 *181:40 *4330:A1 9.3 
8 *181:40 *181:49 3.42857 
9 *181:49 *3966:B 23.425 
10 *181:49 *3970:A 13.4429 
11 *181:36 *4326:B 17.6036 
*END

*D_NET *182 0.0012371
*CONN
*I *4328:B I *D sky130_fd_sc_hd__xnor2_2
*I *4327:A1 I *D sky130_fd_sc_hd__o21a_2
*I *3964:Y O *D sky130_fd_sc_hd__nor2_2
*CAP
1 *4328:B 0.000313499
2 *4327:A1 0
3 *3964:Y 7.03554e-05
4 *182:8 0.000383855
5 *4328:B *4327:B1 3.15645e-05
6 *4328:B *4328:A 0
7 *4328:B *4586:RESET_B 0.000217601
8 *4328:B *648:41 0
9 *4328:B *939:27 0
10 *4328:B *963:10 0
11 *182:8 *4586:RESET_B 0.000108839
12 *4326:B *4328:B 5.80706e-06
13 *4326:B *182:8 0.000105582
*RES
1 *3964:Y *182:8 16.3536 
2 *182:8 *4327:A1 13.8 
3 *182:8 *4328:B 20.9071 
*END

*D_NET *183 0.00298074
*CONN
*I *3970:B I *D sky130_fd_sc_hd__or4_2
*I *4330:A2 I *D sky130_fd_sc_hd__o21ai_2
*I *3966:C I *D sky130_fd_sc_hd__or3_2
*I *3965:X O *D sky130_fd_sc_hd__or2_2
*CAP
1 *3970:B 0
2 *4330:A2 0.000269532
3 *3966:C 0.000145934
4 *3965:X 0.000431374
5 *183:12 0.000448364
6 *183:10 0.000464272
7 *3966:C *484:36 7.48356e-05
8 *3966:C *484:42 4.46186e-06
9 *4330:A2 *4330:B1 5.52302e-05
10 *4330:A2 *4331:A2 1.33343e-05
11 *4330:A2 *4819:A 0.000295784
12 *4330:A2 *184:14 0.000113073
13 *183:10 *3970:C 6.81083e-05
14 *183:10 *3970:D 1.08359e-05
15 *183:10 *3971:A 0
16 *183:10 *4338:B 0.000166983
17 *183:10 *4805:A 0
18 *183:10 *188:10 0.00015234
19 *183:10 *484:12 0
20 *183:12 *3970:C 5.7616e-05
21 *183:12 *3970:D 1.41029e-05
22 *183:12 *188:10 1.02504e-05
23 *183:12 *484:36 5.08577e-05
24 *3966:B *3966:C 0
25 *3966:B *183:12 0
26 *3970:A *4330:A2 6.62783e-05
27 *181:49 *4330:A2 6.71755e-05
*RES
1 *3965:X *183:10 22.9607 
2 *183:10 *183:12 1.33929 
3 *183:12 *3966:C 16.6929 
4 *183:12 *4330:A2 20.6393 
5 *183:10 *3970:B 13.8 
*END

*D_NET *184 0.00351156
*CONN
*I *4331:A1 I *D sky130_fd_sc_hd__a21oi_2
*I *4332:B I *D sky130_fd_sc_hd__nand2_2
*I *3968:B I *D sky130_fd_sc_hd__or2_2
*I *3966:X O *D sky130_fd_sc_hd__or3_2
*CAP
1 *4331:A1 3.82418e-05
2 *4332:B 8.37248e-05
3 *3968:B 0.000251352
4 *3966:X 0.000513739
5 *184:18 0.000507398
6 *184:14 0.000724302
7 *3968:B *4586:RESET_B 9.65075e-05
8 *3968:B *4706:A 1.52978e-05
9 *3968:B *470:64 0
10 *3968:B *648:30 1.52978e-05
11 *3968:B *691:32 9.71197e-05
12 *4332:B *4332:A 5.52302e-05
13 *4332:B *4333:A2 1.69961e-05
14 *4332:B *648:30 9.71197e-05
15 *184:14 *3966:A 5.23142e-05
16 *184:14 *4330:B1 5.52302e-05
17 *184:14 *4331:A2 4.88546e-05
18 *184:14 *965:22 3.69697e-05
19 *184:18 *4586:RESET_B 0.000274525
20 *184:18 *4588:RESET_B 0.000250201
21 *184:18 *648:30 0.000131097
22 *3966:B *184:14 3.69697e-05
23 *4330:A2 *184:14 0.000113073
*RES
1 *3966:X *184:14 25.3357 
2 *184:14 *184:18 11 
3 *184:18 *3968:B 18.8357 
4 *184:18 *4332:B 15.5679 
5 *184:14 *4331:A1 10.0321 
*END

*D_NET *185 0.00104701
*CONN
*I *3970:C I *D sky130_fd_sc_hd__or4_2
*I *3967:X O *D sky130_fd_sc_hd__or2_2
*CAP
1 *3970:C 0.000352116
2 *3967:X 0.000352116
3 *3970:C *3970:D 0.000179025
4 *3970:C *484:12 3.80277e-05
5 *183:10 *3970:C 6.81083e-05
6 *183:12 *3970:C 5.7616e-05
*RES
1 *3967:X *3970:C 33.0643 
*END

*D_NET *186 0.00245858
*CONN
*I *4333:A1 I *D sky130_fd_sc_hd__a21oi_2
*I *4336:A2 I *D sky130_fd_sc_hd__o21ai_2
*I *4334:B I *D sky130_fd_sc_hd__xor2_2
*I *3968:X O *D sky130_fd_sc_hd__or2_2
*CAP
1 *4333:A1 0.000271167
2 *4336:A2 0
3 *4334:B 0.000435652
4 *3968:X 0.00044579
5 *186:8 0.000610275
6 *4333:A1 *4333:A2 5.62995e-05
7 *4333:A1 *4335:A 1.04232e-05
8 *4333:A1 *4335:B 0.00010096
9 *4333:A1 *648:18 0.000163587
10 *4333:A1 *648:24 0.000300643
11 *4334:B *4336:A1 0
12 *4334:B *4337:A2 5.80217e-05
13 *186:8 *4336:A1 5.7661e-06
*RES
1 *3968:X *186:8 16.8357 
2 *186:8 *4334:B 11.8571 
3 *186:8 *4336:A2 9.3 
4 *4334:B *4333:A1 16.9161 
*END

*D_NET *187 0.000948223
*CONN
*I *3970:D I *D sky130_fd_sc_hd__or4_2
*I *3969:X O *D sky130_fd_sc_hd__or2_2
*CAP
1 *3970:D 0.00028522
2 *3969:X 0.00028522
3 *3970:D *3967:A 0
4 *3970:D *3971:A 4.88637e-05
5 *3970:D *189:10 5.71472e-05
6 *3970:D *484:6 1.02936e-05
7 *3970:D *484:12 5.75147e-05
8 *3970:C *3970:D 0.000179025
9 *183:10 *3970:D 1.08359e-05
10 *183:12 *3970:D 1.41029e-05
*RES
1 *3969:X *3970:D 33.2607 
*END

*D_NET *188 0.0016017
*CONN
*I *4337:A1 I *D sky130_fd_sc_hd__a21oi_2
*I *4338:B I *D sky130_fd_sc_hd__nand2_2
*I *3971:B I *D sky130_fd_sc_hd__or2_2
*I *3970:X O *D sky130_fd_sc_hd__or4_2
*CAP
1 *4337:A1 0.000142244
2 *4338:B 0.000245754
3 *3971:B 0
4 *3970:X 0
5 *188:10 0.000374519
6 *188:4 0.00027101
7 *4337:A1 *4590:D 7.43578e-06
8 *4338:B *3971:A 0
9 *4338:B *484:36 3.34295e-05
10 *188:10 *484:36 0.000150625
11 *3970:A *4337:A1 3.37729e-05
12 *3970:A *188:10 1.33343e-05
13 *183:10 *4338:B 0.000166983
14 *183:10 *188:10 0.00015234
15 *183:12 *188:10 1.02504e-05
*RES
1 *3970:X *188:4 9.3 
2 *188:4 *188:10 7.39286 
3 *188:10 *3971:B 13.8 
4 *188:10 *4338:B 18.6393 
5 *188:4 *4337:A1 12.1036 
*END

*D_NET *189 0.00810398
*CONN
*I *4346:A3 I *D sky130_fd_sc_hd__o31a_2
*I *3973:D I *D sky130_fd_sc_hd__or4_2
*I *3972:B I *D sky130_fd_sc_hd__nor2_2
*I *4340:B I *D sky130_fd_sc_hd__xor2_2
*I *4342:A2 I *D sky130_fd_sc_hd__o21a_2
*I *4339:A1 I *D sky130_fd_sc_hd__a21oi_2
*I *3971:X O *D sky130_fd_sc_hd__or2_2
*CAP
1 *4346:A3 0.000243505
2 *3973:D 0.000434187
3 *3972:B 2.03441e-05
4 *4340:B 0.000397676
5 *4342:A2 0
6 *4339:A1 0.000181705
7 *3971:X 0.000621638
8 *189:54 0.00054903
9 *189:38 0.000735552
10 *189:16 0.000269133
11 *189:12 0.000427002
12 *189:10 0.000961339
13 *3973:D *4344:A 0.000185124
14 *3973:D *4595:D 0.000173629
15 *4339:A1 *4342:A1 5.49589e-06
16 *4339:A1 *4343:A2 8.37145e-05
17 *4346:A3 *4346:B1 2.07878e-05
18 *4346:A3 *4670:A 6.05161e-06
19 *4346:A3 *649:58 1.33343e-05
20 *189:10 *3969:A 5.52238e-05
21 *189:10 *3969:B 0.000519182
22 *189:10 *3971:A 0.00010096
23 *189:10 *4339:A2 0
24 *189:10 *4345:B 1.99099e-05
25 *189:10 *4591:RESET_B 0
26 *189:10 *4596:RESET_B 0.000103041
27 *189:10 *4670:A 0.000368104
28 *189:10 *484:6 3.24201e-05
29 *189:10 *485:51 0
30 *189:12 *4339:A2 0
31 *189:12 *4345:B 4.21073e-05
32 *189:12 *649:58 6.76337e-05
33 *189:16 *4343:A2 7.15846e-05
34 *189:38 *3955:A 0
35 *189:38 *4342:B1 0.000163979
36 *189:38 *4343:A1 0.000275094
37 *189:38 *4345:B 7.77545e-05
38 *189:38 *4591:D 0
39 *189:38 *190:8 0.000117896
40 *3970:D *189:10 5.71472e-05
41 *3973:C *3973:D 0.000186765
42 *173:8 *3972:B 5.7661e-06
43 *173:8 *3973:D 4.85967e-05
44 *173:8 *4340:B 5.41494e-05
45 *173:8 *189:54 2.61099e-05
46 *173:19 *3973:D 0.000381311
*RES
1 *3971:X *189:10 28.6214 
2 *189:10 *189:12 1.94643 
3 *189:12 *189:16 6.26786 
4 *189:16 *4339:A1 12.6571 
5 *189:16 *4342:A2 9.3 
6 *189:12 *189:38 11.6071 
7 *189:38 *4340:B 5.15179 
8 *189:38 *189:54 1.375 
9 *189:54 *3972:B 9.72857 
10 *189:54 *3973:D 28.4607 
11 *189:10 *4346:A3 17.7464 
*END

*D_NET *190 0.00293128
*CONN
*I *4344:B I *D sky130_fd_sc_hd__xnor2_2
*I *4343:A1 I *D sky130_fd_sc_hd__o21a_2
*I *3972:Y O *D sky130_fd_sc_hd__nor2_2
*CAP
1 *4344:B 0.000196375
2 *4343:A1 0.000629071
3 *3972:Y 8.75127e-05
4 *190:8 0.000912959
5 *4343:A1 *4342:A1 0
6 *4343:A1 *4345:B 0.000250201
7 *4343:A1 *4591:D 0
8 *4343:A1 *4831:A 1.56e-05
9 *4343:A1 *705:52 0.00012501
10 *4343:A1 *970:6 0.00012389
11 *4344:B *4342:B1 1.21258e-05
12 *4344:B *4345:B 0.000185547
13 *190:8 *3955:A 0
14 *189:38 *4343:A1 0.000275094
15 *189:38 *190:8 0.000117896
*RES
1 *3972:Y *190:8 15.7464 
2 *190:8 *4343:A1 33.7821 
3 *190:8 *4344:B 17.6214 
*END

*D_NET *191 0.00401195
*CONN
*I *4347:S I *D sky130_fd_sc_hd__mux2_1
*I *4348:B I *D sky130_fd_sc_hd__and2_2
*I *3974:B I *D sky130_fd_sc_hd__nor2_2
*I *3973:X O *D sky130_fd_sc_hd__or4_2
*CAP
1 *4347:S 0.00018804
2 *4348:B 0.000158445
3 *3974:B 0.000287508
4 *3973:X 4.70928e-05
5 *191:10 0.000538674
6 *191:8 0.000327855
7 *3974:B *3974:A 0.000271302
8 *3974:B *4346:B1 1.98129e-05
9 *3974:B *4347:A1 0.000197991
10 *3974:B *4595:RESET_B 0.000134738
11 *3974:B *4596:RESET_B 0.000128161
12 *3974:B *4671:A 0.000186765
13 *4347:S *4347:A0 0.00032134
14 *4347:S *4347:A1 0.000187026
15 *4348:B *4348:A 0.000357952
16 *4348:B *939:46 2.14757e-05
17 *191:8 *4826:A 2.59355e-05
18 *191:10 *4347:A0 6.81083e-05
19 *191:10 *4347:A1 0.000307337
20 *191:10 *4348:A 0.000224585
21 *191:10 *4595:RESET_B 1.18064e-05
*RES
1 *3973:X *191:8 14.3357 
2 *191:8 *191:10 4.07143 
3 *191:10 *3974:B 22.3179 
4 *191:10 *4348:B 17.6214 
5 *191:8 *4347:S 19.0321 
*END

*D_NET *192 0.00252034
*CONN
*I *4671:A I *D sky130_fd_sc_hd__clkdlybuf4s25_1
*I *3974:Y O *D sky130_fd_sc_hd__nor2_2
*CAP
1 *4671:A 0.000898429
2 *3974:Y 0.000898429
3 *4671:A *4346:B1 0.000378257
4 *4671:A *4594:RESET_B 0.000107576
5 *4671:A *4595:CLK 2.07878e-05
6 *4671:A *4596:RESET_B 3.00989e-05
7 *3974:B *4671:A 0.000186765
*RES
1 *3974:Y *4671:A 41.4571 
*END

*D_NET *193 0.00446453
*CONN
*I *4267:B I *D sky130_fd_sc_hd__nand2_2
*I *3977:B I *D sky130_fd_sc_hd__or2_2
*I *4266:A1 I *D sky130_fd_sc_hd__a21oi_2
*I *3976:X O *D sky130_fd_sc_hd__or2_2
*CAP
1 *4267:B 0.000156906
2 *3977:B 0
3 *4266:A1 0.000792149
4 *3976:X 7.51744e-05
5 *193:27 0.000421193
6 *193:10 0.00113161
7 *4266:A1 *4265:B 4.86718e-05
8 *4266:A1 *4488:CLK 4.4873e-05
9 *4266:A1 *4488:D 0.000225989
10 *4266:A1 *4488:RESET_B 4.85567e-05
11 *4267:B *3977:A 5.49489e-05
12 *4267:B *194:10 1.88822e-05
13 *193:10 *4265:B 2.77143e-05
14 *193:10 *4270:A2 1.85025e-05
15 *193:10 *4488:RESET_B 0.000180777
16 *193:10 *194:10 5.41794e-05
17 *193:10 *917:42 9.60939e-05
18 *193:27 *3977:A 0.000117378
19 *193:27 *4270:A2 3.84473e-05
20 *193:27 *194:10 0.000669125
21 *193:27 *195:23 3.90513e-05
22 *193:27 *931:17 0.000204302
*RES
1 *3976:X *193:10 16.3 
2 *193:10 *4266:A1 23.6929 
3 *193:10 *193:27 14.2679 
4 *193:27 *3977:B 9.3 
5 *193:27 *4267:B 12.3357 
*END

*D_NET *194 0.00383297
*CONN
*I *4268:A1 I *D sky130_fd_sc_hd__a21oi_2
*I *4269:B I *D sky130_fd_sc_hd__nand2_2
*I *3977:X O *D sky130_fd_sc_hd__or2_2
*CAP
1 *4268:A1 0.000243463
2 *4269:B 3.62138e-05
3 *3977:X 0.000512772
4 *194:10 0.000792448
5 *4268:A1 *4268:A2 5.07348e-05
6 *4268:A1 *4270:A2 0.000186387
7 *4268:A1 *466:8 0.000490116
8 *4269:B *917:42 5.58941e-05
9 *194:10 *3977:A 1.83053e-05
10 *194:10 *4269:A 6.9253e-05
11 *194:10 *195:10 0.000369818
12 *194:10 *195:23 0.000117189
13 *194:10 *675:48 0
14 *194:10 *917:42 0.000148189
15 *4267:B *194:10 1.88822e-05
16 *193:10 *194:10 5.41794e-05
17 *193:27 *194:10 0.000669125
*RES
1 *3977:X *194:10 27.0321 
2 *194:10 *4269:B 14.5321 
3 *194:10 *4268:A1 28.8357 
*END

*D_NET *195 0.00661489
*CONN
*I *4271:B I *D sky130_fd_sc_hd__nand2_2
*I *3983:C I *D sky130_fd_sc_hd__or4_2
*I *4273:A2 I *D sky130_fd_sc_hd__o21ai_2
*I *3979:B I *D sky130_fd_sc_hd__or2_2
*I *4270:A1 I *D sky130_fd_sc_hd__a21oi_2
*I *3978:X O *D sky130_fd_sc_hd__or4_2
*CAP
1 *4271:B 0.00036746
2 *3983:C 0
3 *4273:A2 1.38475e-05
4 *3979:B 0.000169877
5 *4270:A1 0.000330468
6 *3978:X 0.000416743
7 *195:47 0.000599018
8 *195:25 0.000183725
9 *195:23 0.000413425
10 *195:10 0.000929077
11 *3979:B *3979:A 0.000151926
12 *3979:B *3980:A 0.000140933
13 *3979:B *3980:B 9.99853e-05
14 *3979:B *3983:D 5.52238e-05
15 *3979:B *4274:A2 4.43256e-05
16 *3979:B *197:12 3.5298e-05
17 *4270:A1 *4270:A2 0.000271898
18 *4270:A1 *4270:B1 1.24368e-05
19 *4271:B *3983:D 4.80729e-05
20 *4271:B *4271:A 0.000271898
21 *4271:B *4494:CLK 9.74588e-05
22 *4271:B *200:10 0
23 *4271:B *488:10 5.80706e-06
24 *4273:A2 *3983:D 2.28598e-05
25 *4273:A2 *197:12 3.52966e-05
26 *195:10 *3978:C 0.000139913
27 *195:10 *3978:D 0.000117621
28 *195:10 *675:46 6.07626e-05
29 *195:10 *675:48 7.04538e-05
30 *195:23 *4273:A1 5.59013e-05
31 *195:23 *675:46 0.000131198
32 *195:47 *3980:A 1.81805e-05
33 *195:47 *3983:D 0.000524656
34 *195:47 *4491:RESET_B 4.98055e-06
35 *195:47 *488:10 0.000177141
36 *195:47 *675:46 7.09632e-05
37 *193:27 *195:23 3.90513e-05
38 *194:10 *195:10 0.000369818
39 *194:10 *195:23 0.000117189
*RES
1 *3978:X *195:10 23.5321 
2 *195:10 *4270:A1 19.6929 
3 *195:10 *195:23 4.67857 
4 *195:23 *195:25 4.5 
5 *195:25 *3979:B 14.4071 
6 *195:25 *4273:A2 9.83571 
7 *195:23 *195:47 7.41071 
8 *195:47 *3983:C 13.8 
9 *195:47 *4271:B 20.9964 
*END

*D_NET *196 0.00180075
*CONN
*I *4272:A1 I *D sky130_fd_sc_hd__a21oi_2
*I *3980:B I *D sky130_fd_sc_hd__or2_2
*I *3979:X O *D sky130_fd_sc_hd__or2_2
*CAP
1 *4272:A1 0.00044004
2 *3980:B 0.000112545
3 *3979:X 0.000552585
4 *3980:B *3979:A 4.5632e-05
5 *4272:A1 *4272:A2 5.37741e-06
6 *4272:A1 *4491:CLK 0
7 *4272:A1 *4491:D 0.000148312
8 *4272:A1 *4492:D 0.000313077
9 *4272:A1 *619:44 8.31973e-05
10 *3979:B *3980:B 9.99853e-05
*RES
1 *3979:X *3980:B 21.1893 
2 *3979:X *4272:A1 35.7607 
*END

*D_NET *197 0.0043189
*CONN
*I *3981:B I *D sky130_fd_sc_hd__or2_2
*I *4274:A1 I *D sky130_fd_sc_hd__a21oi_2
*I *4275:B I *D sky130_fd_sc_hd__nand2_2
*I *3980:X O *D sky130_fd_sc_hd__or2_2
*CAP
1 *3981:B 0.000477899
2 *4274:A1 0.000506194
3 *4275:B 7.33911e-05
4 *3980:X 0.000233912
5 *197:25 0.00116677
6 *197:12 0.000489983
7 *3981:B *3981:A 8.46829e-05
8 *3981:B *4493:D 4.01768e-05
9 *3981:B *198:8 8.10767e-05
10 *3981:B *935:25 9.60939e-05
11 *4274:A1 *4271:A 2.53878e-05
12 *4274:A1 *4491:RESET_B 0.000172783
13 *4274:A1 *4825:A 0.000136958
14 *4274:A1 *933:12 3.27268e-05
15 *4274:A1 *933:36 2.00123e-05
16 *4275:B *4276:A2 0
17 *4275:B *675:46 6.74815e-05
18 *197:12 *3980:A 5.71472e-05
19 *197:12 *3983:D 4.22627e-05
20 *197:12 *4273:A1 9.90367e-05
21 *197:12 *4273:B1 6.05161e-06
22 *197:25 *4273:B1 0.000123428
23 *197:25 *4276:A2 0
24 *197:25 *4491:RESET_B 7.60306e-05
25 *197:25 *675:36 0
26 *197:25 *675:46 0.000138816
27 *3979:B *197:12 3.5298e-05
28 *4273:A2 *197:12 3.52966e-05
*RES
1 *3980:X *197:12 17.7643 
2 *197:12 *4275:B 15.4429 
3 *197:12 *197:25 9.78571 
4 *197:25 *4274:A1 26.925 
5 *197:25 *3981:B 17.2286 
*END

*D_NET *198 0.00244959
*CONN
*I *4277:B I *D sky130_fd_sc_hd__nand2_2
*I *4276:A1 I *D sky130_fd_sc_hd__a21oi_2
*I *3981:X O *D sky130_fd_sc_hd__or2_2
*CAP
1 *4277:B 0.000362915
2 *4276:A1 3.41148e-05
3 *3981:X 0.000458755
4 *198:8 0.000855785
5 *4276:A1 *4276:A2 5.80706e-06
6 *4276:A1 *675:36 4.81157e-05
7 *4276:A1 *677:14 0
8 *4277:B *4276:B1 0
9 *4277:B *4277:A 0.000128154
10 *4277:B *4278:A2 1.78447e-05
11 *4277:B *4493:RESET_B 4.57538e-05
12 *4277:B *4494:D 0
13 *4277:B *619:10 0
14 *4277:B *642:57 0
15 *4277:B *675:10 8.03962e-05
16 *4277:B *675:36 8.98897e-05
17 *4277:B *677:14 0
18 *4277:B *714:20 9.4736e-05
19 *198:8 *3981:A 1.55885e-05
20 *198:8 *4644:A 9.92409e-05
21 *198:8 *935:25 3.14163e-05
22 *3981:B *198:8 8.10767e-05
*RES
1 *3981:X *198:8 19.675 
2 *198:8 *4276:A1 14.8357 
3 *198:8 *4277:B 22.7286 
*END

*D_NET *199 0.00247225
*CONN
*I *3983:D I *D sky130_fd_sc_hd__or4_2
*I *3982:X O *D sky130_fd_sc_hd__or2_2
*CAP
1 *3983:D 0.000402799
2 *3982:X 0.000402799
3 *3983:D *3980:A 0.000100823
4 *3983:D *3983:A 0.000221163
5 *3983:D *4273:B1 7.48091e-05
6 *3983:D *4274:A2 0.00022459
7 *3983:D *200:10 1.00375e-05
8 *3983:D *619:25 9.60939e-05
9 *3983:D *934:21 0.000246057
10 *3979:B *3983:D 5.52238e-05
11 *4271:B *3983:D 4.80729e-05
12 *4273:A2 *3983:D 2.28598e-05
13 *195:47 *3983:D 0.000524656
14 *197:12 *3983:D 4.22627e-05
*RES
1 *3982:X *3983:D 40.1893 
*END

*D_NET *200 0.00416819
*CONN
*I *4278:A1 I *D sky130_fd_sc_hd__a21oi_2
*I *3988:C I *D sky130_fd_sc_hd__or4_2
*I *3986:A I *D sky130_fd_sc_hd__or2_2
*I *3984:B I *D sky130_fd_sc_hd__or2_2
*I *4279:B I *D sky130_fd_sc_hd__nand2_2
*I *3983:X O *D sky130_fd_sc_hd__or4_2
*CAP
1 *4278:A1 7.97778e-05
2 *3988:C 0.000154272
3 *3986:A 5.83791e-05
4 *3984:B 0
5 *4279:B 0
6 *3983:X 0.000270981
7 *200:23 5.83791e-05
8 *200:21 0.000503509
9 *200:17 0.000533798
10 *200:10 0.000375765
11 *3986:A *3988:D 5.33005e-05
12 *3986:A *203:10 0.000136958
13 *3988:C *3988:A 0.000271064
14 *3988:C *3988:D 0
15 *3988:C *202:10 3.17148e-05
16 *3988:C *205:10 0.000178208
17 *3988:C *683:72 7.48356e-05
18 *200:10 *3983:A 1.31516e-05
19 *200:10 *4271:A 0.000240565
20 *200:10 *4274:A2 3.34295e-05
21 *200:10 *4494:D 0
22 *200:17 *4279:A 0.000184745
23 *200:21 *3984:A 0.000223592
24 *200:21 *4279:A 0.000128161
25 *200:21 *4280:A1 0
26 *200:21 *4820:A 0.000249493
27 *200:21 *201:8 0
28 *200:21 *202:10 0.000150618
29 *200:21 *642:57 0
30 *200:21 *683:72 3.55503e-05
31 *200:21 *937:25 0.000117903
32 *3983:D *200:10 1.00375e-05
33 *4271:B *200:10 0
*RES
1 *3983:X *200:10 23.8893 
2 *200:10 *4279:B 9.3 
3 *200:10 *200:17 2.17857 
4 *200:17 *200:21 14.3393 
5 *200:21 *200:23 4.5 
6 *200:23 *3984:B 9.3 
7 *200:23 *3986:A 10.6571 
8 *200:21 *3988:C 18.6393 
9 *200:17 *4278:A1 10.6571 
*END

*D_NET *201 0.00237828
*CONN
*I *4280:A1 I *D sky130_fd_sc_hd__a21oi_2
*I *4281:B I *D sky130_fd_sc_hd__nand2_2
*I *3984:X O *D sky130_fd_sc_hd__or2_2
*CAP
1 *4280:A1 0.000189548
2 *4281:B 0.000569542
3 *3984:X 0.000232014
4 *201:8 0.000991104
5 *4280:A1 *642:57 0.000195755
6 *4281:B *4281:A 4.10796e-05
7 *201:8 *3984:A 6.48957e-05
8 *201:8 *4496:RESET_B 6.2379e-05
9 *201:8 *4807:A 3.19595e-05
10 *200:21 *4280:A1 0
11 *200:21 *201:8 0
*RES
1 *3984:X *201:8 19.2375 
2 *201:8 *4281:B 21.3625 
3 *201:8 *4280:A1 17.4875 
*END

*D_NET *202 0.0010894
*CONN
*I *3986:B I *D sky130_fd_sc_hd__or2_2
*I *3988:D I *D sky130_fd_sc_hd__or4_2
*I *3985:X O *D sky130_fd_sc_hd__or2_2
*CAP
1 *3986:B 0
2 *3988:D 0.000217575
3 *3985:X 5.78354e-05
4 *202:10 0.000275411
5 *3988:D *3984:A 5.52238e-05
6 *3988:D *203:10 6.26959e-05
7 *3988:D *205:10 1.19402e-05
8 *202:10 *683:72 0.000173083
9 *3986:A *3988:D 5.33005e-05
10 *3988:C *3988:D 0
11 *3988:C *202:10 3.17148e-05
12 *200:21 *202:10 0.000150618
*RES
1 *3985:X *202:10 20.55 
2 *202:10 *3988:D 22.1214 
3 *202:10 *3986:B 9.3 
*END

*D_NET *203 0.00297374
*CONN
*I *4283:B I *D sky130_fd_sc_hd__nand2_2
*I *3987:B I *D sky130_fd_sc_hd__or2_2
*I *4282:A1 I *D sky130_fd_sc_hd__a21oi_2
*I *3986:X O *D sky130_fd_sc_hd__or2_2
*CAP
1 *4283:B 0.000357885
2 *3987:B 0
3 *4282:A1 8.99579e-05
4 *3986:X 0.000491847
5 *203:21 0.000438426
6 *203:10 0.000662346
7 *4282:A1 *4281:A 2.79421e-05
8 *4283:B *4284:A2 2.62951e-05
9 *4283:B *4497:CLK 5.49544e-05
10 *4283:B *4498:D 3.69047e-06
11 *4283:B *496:22 3.12359e-05
12 *4283:B *496:24 0.000261758
13 *4283:B *496:46 9.58126e-05
14 *203:10 *3984:A 5.52238e-05
15 *203:10 *4281:A 2.67489e-05
16 *203:21 *496:24 0.000149966
17 *3986:A *203:10 0.000136958
18 *3988:D *203:10 6.26959e-05
*RES
1 *3986:X *203:10 18.1929 
2 *203:10 *4282:A1 10.6571 
3 *203:10 *203:21 6.44643 
4 *203:21 *3987:B 13.8 
5 *203:21 *4283:B 29.0679 
*END

*D_NET *204 0.00265545
*CONN
*I *4285:B I *D sky130_fd_sc_hd__nand2_2
*I *4284:A1 I *D sky130_fd_sc_hd__a21oi_2
*I *3987:X O *D sky130_fd_sc_hd__or2_2
*CAP
1 *4285:B 0
2 *4284:A1 7.60593e-05
3 *3987:X 0.00040822
4 *204:16 0.00048428
5 *4284:A1 *4284:A2 9.99853e-05
6 *4284:A1 *496:22 2.18902e-05
7 *4284:A1 *683:38 2.59355e-05
8 *204:16 *3987:A 0.000273822
9 *204:16 *3988:A 0.000231701
10 *204:16 *4285:A 0.00012401
11 *204:16 *4498:RESET_B 6.74911e-05
12 *204:16 *205:10 0.000555662
13 *204:16 *496:8 9.41642e-05
14 *204:16 *496:22 9.41642e-05
15 *204:16 *683:38 3.63775e-05
16 *204:16 *918:10 6.16864e-05
*RES
1 *3987:X *204:16 31.1214 
2 *204:16 *4284:A1 11.0679 
3 *204:16 *4285:B 9.3 
*END

*D_NET *205 0.00737305
*CONN
*I *3991:D I *D sky130_fd_sc_hd__or4_2
*I *4289:A2 I *D sky130_fd_sc_hd__o21ai_2
*I *3989:B I *D sky130_fd_sc_hd__or2_2
*I *4287:B I *D sky130_fd_sc_hd__nand2_2
*I *4286:A1 I *D sky130_fd_sc_hd__a21oi_2
*I *3988:X O *D sky130_fd_sc_hd__or4_2
*CAP
1 *3991:D 0.00014848
2 *4289:A2 0.000113529
3 *3989:B 2.28969e-05
4 *4287:B 6.88792e-05
5 *4286:A1 0.000221228
6 *3988:X 0.0006118
7 *205:49 0.000788666
8 *205:34 0.000614677
9 *205:23 0.000262065
10 *205:10 0.000961091
11 *3989:B *3989:A 5.49995e-05
12 *3991:D *3991:A 1.98839e-05
13 *3991:D *3991:C 9.83388e-05
14 *3991:D *4801:A 6.24469e-05
15 *3991:D *467:16 7.19508e-05
16 *3991:D *630:50 0.000214825
17 *4286:A1 *4286:A2 0.000141729
18 *4286:A1 *4498:D 0.000183905
19 *4287:B *4288:A1 0.000137639
20 *4289:A2 *4289:A1 0.000228508
21 *4289:A2 *4289:B1 0.00022511
22 *4289:A2 *4290:A2 5.49544e-05
23 *4289:A2 *4291:A 6.24774e-05
24 *205:10 *3988:A 0.000150502
25 *205:10 *4285:A 1.27078e-05
26 *205:10 *4499:CLK 1.33248e-05
27 *205:10 *4811:A 6.39901e-05
28 *205:10 *683:38 4.88537e-05
29 *205:10 *683:72 4.038e-06
30 *205:23 *4288:A1 1.46689e-05
31 *205:23 *683:38 0.000122266
32 *205:34 *4288:A1 7.27183e-05
33 *205:34 *683:38 7.0586e-05
34 *205:49 *3990:B 5.49657e-05
35 *205:49 *3991:A 0.000271898
36 *205:49 *4288:A1 5.72374e-05
37 *205:49 *4289:B1 0.000173559
38 *205:49 *683:10 9.61161e-05
39 *205:49 *683:38 2.97223e-05
40 *3988:C *205:10 0.000178208
41 *3988:D *205:10 1.19402e-05
42 *204:16 *205:10 0.000555662
*RES
1 *3988:X *205:10 27.3536 
2 *205:10 *4286:A1 18.05 
3 *205:10 *205:23 3.16071 
4 *205:23 *4287:B 15.1571 
5 *205:23 *205:34 1.94643 
6 *205:34 *3989:B 14.3357 
7 *205:34 *205:49 15.6607 
8 *205:49 *4289:A2 13.1214 
9 *205:49 *3991:D 22.5143 
*END

*D_NET *206 0.00193419
*CONN
*I *3990:B I *D sky130_fd_sc_hd__or2_2
*I *4288:A1 I *D sky130_fd_sc_hd__a21oi_2
*I *3989:X O *D sky130_fd_sc_hd__or2_2
*CAP
1 *3990:B 0.000147794
2 *4288:A1 0.000420091
3 *3989:X 0
4 *206:6 0.000567885
5 *3990:B *3990:A 4.77002e-05
6 *3990:B *207:12 0.000123932
7 *3990:B *921:12 7.88091e-05
8 *4288:A1 *4287:A 4.12025e-05
9 *4288:A1 *4288:A2 5.65955e-05
10 *4288:A1 *4499:D 0.000112946
11 *4287:B *4288:A1 0.000137639
12 *205:23 *4288:A1 1.46689e-05
13 *205:34 *4288:A1 7.27183e-05
14 *205:49 *3990:B 5.49657e-05
15 *205:49 *4288:A1 5.72374e-05
*RES
1 *3989:X *206:6 13.8 
2 *206:6 *4288:A1 22.8714 
3 *206:6 *3990:B 18.05 
*END

*D_NET *207 0.00242889
*CONN
*I *4290:A1 I *D sky130_fd_sc_hd__a21oi_2
*I *4291:B I *D sky130_fd_sc_hd__nand2_2
*I *3990:X O *D sky130_fd_sc_hd__or2_2
*CAP
1 *4290:A1 1.33051e-05
2 *4291:B 6.85657e-05
3 *3990:X 0.000971033
4 *207:12 0.0010529
5 *4291:B *4500:CLK 7.8195e-05
6 *207:12 *3990:A 2.33087e-05
7 *207:12 *4500:CLK 4.81231e-05
8 *207:12 *4500:D 1.27093e-05
9 *207:12 *921:12 3.68118e-05
10 *3990:B *207:12 0.000123932
*RES
1 *3990:X *207:12 23.0321 
2 *207:12 *4291:B 11.0857 
3 *207:12 *4290:A1 9.72857 
*END

*D_NET *208 0.00763358
*CONN
*I *4292:A1 I *D sky130_fd_sc_hd__a21oi_2
*I *3992:B I *D sky130_fd_sc_hd__or2_2
*I *4293:B I *D sky130_fd_sc_hd__nand2_2
*I *3994:D I *D sky130_fd_sc_hd__or4_2
*I *3991:X O *D sky130_fd_sc_hd__or4_2
*CAP
1 *4292:A1 0
2 *3992:B 9.94858e-05
3 *4293:B 0
4 *3994:D 0.000528011
5 *3991:X 0.000493759
6 *208:30 0.000709191
7 *208:24 0.00115076
8 *208:14 0.00136386
9 *3992:B *3992:A 0.000116447
10 *3992:B *4298:A1 9.83388e-05
11 *3992:B *4298:A2 5.65955e-05
12 *3992:B *4298:B1 0.000158191
13 *3992:B *685:21 2.41972e-05
14 *3994:D *3994:A 0.000102677
15 *3994:D *3994:C 3.08664e-05
16 *3994:D *4294:A2 0.000606625
17 *3994:D *4298:A1 0.000173804
18 *3994:D *211:10 0.000821648
19 *208:14 *4292:A2 0.000516199
20 *208:14 *4454:D 1.17968e-05
21 *208:14 *467:16 2.42122e-05
22 *208:24 *4456:CLK 6.10381e-05
23 *208:24 *4456:RESET_B 2.45096e-05
24 *208:24 *4501:D 3.49742e-05
25 *208:24 *4839:A 0.000246837
26 *208:24 *530:18 0
27 *208:24 *685:21 7.01289e-05
28 *208:30 *4298:A1 1.83679e-05
29 *208:30 *4298:B1 8.58583e-05
30 *208:30 *4504:D 5.19842e-06
*RES
1 *3991:X *208:14 28.2464 
2 *208:14 *208:24 17.75 
3 *208:24 *208:30 7.30357 
4 *208:30 *3994:D 33.3714 
5 *208:30 *4293:B 9.3 
6 *208:24 *3992:B 17.2643 
7 *208:14 *4292:A1 9.3 
*END

*D_NET *209 0.00298039
*CONN
*I *4295:B I *D sky130_fd_sc_hd__nand2_2
*I *3993:B I *D sky130_fd_sc_hd__or2_2
*I *4297:A2 I *D sky130_fd_sc_hd__o21ai_2
*I *4294:A1 I *D sky130_fd_sc_hd__a21oi_2
*I *3992:X O *D sky130_fd_sc_hd__or2_2
*CAP
1 *4295:B 0
2 *3993:B 1.47323e-05
3 *4297:A2 0
4 *4294:A1 0.000103345
5 *3992:X 0.000117271
6 *209:32 0.000321257
7 *209:12 0.000274046
8 *209:8 0.000594496
9 *3993:B *4296:A2 2.84026e-05
10 *3993:B *924:34 5.49489e-05
11 *4294:A1 *4503:CLK 5.73473e-05
12 *209:8 *4298:A2 8.43666e-05
13 *209:8 *4502:D 0.000194804
14 *209:8 *630:34 0.000362397
15 *209:12 *4297:A1 0.000141729
16 *209:12 *925:10 5.33005e-05
17 *209:32 *4296:B1 0.000171948
18 *209:32 *4297:A1 4.98528e-05
19 *209:32 *4502:D 0.000139202
20 *209:32 *630:34 0.000172679
21 *209:32 *924:23 4.42631e-05
*RES
1 *3992:X *209:8 18.4786 
2 *209:8 *209:12 7.5 
3 *209:12 *4294:A1 20.55 
4 *209:12 *4297:A2 9.3 
5 *209:8 *209:32 11.6071 
6 *209:32 *3993:B 9.83571 
7 *209:32 *4295:B 9.3 
*END

*D_NET *210 0.000574297
*CONN
*I *4296:A1 I *D sky130_fd_sc_hd__a21oi_2
*I *3993:X O *D sky130_fd_sc_hd__or2_2
*CAP
1 *4296:A1 0.000160846
2 *3993:X 0.000160846
3 *4296:A1 *4296:A2 0.000252605
*RES
1 *3993:X *4296:A1 31.3143 
*END

*D_NET *211 0.00771125
*CONN
*I *3995:C I *D sky130_fd_sc_hd__or3_2
*I *4299:B I *D sky130_fd_sc_hd__or2_2
*I *3996:D I *D sky130_fd_sc_hd__or4_2
*I *4300:B I *D sky130_fd_sc_hd__nand2_2
*I *4298:A1 I *D sky130_fd_sc_hd__a21oi_2
*I *3994:X O *D sky130_fd_sc_hd__or4_2
*CAP
1 *3995:C 0
2 *4299:B 0.000123803
3 *3996:D 0.000376534
4 *4300:B 0
5 *4298:A1 0.000108963
6 *3994:X 0.000271165
7 *211:44 0.000500336
8 *211:42 0.000408159
9 *211:25 0.000752734
10 *211:10 0.000724703
11 *3996:D *3995:A 0.000123288
12 *3996:D *4048:B 4.87854e-05
13 *3996:D *4299:A 6.8646e-06
14 *3996:D *4302:B 0.000117369
15 *3996:D *402:10 0.000322529
16 *3996:D *468:50 2.59093e-05
17 *3996:D *642:18 0.000151515
18 *3996:D *642:28 0.000368104
19 *3996:D *685:73 9.41642e-05
20 *3996:D *714:10 0
21 *3996:D *926:34 1.40849e-05
22 *4298:A1 *3992:A 0.000143652
23 *4298:A1 *4298:B1 6.13203e-05
24 *4298:A1 *4504:D 4.13496e-05
25 *4298:A1 *685:21 0.000148911
26 *4298:A1 *685:31 3.34366e-05
27 *4299:B *4299:A 0.000143541
28 *4299:B *402:10 0.000116481
29 *211:10 *3994:A 5.84075e-05
30 *211:10 *4503:RESET_B 0.000344217
31 *211:10 *685:31 0.000264137
32 *211:25 *4829:A 5.33005e-05
33 *211:42 *3995:A 5.33005e-05
34 *211:42 *4300:A 2.14314e-05
35 *211:42 *4301:A2 0.000183713
36 *211:42 *4303:A1 0.000132168
37 *211:42 *4304:B 7.02611e-05
38 *211:42 *4506:D 2.42662e-05
39 *211:42 *4508:CLK 3.17163e-05
40 *211:42 *4667:A 0
41 *211:42 *402:10 9.0143e-05
42 *211:42 *468:54 4.43256e-05
43 *3992:B *4298:A1 9.83388e-05
44 *3994:D *4298:A1 0.000173804
45 *3994:D *211:10 0.000821648
46 *208:30 *4298:A1 1.83679e-05
*RES
1 *3994:X *211:10 23.9786 
2 *211:10 *4298:A1 18.2286 
3 *211:10 *211:25 9.96429 
4 *211:25 *4300:B 9.3 
5 *211:25 *211:42 17.9821 
6 *211:42 *211:44 4.5 
7 *211:44 *3996:D 25.2464 
8 *211:44 *4299:B 16.8179 
9 *211:42 *3995:C 9.3 
*END

*D_NET *212 0.00413297
*CONN
*I *4304:B I *D sky130_fd_sc_hd__and2_2
*I *4303:A1 I *D sky130_fd_sc_hd__a21oi_2
*I *3995:X O *D sky130_fd_sc_hd__or3_2
*CAP
1 *4304:B 0.00130142
2 *4303:A1 7.32859e-05
3 *3995:X 0.0013747
4 *4303:A1 *4301:A2 1.76039e-05
5 *4303:A1 *4303:A2 9.25014e-06
6 *4303:A1 *4506:D 5.71472e-05
7 *4303:A1 *4667:A 3.97543e-05
8 *4303:A1 *402:10 1.40849e-05
9 *4304:B *3995:A 1.21258e-05
10 *4304:B *3995:B 3.06878e-06
11 *4304:B *3996:C 3.18676e-05
12 *4304:B *4668:A 0.000272665
13 *4304:B *468:54 1.97756e-05
14 *4304:B *692:18 0
15 *4304:B *929:12 0.000703785
16 *211:42 *4303:A1 0.000132168
17 *211:42 *4304:B 7.02611e-05
*RES
1 *3995:X *4303:A1 30.0821 
2 *3995:X *4304:B 48.5643 
*END

*D_NET *213 0.00338064
*CONN
*I *3997:B I *D sky130_fd_sc_hd__nor2_2
*I *4305:S I *D sky130_fd_sc_hd__mux2_1
*I *4306:B I *D sky130_fd_sc_hd__and2_2
*I *3996:X O *D sky130_fd_sc_hd__or4_2
*CAP
1 *3997:B 0.000168038
2 *4305:S 0
3 *4306:B 0.000228508
4 *3996:X 0.000406441
5 *213:12 0.000802987
6 *4306:B *4305:A0 9.57064e-05
7 *4306:B *4507:D 3.69047e-06
8 *4306:B *4508:CLK 0
9 *4306:B *4508:RESET_B 0
10 *213:12 *3996:C 5.33005e-05
11 *213:12 *4048:B 4.46186e-06
12 *213:12 *4299:A 0
13 *213:12 *4302:A 0.000173804
14 *213:12 *4305:A0 1.76039e-05
15 *213:12 *4305:A1 0.000890797
16 *213:12 *4508:RESET_B 0.000175512
17 *213:12 *4703:A 0
18 *213:12 *692:18 0.000359793
*RES
1 *3996:X *213:12 32.0143 
2 *213:12 *4306:B 22.6214 
3 *213:12 *4305:S 9.3 
4 *213:12 *3997:B 11.9071 
*END

*D_NET *214 0.00101214
*CONN
*I *4668:A I *D sky130_fd_sc_hd__clkdlybuf4s25_1
*I *3997:Y O *D sky130_fd_sc_hd__nor2_2
*CAP
1 *4668:A 0.000318105
2 *3997:Y 0.000318105
3 *4668:A *4508:RESET_B 0
4 *4668:A *4709:A 0.000103266
5 *4668:A *692:18 0
6 *4304:B *4668:A 0.000272665
*RES
1 *3997:Y *4668:A 33.7429 
*END

*D_NET *215 0.00275388
*CONN
*I *4210:A I *D sky130_fd_sc_hd__nor2_2
*I *4212:B I *D sky130_fd_sc_hd__xnor2_2
*I *3999:Y O *D sky130_fd_sc_hd__nor2_2
*CAP
1 *4210:A 0.000488757
2 *4212:B 0.000760978
3 *3999:Y 0.000272221
4 *4210:A *4000:A 4.76424e-05
5 *4210:A *4000:B 0.000221527
6 *4210:A *4000:C 0.000136733
7 *4210:A *4013:A 0.000165243
8 *4210:A *4211:A2 0
9 *4210:A *597:33 0.000222492
10 *4210:A *597:73 5.88671e-05
11 *4210:A *662:14 0
12 *4210:A *883:10 0.000141215
13 *4210:A *886:14 8.43386e-05
14 *4212:B *4000:D 5.33005e-05
15 *4212:B *4013:A 2.24804e-05
16 *4212:B *4214:B1 2.22419e-05
17 *4212:B *4599:A 1.86395e-05
18 *4212:B *886:12 4.27842e-06
19 *4212:B *887:8 3.2923e-05
*RES
1 *3999:Y *4212:B 31.3321 
2 *4212:B *4210:A 40.4571 
*END

*D_NET *216 0.00503528
*CONN
*I *4217:B I *D sky130_fd_sc_hd__and2_2
*I *4002:D I *D sky130_fd_sc_hd__or4_2
*I *4001:B I *D sky130_fd_sc_hd__nor2_2
*I *4222:A3 I *D sky130_fd_sc_hd__o31ai_2
*I *4215:A I *D sky130_fd_sc_hd__and2_2
*I *4000:X O *D sky130_fd_sc_hd__or4_2
*CAP
1 *4217:B 0
2 *4002:D 0.00035913
3 *4001:B 0
4 *4222:A3 0.000358202
5 *4215:A 0.000408874
6 *4000:X 5.68594e-05
7 *216:42 0.000563637
8 *216:27 0.000562709
9 *216:25 0.000519313
10 *216:8 0.000985046
11 *4002:D *4519:RESET_B 0
12 *4215:A *4216:A2 8.07313e-05
13 *4215:A *4216:B1 0.000113983
14 *4215:A *4512:CLK 0.000124611
15 *4222:A3 *4218:B 5.09999e-05
16 *4222:A3 *4222:A1 0.000219883
17 *4222:A3 *4222:A2 5.49995e-05
18 *216:8 *4213:A2 0.000150043
19 *216:8 *4512:CLK 3.29297e-05
20 *216:8 *492:18 0.000139954
21 *216:25 *4213:A1 5.08826e-05
22 *216:42 *4222:A1 1.34741e-05
23 *216:42 *888:12 0.000189018
*RES
1 *4000:X *216:8 16.05 
2 *216:8 *4215:A 21.9964 
3 *216:8 *216:25 12.8571 
4 *216:25 *216:27 4.5 
5 *216:27 *4222:A3 20.4071 
6 *216:27 *216:42 4.98214 
7 *216:42 *4001:B 13.8 
8 *216:42 *4002:D 19.6571 
9 *216:25 *4217:B 9.3 
*END

*D_NET *217 0.00296828
*CONN
*I *4220:B I *D sky130_fd_sc_hd__xnor2_2
*I *4218:A I *D sky130_fd_sc_hd__nor2_2
*I *4001:Y O *D sky130_fd_sc_hd__nor2_2
*CAP
1 *4220:B 0
2 *4218:A 0.000525367
3 *4001:Y 0.000633216
4 *217:10 0.00115858
5 *4218:A *4002:C 2.3942e-05
6 *4218:A *4218:B 4.22908e-05
7 *4218:A *4219:A2 7.77751e-05
8 *4218:A *4221:A1 0.000118715
9 *4218:A *4222:B1 9.95293e-05
10 *4218:A *575:24 1.06172e-05
11 *217:10 *4002:A 1.12691e-05
12 *217:10 *4002:C 3.79254e-05
13 *217:10 *4513:RESET_B 9.18583e-05
14 *217:10 *575:24 5.54312e-05
15 *217:10 *674:79 4.70821e-05
16 *217:10 *888:8 3.46801e-05
*RES
1 *4001:Y *217:10 22.1393 
2 *217:10 *4218:A 24.8357 
3 *217:10 *4220:B 13.8 
*END

*D_NET *218 0.00718007
*CONN
*I *4230:A3 I *D sky130_fd_sc_hd__o31ai_2
*I *4004:D I *D sky130_fd_sc_hd__or4_2
*I *4003:B I *D sky130_fd_sc_hd__nor2_2
*I *4225:B I *D sky130_fd_sc_hd__and2_2
*I *4223:A I *D sky130_fd_sc_hd__and2_2
*I *4002:X O *D sky130_fd_sc_hd__or4_2
*CAP
1 *4230:A3 7.31265e-05
2 *4004:D 4.17498e-05
3 *4003:B 0.000575637
4 *4225:B 0.000250754
5 *4223:A 0
6 *4002:X 6.47689e-05
7 *218:35 0.000879342
8 *218:33 0.00049228
9 *218:25 0.00129913
10 *218:8 0.00089319
11 *4003:B *4003:A 8.1656e-05
12 *4003:B *4226:A 4.61169e-05
13 *4003:B *4229:A1 0.000163605
14 *4003:B *4229:A2 7.6997e-05
15 *4003:B *4517:D 8.60531e-05
16 *4003:B *219:8 3.77042e-05
17 *4003:B *894:12 0
18 *4004:D *4228:A 6.05161e-06
19 *4225:B *4225:A 0.000184945
20 *4225:B *674:53 0.000218741
21 *4225:B *894:12 0.000111815
22 *4230:A3 *4230:A2 0
23 *4230:A3 *4230:B1 0.00014285
24 *4230:A3 *4231:B 3.67142e-05
25 *218:8 *4223:B 0.000128154
26 *218:8 *4519:RESET_B 0
27 *218:25 *4519:RESET_B 0
28 *218:25 *4520:D 0.000101545
29 *218:25 *477:20 6.62983e-05
30 *218:25 *661:12 0.000101545
31 *218:25 *661:18 0.000124489
32 *218:33 *4230:A2 2.05612e-05
33 *218:33 *4230:B1 0.000316184
34 *218:33 *674:53 0.000154845
35 *218:33 *892:12 9.22948e-05
36 *218:35 *674:53 0.000176226
37 *218:35 *892:12 0.000105689
38 *218:35 *894:12 2.90164e-05
*RES
1 *4002:X *218:8 15.4429 
2 *218:8 *4223:A 13.8 
3 *218:8 *218:25 17.7679 
4 *218:25 *218:33 10.9107 
5 *218:33 *218:35 2.25 
6 *218:35 *4225:B 19.675 
7 *218:35 *4003:B 31.3 
8 *218:33 *4004:D 14.3357 
9 *218:25 *4230:A3 11.4964 
*END

*D_NET *219 0.00125811
*CONN
*I *4228:B I *D sky130_fd_sc_hd__xnor2_2
*I *4226:A I *D sky130_fd_sc_hd__nor2_2
*I *4003:Y O *D sky130_fd_sc_hd__nor2_2
*CAP
1 *4228:B 0.000138934
2 *4226:A 0.000225365
3 *4003:Y 7.89469e-05
4 *219:8 0.000443245
5 *4226:A *4517:D 9.11048e-06
6 *4228:B *4229:A2 9.58181e-05
7 *4228:B *4517:D 0.000170438
8 *219:8 *4003:A 1.24368e-05
9 *4003:B *4226:A 4.61169e-05
10 *4003:B *219:8 3.77042e-05
*RES
1 *4003:Y *219:8 15.1571 
2 *219:8 *4226:A 17.1929 
3 *219:8 *4228:B 16.9964 
*END

*D_NET *220 0.0052408
*CONN
*I *4006:D I *D sky130_fd_sc_hd__or4_2
*I *4238:A3 I *D sky130_fd_sc_hd__o31ai_2
*I *4005:B I *D sky130_fd_sc_hd__nor2_2
*I *4233:B I *D sky130_fd_sc_hd__and2_2
*I *4231:A I *D sky130_fd_sc_hd__and2_2
*I *4004:X O *D sky130_fd_sc_hd__or4_2
*CAP
1 *4006:D 0.000184269
2 *4238:A3 0.000150118
3 *4005:B 0
4 *4233:B 0
5 *4231:A 0
6 *4004:X 0.000484976
7 *220:47 0.00050736
8 *220:38 0.000705429
9 *220:21 0.000663229
10 *220:12 0.000615749
11 *4006:D *4005:A 1.69961e-05
12 *4006:D *4006:A 7.72233e-05
13 *4006:D *4236:A 5.52238e-05
14 *4006:D *873:25 2.14658e-05
15 *4006:D *874:32 0.000232697
16 *4238:A3 *4238:A1 1.31516e-05
17 *4238:A3 *4238:A2 0.000173804
18 *4238:A3 *4240:B1 0
19 *220:12 *4004:C 0
20 *220:12 *4231:B 6.74911e-05
21 *220:12 *4234:B 0
22 *220:12 *4235:A2 0
23 *220:12 *893:8 0
24 *220:21 *4233:A 5.7661e-06
25 *220:21 *4234:B 5.62995e-05
26 *220:38 *4233:A 0.000166203
27 *220:38 *4234:B 1.39726e-05
28 *220:38 *4235:A1 1.00375e-05
29 *220:38 *4240:A1 0
30 *220:38 *4240:A2 9.71197e-05
31 *220:38 *4240:B1 2.97108e-05
32 *220:38 *4519:D 0.000195481
33 *220:38 *4630:A 6.65398e-05
34 *220:38 *477:10 0.000143804
35 *220:38 *477:12 0.000209483
36 *220:38 *477:20 9.25014e-06
37 *220:47 *4005:A 0.000128044
38 *220:47 *4236:B 0.000139907
*RES
1 *4004:X *220:12 24.9607 
2 *220:12 *4231:A 9.3 
3 *220:12 *220:21 2.60714 
4 *220:21 *4233:B 9.3 
5 *220:21 *220:38 21.1964 
6 *220:38 *4005:B 9.3 
7 *220:38 *220:47 3.83929 
8 *220:47 *4238:A3 21.3893 
9 *220:47 *4006:D 13.55 
*END

*D_NET *221 0.00226883
*CONN
*I *4236:B I *D sky130_fd_sc_hd__xnor2_2
*I *4234:A I *D sky130_fd_sc_hd__nor2_2
*I *4005:Y O *D sky130_fd_sc_hd__nor2_2
*CAP
1 *4236:B 2.94296e-05
2 *4234:A 0.000475087
3 *4005:Y 0.000504517
4 *4234:A *4005:A 1.33343e-05
5 *4234:A *4235:A2 0.00060312
6 *4234:A *4240:A1 0.000262656
7 *4234:A *477:24 3.51442e-05
8 *4234:A *575:14 6.57244e-05
9 *4236:B *4005:A 0.000139907
10 *220:47 *4236:B 0.000139907
*RES
1 *4005:Y *4234:A 39.0107 
2 *4005:Y *4236:B 19.9571 
*END

*D_NET *222 0.00498549
*CONN
*I *4239:A I *D sky130_fd_sc_hd__and2_2
*I *4008:D I *D sky130_fd_sc_hd__or4_2
*I *4246:A3 I *D sky130_fd_sc_hd__o31ai_2
*I *4241:B I *D sky130_fd_sc_hd__and2_2
*I *4007:B I *D sky130_fd_sc_hd__nor2_2
*I *4006:X O *D sky130_fd_sc_hd__or4_2
*CAP
1 *4239:A 0
2 *4008:D 0.000130836
3 *4246:A3 0
4 *4241:B 0.000457479
5 *4007:B 0.000505521
6 *4006:X 0.000167313
7 *222:41 0.000606649
8 *222:33 0.000603745
9 *222:14 0.000856697
10 *222:12 0.00019475
11 *4007:B *4238:A1 4.69963e-05
12 *4007:B *4238:A2 9.60875e-05
13 *4007:B *4238:B1 1.21289e-05
14 *4007:B *4239:B 0.000240905
15 *4008:D *4246:B1 2.89016e-05
16 *4008:D *4247:A 0
17 *4008:D *663:10 0
18 *4241:B *4241:A 0.000227479
19 *4241:B *4242:B 2.15245e-05
20 *4241:B *4246:A2 5.17614e-05
21 *4241:B *4247:B 0
22 *4241:B *4248:A2 0.000142856
23 *4241:B *876:16 2.95641e-05
24 *4241:B *876:20 0.000168334
25 *222:12 *4006:B 3.34295e-05
26 *222:12 *4238:B1 6.18336e-05
27 *222:14 *4238:B1 2.59355e-05
28 *222:33 *4238:B1 5.66157e-05
29 *222:33 *4247:A 0
30 *222:33 *4248:A2 0
31 *222:33 *663:16 0
32 *222:33 *677:33 0
33 *222:41 *4247:B 0.000188586
34 *222:41 *4248:A2 2.95641e-05
*RES
1 *4006:X *222:12 21.6036 
2 *222:12 *222:14 0.535714 
3 *222:14 *4007:B 18.2286 
4 *222:14 *222:33 9.9375 
5 *222:33 *222:41 7.90179 
6 *222:41 *4241:B 18.2821 
7 *222:41 *4246:A3 9.3 
8 *222:33 *4008:D 16.1304 
9 *222:12 *4239:A 9.3 
*END

*D_NET *223 0.00294516
*CONN
*I *4242:A I *D sky130_fd_sc_hd__nor2_2
*I *4244:B I *D sky130_fd_sc_hd__xnor2_2
*I *4007:Y O *D sky130_fd_sc_hd__nor2_2
*CAP
1 *4242:A 0.000211019
2 *4244:B 0.000551524
3 *4007:Y 0.000340506
4 *4242:A *4243:A2 1.00375e-05
5 *4242:A *4245:A1 7.19848e-05
6 *4242:A *4522:D 8.06331e-05
7 *4242:A *450:10 0.000538509
8 *4242:A *457:10 0.000153054
9 *4242:A *488:67 0
10 *4242:A *491:18 0
11 *4244:B *4007:A 0
12 *4244:B *4240:A1 0.000175512
13 *4244:B *4242:B 7.57869e-05
14 *4244:B *4244:A 1.31516e-05
15 *4244:B *4245:A2 0.000345639
16 *4244:B *4523:CLK 0.000177234
17 *4244:B *586:39 0.000175526
18 *4244:B *677:14 2.50463e-05
*RES
1 *4007:Y *4244:B 37.3679 
2 *4244:B *4242:A 34.7071 
*END

*D_NET *224 0.00677755
*CONN
*I *4011:C I *D sky130_fd_sc_hd__or4_2
*I *4010:A I *D sky130_fd_sc_hd__nor2_2
*I *4260:A2 I *D sky130_fd_sc_hd__o31a_2
*I *4255:A3 I *D sky130_fd_sc_hd__o31a_2
*I *4249:B I *D sky130_fd_sc_hd__nor2_2
*I *4250:B I *D sky130_fd_sc_hd__nand2_2
*I *4247:A I *D sky130_fd_sc_hd__and2_2
*I *4008:X O *D sky130_fd_sc_hd__or4_2
*CAP
1 *4011:C 6.70155e-05
2 *4010:A 0
3 *4260:A2 3.70486e-05
4 *4255:A3 0.000494272
5 *4249:B 0
6 *4250:B 0.000176399
7 *4247:A 0.000202153
8 *4008:X 0.000112211
9 *224:49 0.000603097
10 *224:43 0.0010875
11 *224:39 0.000474646
12 *224:29 0.000445345
13 *224:23 0.000739845
14 *224:6 0.000812918
15 *4011:C *4260:B1 4.15551e-05
16 *4247:A *663:10 0.000117189
17 *4247:A *663:16 9.25014e-06
18 *4250:B *4249:A 2.31791e-05
19 *4250:B *4250:A 0.000126963
20 *4250:B *879:25 9.71197e-05
21 *4255:A3 *4255:A1 1.32552e-05
22 *4255:A3 *879:25 4.40224e-05
23 *4255:A3 *881:8 8.07313e-05
24 *4260:A2 *225:20 3.17163e-05
25 *4260:A2 *608:16 0
26 *224:6 *878:12 2.27416e-05
27 *224:23 *4011:A 3.69047e-06
28 *224:23 *227:10 2.23758e-05
29 *224:29 *4011:D 7.80714e-06
30 *224:29 *4260:B1 0.00017378
31 *224:29 *663:57 0.000123903
32 *224:39 *4011:D 2.87485e-05
33 *224:39 *4260:B1 2.44318e-05
34 *224:39 *225:20 1.39726e-05
35 *224:39 *225:26 0.000203848
36 *224:43 *4662:A 0
37 *224:43 *225:20 9.74588e-05
38 *224:43 *608:16 0
39 *224:43 *679:10 7.83659e-05
40 *224:49 *4527:CLK 9.3111e-05
41 *224:49 *879:25 4.58904e-05
42 *4008:D *4247:A 0
43 *222:33 *4247:A 0
*RES
1 *4008:X *224:6 10.6571 
2 *224:6 *4247:A 22.1214 
3 *224:6 *224:23 10.375 
4 *224:23 *224:29 9.41071 
5 *224:29 *224:39 8.89286 
6 *224:39 *224:43 7.96429 
7 *224:43 *224:49 5.80357 
8 *224:49 *4250:B 22.0321 
9 *224:49 *4249:B 9.3 
10 *224:43 *4255:A3 15.6036 
11 *224:39 *4260:A2 14.5321 
12 *224:29 *4010:A 9.3 
13 *224:23 *4011:C 15.1929 
*END

*D_NET *225 0.00415619
*CONN
*I *4260:A3 I *D sky130_fd_sc_hd__o31a_2
*I *4010:B I *D sky130_fd_sc_hd__nor2_2
*I *4011:D I *D sky130_fd_sc_hd__or4_2
*I *4009:X O *D sky130_fd_sc_hd__or3_2
*CAP
1 *4260:A3 0
2 *4010:B 0
3 *4011:D 0.000113064
4 *4009:X 0.000909922
5 *225:26 0.000189249
6 *225:20 0.000986106
7 *4011:D *4260:B1 0.000400654
8 *4011:D *4527:CLK 0.000364974
9 *225:20 *4253:A 0.000165603
10 *225:20 *4253:B 2.27416e-05
11 *225:20 *4258:B 0.00010096
12 *225:20 *4260:A1 5.52238e-05
13 *225:20 *4262:A 2.14658e-05
14 *225:20 *4535:RESET_B 6.05161e-06
15 *225:20 *4683:A 3.57315e-05
16 *225:20 *458:12 0
17 *225:20 *608:16 0
18 *225:20 *679:10 0.000175505
19 *225:20 *679:12 0.000102545
20 *225:20 *682:14 0
21 *225:20 *880:14 3.80953e-06
22 *225:26 *4258:B 1.21289e-05
23 *225:26 *4260:B1 0.000106908
24 *4260:A2 *225:20 3.17163e-05
25 *224:29 *4011:D 7.80714e-06
26 *224:39 *4011:D 2.87485e-05
27 *224:39 *225:20 1.39726e-05
28 *224:39 *225:26 0.000203848
29 *224:43 *225:20 9.74588e-05
*RES
1 *4009:X *225:20 34.7464 
2 *225:20 *225:26 2.92857 
3 *225:26 *4011:D 23.5143 
4 *225:26 *4010:B 9.3 
5 *225:20 *4260:A3 9.3 
*END

*D_NET *226 0.00110027
*CONN
*I *4258:B I *D sky130_fd_sc_hd__xnor2_2
*I *4256:A I *D sky130_fd_sc_hd__nor2_2
*I *4010:Y O *D sky130_fd_sc_hd__nor2_2
*CAP
1 *4258:B 0.000209745
2 *4256:A 7.48602e-05
3 *4010:Y 0.000284605
4 *4256:A *4527:CLK 6.97972e-05
5 *4256:A *663:57 0
6 *4258:B *4260:A1 0
7 *4258:B *4260:B1 0.000139907
8 *4258:B *4262:A 0.000208271
9 *4258:B *608:16 0
10 *225:20 *4258:B 0.00010096
11 *225:26 *4258:B 1.21289e-05
*RES
1 *4010:Y *4256:A 29.2429 
2 *4010:Y *4258:B 32.4393 
*END

*D_NET *227 0.00258515
*CONN
*I *4263:A2 I *D sky130_fd_sc_hd__a21bo_2
*I *4012:B I *D sky130_fd_sc_hd__nor2_2
*I *4261:A2 I *D sky130_fd_sc_hd__o21ai_2
*I *4011:X O *D sky130_fd_sc_hd__or4_2
*CAP
1 *4263:A2 8.60907e-05
2 *4012:B 0.000150555
3 *4261:A2 0
4 *4011:X 0.000252604
5 *227:21 0.000481004
6 *227:10 0.000496962
7 *4012:B *4263:B1_N 0
8 *4012:B *4663:A 0.000123673
9 *4012:B *663:6 0.000126629
10 *4012:B *676:20 0.000202128
11 *4263:A2 *4263:A1 5.52302e-05
12 *4263:A2 *4263:B1_N 1.28809e-05
13 *4263:A2 *4663:A 0.000180111
14 *4263:A2 *350:12 0.000227539
15 *4263:A2 *663:6 8.25996e-05
16 *227:10 *494:60 0
17 *227:10 *663:10 0
18 *227:10 *884:10 0
19 *227:21 *4261:B1 0
20 *227:21 *4263:B1_N 0
21 *227:21 *4524:RESET_B 0
22 *227:21 *4530:D 8.06331e-05
23 *227:21 *663:10 0
24 *227:21 *676:20 0
25 *4261:A1 *227:10 0
26 *4261:A1 *227:21 0
27 *4422:D *4012:B 4.1331e-06
28 *224:23 *227:10 2.23758e-05
*RES
1 *4011:X *227:10 17.5143 
2 *227:10 *4261:A2 13.8 
3 *227:10 *227:21 9.17857 
4 *227:21 *4012:B 23.0321 
5 *227:21 *4263:A2 13.1214 
*END

*D_NET *228 0.0037359
*CONN
*I *4665:A I *D sky130_fd_sc_hd__clkdlybuf4s25_1
*I *4012:Y O *D sky130_fd_sc_hd__nor2_2
*CAP
1 *4665:A 0.00104802
2 *4012:Y 0.00104802
3 *4665:A *4012:A 0.00091971
4 *4665:A *449:226 6.05161e-06
5 *4665:A *449:228 3.17163e-05
6 *4665:A *449:266 0.000238419
7 *4665:A *681:63 9.90367e-05
8 *4665:A *682:14 0.000344917
*RES
1 *4012:Y *4665:A 44.9571 
*END

*D_NET *229 0.00244351
*CONN
*I *4156:B I *D sky130_fd_sc_hd__xnor2_2
*I *4154:A I *D sky130_fd_sc_hd__nor2_2
*I *4014:Y O *D sky130_fd_sc_hd__nor2_2
*CAP
1 *4156:B 0.000223108
2 *4154:A 0.000282238
3 *4014:Y 1.57484e-05
4 *229:6 0.000521094
5 *4154:A *4154:B 0.00010096
6 *4154:A *4155:A2 0.000367433
7 *4154:A *4532:CLK 0.000148911
8 *4154:A *553:16 2.89114e-05
9 *4154:A *553:27 2.89016e-05
10 *4154:A *653:36 2.51343e-06
11 *4154:A *827:27 0.000310292
12 *4156:B *4152:B1 7.79781e-06
13 *4156:B *4158:A1 0
14 *4156:B *4532:CLK 0
15 *4156:B *4532:D 0
16 *4156:B *553:16 2.94103e-05
17 *4156:B *553:27 0.000195462
18 *4156:B *653:70 9.11365e-06
19 *229:6 *4155:B1 5.71472e-05
20 *229:6 *553:27 1.5424e-05
21 *229:6 *827:27 9.90431e-05
*RES
1 *4014:Y *229:6 10.2464 
2 *229:6 *4154:A 25.8357 
3 *229:6 *4156:B 23.5857 
*END

*D_NET *230 0.00909203
*CONN
*I *4016:B I *D sky130_fd_sc_hd__nor2_2
*I *4161:B I *D sky130_fd_sc_hd__and2_2
*I *4017:D I *D sky130_fd_sc_hd__or4_2
*I *4166:A3 I *D sky130_fd_sc_hd__o31ai_2
*I *4159:A I *D sky130_fd_sc_hd__and2_2
*I *4015:X O *D sky130_fd_sc_hd__or4_2
*CAP
1 *4016:B 0
2 *4161:B 0.000330606
3 *4017:D 0
4 *4166:A3 0.000379203
5 *4159:A 0.000281415
6 *4015:X 5.2995e-05
7 *230:33 0.000572149
8 *230:31 0.00053856
9 *230:27 0.000397755
10 *230:8 0.000717157
11 *4159:A *4015:C 1.76039e-05
12 *4159:A *4015:D 2.6949e-05
13 *4159:A *4159:B 7.20796e-05
14 *4159:A *4160:A2 0.000143268
15 *4159:A *693:8 0.000353131
16 *4159:A *693:10 0.000119618
17 *4159:A *693:16 0.000254337
18 *4159:A *841:10 6.74192e-05
19 *4159:A *841:21 0.000103285
20 *4159:A *842:8 7.79781e-06
21 *4161:B *4162:A 7.2754e-05
22 *4161:B *4164:B 1.17968e-05
23 *4161:B *653:36 0.000249363
24 *4161:B *682:27 0.00041868
25 *4161:B *843:42 0.000170955
26 *4166:A3 *4017:A 4.1331e-06
27 *4166:A3 *4017:C 0.000342495
28 *4166:A3 *4166:A2 9.90367e-05
29 *4166:A3 *4166:B1 0.000465036
30 *4166:A3 *4167:B 0.00047054
31 *4166:A3 *4534:D 0
32 *4166:A3 *4674:A 2.89114e-05
33 *4166:A3 *232:8 0
34 *4166:A3 *652:6 1.69961e-05
35 *4166:A3 *652:52 1.15281e-05
36 *230:8 *4015:C 4.56594e-05
37 *230:8 *4015:D 2.84009e-05
38 *230:8 *838:12 5.80706e-06
39 *230:27 *4016:A 1.04232e-05
40 *230:27 *4017:A 2.89016e-05
41 *230:27 *4158:A1 0.000102207
42 *230:27 *4158:A2 0.00018077
43 *230:27 *4158:A3 2.14658e-05
44 *230:27 *4158:B1 2.95726e-05
45 *230:27 *553:59 0.000114311
46 *230:27 *655:32 0.00130729
47 *230:27 *843:14 2.44318e-05
48 *230:31 *655:32 1.39841e-05
49 *230:31 *843:14 5.52302e-05
50 *230:33 *4017:A 0.000123937
51 *230:33 *4017:C 2.31791e-05
52 *230:33 *4164:B 0.000178912
*RES
1 *4015:X *230:8 15.1393 
2 *230:8 *4159:A 24.2464 
3 *230:8 *230:27 18.3393 
4 *230:27 *230:31 5.03571 
5 *230:31 *230:33 4.98214 
6 *230:33 *4166:A3 26.8 
7 *230:33 *4017:D 13.8 
8 *230:31 *4161:B 22.7821 
9 *230:27 *4016:B 9.3 
*END

*D_NET *231 0.0021404
*CONN
*I *4162:A I *D sky130_fd_sc_hd__nor2_2
*I *4164:B I *D sky130_fd_sc_hd__xnor2_2
*I *4016:Y O *D sky130_fd_sc_hd__nor2_2
*CAP
1 *4162:A 0.000379072
2 *4164:B 0.000148181
3 *4016:Y 1.64648e-05
4 *231:8 0.000543718
5 *4162:A *4471:RESET_B 7.92975e-05
6 *4162:A *4674:A 4.80729e-05
7 *4162:A *4675:A 0.000148189
8 *4162:A *4699:A 1.17968e-05
9 *4164:B *4017:C 3.51442e-05
10 *4164:B *4674:A 0.000409182
11 *231:8 *655:8 6.05161e-06
12 *231:8 *655:32 2.28598e-05
13 *231:8 *843:14 2.89114e-05
14 *4161:B *4162:A 7.2754e-05
15 *4161:B *4164:B 1.17968e-05
16 *230:33 *4164:B 0.000178912
*RES
1 *4016:Y *231:8 14.3357 
2 *231:8 *4164:B 19.0857 
3 *231:8 *4162:A 21.4786 
*END

*D_NET *232 0.00464944
*CONN
*I *4167:A I *D sky130_fd_sc_hd__and2_2
*I *4169:B I *D sky130_fd_sc_hd__and2_2
*I *4018:B I *D sky130_fd_sc_hd__nor2_2
*I *4174:A3 I *D sky130_fd_sc_hd__o31ai_2
*I *4019:D I *D sky130_fd_sc_hd__or4_2
*I *4017:X O *D sky130_fd_sc_hd__or4_2
*CAP
1 *4167:A 0
2 *4169:B 0
3 *4018:B 0.000343874
4 *4174:A3 0
5 *4019:D 0.00011806
6 *4017:X 9.01945e-05
7 *232:31 0.000450256
8 *232:16 0.000988285
9 *232:8 0.000854037
10 *4018:B *4018:A 0.000415381
11 *4018:B *4170:B 0.000181899
12 *4018:B *233:8 4.10319e-05
13 *4018:B *542:62 0.000223677
14 *4019:D *4019:B 4.93118e-06
15 *4019:D *4169:A 0.000124749
16 *4019:D *4174:B1 0.00012249
17 *4019:D *846:30 9.58632e-05
18 *232:8 *4157:B1 0
19 *232:8 *4534:D 0
20 *232:16 *4017:C 0
21 *232:16 *4157:B1 0
22 *232:16 *4167:B 8.15939e-05
23 *232:16 *4175:B 0.000237549
24 *232:16 *4182:A1 0
25 *232:16 *473:24 0
26 *232:16 *845:8 0
27 *232:31 *4170:B 3.96138e-05
28 *232:31 *4174:B1 0.000141935
29 *232:31 *4175:B 9.40222e-05
30 *4166:A3 *232:8 0
*RES
1 *4017:X *232:8 15.4429 
2 *232:8 *232:16 19.375 
3 *232:16 *4019:D 21.1929 
4 *232:16 *232:31 3 
5 *232:31 *4174:A3 9.3 
6 *232:31 *4018:B 17.8714 
7 *232:16 *4169:B 9.3 
8 *232:8 *4167:A 13.8 
*END

*D_NET *233 0.00268262
*CONN
*I *4170:A I *D sky130_fd_sc_hd__nor2_2
*I *4172:B I *D sky130_fd_sc_hd__xnor2_2
*I *4018:Y O *D sky130_fd_sc_hd__nor2_2
*CAP
1 *4170:A 0.00018996
2 *4172:B 0.000209517
3 *4018:Y 0.000432526
4 *233:8 0.000832002
5 *4170:A *4170:B 0.000322453
6 *4170:A *4171:A2 0
7 *4170:A *680:27 0
8 *4170:A *680:29 0
9 *4170:A *846:12 1.70057e-05
10 *4170:A *847:10 0.000138858
11 *4170:A *847:16 5.74309e-05
12 *4172:B *4173:A2 4.6845e-05
13 *4172:B *4176:A2 5.50052e-05
14 *4172:B *846:12 2.09722e-05
15 *4172:B *847:16 0.000173152
16 *233:8 *4018:A 0.000114748
17 *233:8 *4171:A2 3.11088e-05
18 *4018:B *233:8 4.10319e-05
*RES
1 *4018:Y *233:8 19.2643 
2 *233:8 *4172:B 18.7107 
3 *233:8 *4170:A 19.3893 
*END

*D_NET *234 0.00541078
*CONN
*I *4182:A3 I *D sky130_fd_sc_hd__o31ai_2
*I *4177:B I *D sky130_fd_sc_hd__and2_2
*I *4021:D I *D sky130_fd_sc_hd__or4_2
*I *4020:B I *D sky130_fd_sc_hd__nor2_2
*I *4175:A I *D sky130_fd_sc_hd__and2_2
*I *4019:X O *D sky130_fd_sc_hd__or4_2
*CAP
1 *4182:A3 0.000460048
2 *4177:B 0
3 *4021:D 0.000753391
4 *4020:B 0.000219463
5 *4175:A 0
6 *4019:X 0.000199011
7 *234:47 0.000582005
8 *234:19 0.00100096
9 *234:17 0.000312756
10 *234:8 0.000361704
11 *4020:B *4020:A 1.02301e-05
12 *4020:B *4541:CLK 0.000152542
13 *4020:B *828:6 1.16543e-05
14 *4021:D *4021:B 2.68557e-05
15 *4021:D *4542:CLK 1.4796e-05
16 *4021:D *4542:D 0.000163714
17 *4021:D *829:22 0.000117178
18 *4182:A3 *4182:A1 0.000269422
19 *4182:A3 *4182:A2 4.22908e-05
20 *4182:A3 *4543:D 0
21 *4182:A3 *473:24 0.00020042
22 *4182:A3 *473:26 0.000216579
23 *4182:A3 *652:56 0
24 *234:17 *4542:CLK 5.33005e-05
25 *234:19 *4541:CLK 4.73355e-05
26 *234:47 *4541:CLK 2.22419e-05
27 *234:47 *473:26 0.000172884
*RES
1 *4019:X *234:8 12.7286 
2 *234:8 *4175:A 9.3 
3 *234:8 *234:17 7.08929 
4 *234:17 *234:19 0.732143 
5 *234:19 *4020:B 17.8357 
6 *234:19 *4021:D 24.425 
7 *234:17 *234:47 2.55357 
8 *234:47 *4177:B 13.8 
9 *234:47 *4182:A3 24.1571 
*END

*D_NET *235 0.00159394
*CONN
*I *4178:A I *D sky130_fd_sc_hd__nor2_2
*I *4180:B I *D sky130_fd_sc_hd__xnor2_2
*I *4020:Y O *D sky130_fd_sc_hd__nor2_2
*CAP
1 *4178:A 7.81103e-05
2 *4180:B 0.000505811
3 *4020:Y 0.0004277
4 *4178:A *4178:B 0.000225374
5 *4178:A *4180:A 5.49995e-05
6 *4180:B *4178:B 0.000143633
7 *4180:B *4541:CLK 8.91963e-06
8 *4180:B *828:17 0.000149392
*RES
1 *4020:Y *4180:B 36.0464 
2 *4180:B *4178:A 20.7786 
*END

*D_NET *236 0.00630438
*CONN
*I *4024:B I *D sky130_fd_sc_hd__or3_2
*I *4183:A I *D sky130_fd_sc_hd__and2_2
*I *4022:B I *D sky130_fd_sc_hd__nor2_2
*I *4185:B I *D sky130_fd_sc_hd__and2_2
*I *4026:B I *D sky130_fd_sc_hd__or4_2
*I *4190:A3 I *D sky130_fd_sc_hd__o31ai_2
*I *4021:X O *D sky130_fd_sc_hd__or4_2
*CAP
1 *4024:B 5.16966e-05
2 *4183:A 0.000524211
3 *4022:B 0.000164337
4 *4185:B 1.20771e-05
5 *4026:B 0.000524378
6 *4190:A3 0.000114823
7 *4021:X 0.000629028
8 *236:65 0.000902576
9 *236:38 0.00026904
10 *236:14 0.000493832
11 *236:10 0.000902954
12 *4022:B *4022:A 5.14783e-05
13 *4022:B *4188:B 2.85234e-05
14 *4022:B *237:8 2.46378e-05
15 *4024:B *474:25 7.83659e-05
16 *4024:B *564:26 0
17 *4026:B *4023:A 4.72217e-05
18 *4026:B *4023:B 0
19 *4026:B *4024:A 2.42564e-05
20 *4026:B *4026:D 0
21 *4026:B *831:25 8.46259e-06
22 *4026:B *832:21 4.30904e-05
23 *4185:B *4022:A 1.32693e-05
24 *4185:B *4188:B 1.02301e-05
25 *4190:A3 *4190:A1 6.05161e-06
26 *4190:A3 *4191:B 5.52238e-05
27 *4190:A3 *4192:A2 6.35941e-05
28 *236:10 *4188:A 5.33005e-05
29 *236:10 *4188:B 5.49995e-05
30 *236:10 *4189:A1 0.000186765
31 *236:10 *4189:A2 0.000140907
32 *236:10 *4189:B1 1.34631e-05
33 *236:10 *4545:D 0.000139202
34 *236:14 *4546:RESET_B 8.83386e-05
35 *236:14 *832:10 1.41642e-05
36 *236:14 *832:21 0.000171627
37 *236:14 *833:10 0
38 *236:38 *4188:B 0.000206662
39 *236:65 *4024:C 0.000191597
*RES
1 *4021:X *236:10 20.6571 
2 *236:10 *236:14 9.17857 
3 *236:14 *4190:A3 16.0143 
4 *236:14 *4026:B 17.5679 
5 *236:10 *236:38 2.17857 
6 *236:38 *4185:B 9.72857 
7 *236:38 *4022:B 12.7643 
8 *4026:B *236:65 13.5321 
9 *236:65 *4183:A 17.9607 
10 *236:65 *4024:B 19.3357 
*END

*D_NET *237 0.00166852
*CONN
*I *4186:A I *D sky130_fd_sc_hd__nor2_2
*I *4188:B I *D sky130_fd_sc_hd__xnor2_2
*I *4022:Y O *D sky130_fd_sc_hd__nor2_2
*CAP
1 *4186:A 0.000275296
2 *4188:B 0.000163083
3 *4022:Y 8.87038e-05
4 *237:8 0.000527083
5 *4186:A *4186:B 0.000105676
6 *4186:A *831:55 0.00012249
7 *4188:B *4022:A 7.48833e-07
8 *237:8 *4022:A 6.03873e-05
9 *4022:B *4188:B 2.85234e-05
10 *4022:B *237:8 2.46378e-05
11 *4185:B *4188:B 1.02301e-05
12 *236:10 *4188:B 5.49995e-05
13 *236:38 *4188:B 0.000206662
*RES
1 *4022:Y *237:8 11.0857 
2 *237:8 *4188:B 12.8536 
3 *237:8 *4186:A 23.5857 
*END

*D_NET *238 0.00123192
*CONN
*I *4026:C I *D sky130_fd_sc_hd__or4_2
*I *4024:C I *D sky130_fd_sc_hd__or3_2
*I *4023:X O *D sky130_fd_sc_hd__or2_2
*CAP
1 *4026:C 0
2 *4024:C 0.00030822
3 *4023:X 6.23129e-05
4 *238:6 0.000370533
5 *4024:C *4023:A 6.05161e-06
6 *4024:C *474:25 0.000199698
7 *238:6 *4023:A 3.8274e-05
8 *238:6 *4026:D 5.52302e-05
9 *236:65 *4024:C 0.000191597
*RES
1 *4023:X *238:6 10.6571 
2 *238:6 *4024:C 24.675 
3 *238:6 *4026:C 9.3 
*END

*D_NET *239 0.00550138
*CONN
*I *4194:B I *D sky130_fd_sc_hd__nand2_2
*I *4193:B I *D sky130_fd_sc_hd__nor2_2
*I *4197:C I *D sky130_fd_sc_hd__or3_2
*I *4191:A I *D sky130_fd_sc_hd__and2_2
*I *4024:X O *D sky130_fd_sc_hd__or3_2
*CAP
1 *4194:B 0.000475366
2 *4193:B 0
3 *4197:C 0
4 *4191:A 0.000230433
5 *4024:X 0.000510801
6 *239:46 0.000590044
7 *239:31 0.000406347
8 *239:14 0.0010329
9 *4191:A *4023:B 7.68486e-05
10 *4191:A *4025:B 4.38604e-05
11 *4191:A *4026:D 0.000153054
12 *4191:A *4200:A2 0
13 *4191:A *833:10 1.28585e-05
14 *4194:B *4197:A 1.02504e-05
15 *4194:B *4571:CLK 0.000202835
16 *4194:B *474:82 0.000189441
17 *239:14 *4024:A 3.96245e-05
18 *239:14 *4200:A1 0.000185541
19 *239:14 *4200:A2 0.00010304
20 *239:14 *4200:B1_N 0.000228508
21 *239:14 *4201:A2 0.000271301
22 *239:31 *4025:B 0.000160291
23 *239:31 *4196:A2 1.76135e-05
24 *239:31 *4197:B 2.77173e-05
25 *239:31 *4200:A2 0
26 *239:31 *474:71 9.24395e-05
27 *239:31 *474:82 6.39901e-05
28 *239:31 *835:8 1.33343e-05
29 *239:46 *4197:A 0.000179656
30 *239:46 *4197:B 6.05161e-06
31 *239:46 *474:82 0.000177227
*RES
1 *4024:X *239:14 23.9429 
2 *239:14 *4191:A 19.3893 
3 *239:14 *239:31 12.0714 
4 *239:31 *4197:C 9.3 
5 *239:31 *239:46 8.14286 
6 *239:46 *4193:B 13.8 
7 *239:46 *4194:B 23.0143 
*END

*D_NET *240 0.000755981
*CONN
*I *4026:D I *D sky130_fd_sc_hd__or4_2
*I *4025:X O *D sky130_fd_sc_hd__or3_2
*CAP
1 *4026:D 0.000199517
2 *4025:X 0.000199517
3 *4026:D *4023:A 0.000142856
4 *4026:D *4025:B 5.80706e-06
5 *4026:B *4026:D 0
6 *4191:A *4026:D 0.000153054
7 *238:6 *4026:D 5.52302e-05
*RES
1 *4025:X *4026:D 32.1357 
*END

*D_NET *241 0.00648906
*CONN
*I *4204:A2 I *D sky130_fd_sc_hd__o21ai_2
*I *4027:C I *D sky130_fd_sc_hd__or3_2
*I *4202:B I *D sky130_fd_sc_hd__xor2_2
*I *4200:B1_N I *D sky130_fd_sc_hd__a21boi_2
*I *4026:X O *D sky130_fd_sc_hd__or4_2
*CAP
1 *4204:A2 0.000289315
2 *4027:C 7.32991e-05
3 *4202:B 0.00129725
4 *4200:B1_N 4.78503e-05
5 *4026:X 0.000138739
6 *241:40 0.00056234
7 *241:8 0.00128411
8 *4027:C *4027:A 9.90431e-05
9 *4200:B1_N *4024:A 8.20547e-05
10 *4202:B *4194:A 0.000271797
11 *4202:B *4195:B 0.000115889
12 *4202:B *4200:A1 9.26164e-05
13 *4202:B *4201:A2 0
14 *4202:B *4549:RESET_B 5.93614e-05
15 *4202:B *4627:A 0
16 *4202:B *464:10 0
17 *4202:B *474:25 0
18 *4202:B *696:81 2.95565e-05
19 *4204:A2 *4202:A 3.34366e-05
20 *4204:A2 *4204:A1 0.000891243
21 *4204:A2 *4204:B1 0.000199363
22 *4204:A2 *4550:RESET_B 8.86354e-05
23 *4204:A2 *4570:CLK 6.8646e-06
24 *4204:A2 *4629:A 0.000139251
25 *4204:A2 *695:26 5.16583e-05
26 *241:8 *4024:A 4.6361e-05
27 *241:40 *4202:A 0.000339925
28 *241:40 *4550:RESET_B 4.1331e-06
29 *241:40 *242:12 1.64616e-05
30 *239:14 *4200:B1_N 0.000228508
*RES
1 *4026:X *241:8 16.05 
2 *241:8 *4200:B1_N 15.9786 
3 *241:8 *4202:B 25.125 
4 *4202:B *241:40 8.99107 
5 *241:40 *4027:C 15.1571 
6 *241:40 *4204:A2 25.05 
*END

*D_NET *242 0.00297181
*CONN
*I *4205:A2 I *D sky130_fd_sc_hd__o211ai_2
*I *4206:A2 I *D sky130_fd_sc_hd__a21bo_2
*I *4028:B I *D sky130_fd_sc_hd__nor2_2
*I *4027:X O *D sky130_fd_sc_hd__or3_2
*CAP
1 *4205:A2 2.04856e-05
2 *4206:A2 0.000126526
3 *4028:B 0.000111613
4 *4027:X 0.0008995
5 *242:25 0.000169296
6 *242:12 0.0010334
7 *4028:B *4551:D 1.02504e-05
8 *4028:B *840:12 8.56716e-05
9 *4205:A2 *4205:B1 5.38444e-06
10 *4206:A2 *4205:B1 0.000101895
11 *4206:A2 *4206:B1_N 6.05161e-06
12 *242:12 *4202:A 0.000129595
13 *242:12 *4205:B1 3.05605e-05
14 *242:12 *4205:C1 0.000140102
15 *242:12 *4571:CLK 8.50152e-05
16 *241:40 *242:12 1.64616e-05
*RES
1 *4027:X *242:12 33.4071 
2 *242:12 *4028:B 20.55 
3 *242:12 *242:25 0.428571 
4 *242:25 *4206:A2 11.4786 
5 *242:25 *4205:A2 9.72857 
*END

*D_NET *243 0.00108286
*CONN
*I *4661:A I *D sky130_fd_sc_hd__clkdlybuf4s25_1
*I *4028:Y O *D sky130_fd_sc_hd__nor2_2
*CAP
1 *4661:A 0.00019858
2 *4028:Y 0.00019858
3 *4661:A *3844:A 0.000237164
4 *4661:A *4203:B1 5.65955e-05
5 *4661:A *4550:D 1.77867e-05
6 *4661:A *564:14 5.20751e-05
7 *4205:A1 *4661:A 0.000322082
*RES
1 *4028:Y *4661:A 24.225 
*END

*D_NET *244 0.00242639
*CONN
*I *4097:A I *D sky130_fd_sc_hd__nor2_2
*I *4099:B I *D sky130_fd_sc_hd__xnor2_2
*I *4030:Y O *D sky130_fd_sc_hd__nor2_2
*CAP
1 *4097:A 0.000398492
2 *4099:B 8.34135e-05
3 *4030:Y 0.000239991
4 *244:8 0.000721897
5 *4097:A *4031:B 5.51716e-05
6 *4097:A *4097:B 4.81746e-05
7 *4097:A *4098:A2 7.61932e-05
8 *4097:A *4098:B1 3.69047e-06
9 *4097:A *4554:D 2.27416e-05
10 *4097:A *711:27 6.74127e-05
11 *4097:A *793:18 0.000162037
12 *4099:B *4031:B 0.000146254
13 *4099:B *711:27 4.6845e-05
14 *244:8 *4030:B 0.00035408
*RES
1 *4030:Y *244:8 17.2107 
2 *244:8 *4099:B 15.7464 
3 *244:8 *4097:A 21.6214 
*END

*D_NET *245 0.00495632
*CONN
*I *4102:A I *D sky130_fd_sc_hd__and2_2
*I *4032:B I *D sky130_fd_sc_hd__nor2_2
*I *4033:D I *D sky130_fd_sc_hd__or4_2
*I *4109:A3 I *D sky130_fd_sc_hd__o31ai_2
*I *4104:B I *D sky130_fd_sc_hd__and2_2
*I *4031:X O *D sky130_fd_sc_hd__or4_2
*CAP
1 *4102:A 0.000156658
2 *4032:B 5.85837e-05
3 *4033:D 0.000137735
4 *4109:A3 0
5 *4104:B 2.13113e-05
6 *4031:X 9.28245e-05
7 *245:47 0.000293598
8 *245:27 0.000640718
9 *245:14 0.00129969
10 *245:8 0.00094658
11 *4032:B *657:31 5.50052e-05
12 *4032:B *711:55 0.000174918
13 *4033:D *4033:A 0.000141941
14 *4033:D *799:12 0.000142351
15 *4102:A *657:31 0.000149113
16 *245:8 *711:55 0.000141935
17 *245:27 *4104:A 0.000444292
18 *245:27 *4110:B 2.16573e-05
19 *245:27 *798:21 2.73164e-05
20 *245:27 *799:12 1.00887e-05
*RES
1 *4031:X *245:8 15.1571 
2 *245:8 *245:14 17.625 
3 *245:14 *4104:B 9.72857 
4 *245:14 *245:27 15.25 
5 *245:27 *4109:A3 13.8 
6 *245:27 *4033:D 17.1036 
7 *245:8 *245:47 1.03571 
8 *245:47 *4032:B 15.5679 
9 *245:47 *4102:A 16.9964 
*END

*D_NET *246 0.00141314
*CONN
*I *4107:B I *D sky130_fd_sc_hd__xnor2_2
*I *4105:A I *D sky130_fd_sc_hd__nor2_2
*I *4032:Y O *D sky130_fd_sc_hd__nor2_2
*CAP
1 *4107:B 0.000243049
2 *4105:A 0.000100462
3 *4032:Y 9.09565e-05
4 *246:8 0.000434467
5 *4105:A *4106:A2 5.09999e-05
6 *4107:B *4032:A 0.000167128
7 *4107:B *4108:A1 0.00010012
8 *4107:B *4108:A2 9.84729e-05
9 *246:8 *4032:A 0.000100165
10 *246:8 *4106:A1 2.12733e-05
11 *246:8 *711:55 6.05161e-06
*RES
1 *4032:Y *246:8 11.0857 
2 *246:8 *4105:A 20.2464 
3 *246:8 *4107:B 14.3714 
*END

*D_NET *247 0.00509692
*CONN
*I *4110:A I *D sky130_fd_sc_hd__and2_2
*I *4034:B I *D sky130_fd_sc_hd__nor2_2
*I *4035:D I *D sky130_fd_sc_hd__or4_2
*I *4117:A3 I *D sky130_fd_sc_hd__o31ai_2
*I *4112:B I *D sky130_fd_sc_hd__and2_2
*I *4033:X O *D sky130_fd_sc_hd__or4_2
*CAP
1 *4110:A 0
2 *4034:B 0
3 *4035:D 1.35825e-05
4 *4117:A3 0.000267011
5 *4112:B 0.000114121
6 *4033:X 0.000582999
7 *247:37 0.000391388
8 *247:31 0.000204433
9 *247:16 0.000296423
10 *247:12 0.000671664
11 *4035:D *4035:A 4.27935e-05
12 *4035:D *4035:B 1.92905e-05
13 *4112:B *4112:A 0.00010096
14 *4117:A3 *4035:A 0.000137983
15 *4117:A3 *4035:B 1.21258e-05
16 *4117:A3 *4115:B 0
17 *4117:A3 *4117:A1 0.00060785
18 *4117:A3 *4117:A2 0.000173804
19 *4117:A3 *4561:RESET_B 0.000137983
20 *4117:A3 *802:10 0.000320738
21 *247:12 *4110:B 0
22 *247:12 *4559:RESET_B 0
23 *247:12 *800:8 0
24 *247:16 *4110:B 1.99099e-05
25 *247:16 *4113:A 0
26 *247:16 *4559:RESET_B 0.000201127
27 *247:31 *4034:A 9.60939e-05
28 *247:31 *4112:A 0.000176234
29 *247:31 *4113:A 0
30 *247:31 *4559:RESET_B 0.000223592
31 *247:31 *4560:RESET_B 5.33005e-05
32 *247:31 *248:8 1.98839e-05
33 *247:31 *801:19 3.34366e-05
34 *247:37 *4559:RESET_B 3.17148e-05
35 *247:37 *698:25 0.000146474
*RES
1 *4033:X *247:12 28.2107 
2 *247:12 *247:16 7.05357 
3 *247:16 *4112:B 15.9786 
4 *247:16 *247:31 8.30357 
5 *247:31 *247:37 11.25 
6 *247:37 *4117:A3 27.7821 
7 *247:37 *4035:D 9.83571 
8 *247:31 *4034:B 9.3 
9 *247:12 *4110:A 9.3 
*END

*D_NET *248 0.00207873
*CONN
*I *4115:B I *D sky130_fd_sc_hd__xnor2_2
*I *4113:A I *D sky130_fd_sc_hd__nor2_2
*I *4034:Y O *D sky130_fd_sc_hd__nor2_2
*CAP
1 *4115:B 0.000369904
2 *4113:A 0.000248863
3 *4034:Y 0.000300223
4 *248:8 0.000918989
5 *4113:A *4112:A 0
6 *4113:A *4114:A2 0
7 *4113:A *4560:D 0
8 *4113:A *801:19 0
9 *4115:B *4116:B1 0
10 *4115:B *4117:A1 0
11 *4115:B *4560:D 0
12 *4115:B *4561:D 0
13 *4115:B *658:36 0
14 *4115:B *801:19 0
15 *4115:B *802:10 0
16 *248:8 *4560:RESET_B 0.000220865
17 *4117:A3 *4115:B 0
18 *247:16 *4113:A 0
19 *247:31 *4113:A 0
20 *247:31 *248:8 1.98839e-05
*RES
1 *4034:Y *248:8 17.6214 
2 *248:8 *4113:A 18.3357 
3 *248:8 *4115:B 20.3 
*END

*D_NET *249 0.00364823
*CONN
*I *4125:A3 I *D sky130_fd_sc_hd__o31ai_2
*I *4037:D I *D sky130_fd_sc_hd__or4_2
*I *4036:B I *D sky130_fd_sc_hd__nor2_2
*I *4120:B I *D sky130_fd_sc_hd__and2_2
*I *4118:A I *D sky130_fd_sc_hd__and2_2
*I *4035:X O *D sky130_fd_sc_hd__or4_2
*CAP
1 *4125:A3 0.000100573
2 *4037:D 9.69257e-05
3 *4036:B 2.2879e-05
4 *4120:B 0.000346891
5 *4118:A 0
6 *4035:X 0.000136944
7 *249:41 0.000207209
8 *249:30 0.000305125
9 *249:17 0.000972001
10 *249:8 0.000489518
11 *4036:B *4037:C 5.52302e-05
12 *4036:B *250:10 6.05161e-06
13 *4037:D *4121:B 0
14 *4037:D *4126:B 0
15 *4120:B *4120:A 5.52238e-05
16 *4120:B *4121:B 0.000185643
17 *4125:A3 *4037:C 0
18 *4125:A3 *4121:B 0
19 *4125:A3 *4125:A1 5.26091e-05
20 *249:8 *4035:C 0.000108848
21 *249:8 *4117:B1 6.74911e-05
22 *249:8 *4562:RESET_B 0.000153054
23 *249:17 *4117:B1 0.000131247
24 *249:17 *4562:RESET_B 0.000154762
25 *249:30 *4121:B 0
26 *249:41 *4037:C 0
*RES
1 *4035:X *249:8 17.8714 
2 *249:8 *4118:A 13.8 
3 *249:8 *249:17 8.01786 
4 *249:17 *4120:B 20.1036 
5 *249:17 *249:30 4.67857 
6 *249:30 *4036:B 14.3357 
7 *249:30 *249:41 0.276786 
8 *249:41 *4037:D 15.0232 
9 *249:41 *4125:A3 15.8982 
*END

*D_NET *250 0.00172583
*CONN
*I *4123:B I *D sky130_fd_sc_hd__xnor2_2
*I *4121:A I *D sky130_fd_sc_hd__nor2_2
*I *4036:Y O *D sky130_fd_sc_hd__nor2_2
*CAP
1 *4123:B 0.000241113
2 *4121:A 0
3 *4036:Y 0.000296172
4 *250:10 0.000537284
5 *4123:B *4122:A2 1.55885e-05
6 *4123:B *4125:A1 0
7 *4123:B *4125:A2 0.000372337
8 *250:10 *4036:A 9.60939e-05
9 *250:10 *4037:C 1.02821e-05
10 *250:10 *4121:B 4.57445e-05
11 *250:10 *4125:A1 0
12 *250:10 *783:23 5.62995e-05
13 *250:10 *783:32 4.88637e-05
14 *4036:B *250:10 6.05161e-06
*RES
1 *4036:Y *250:10 18.4429 
2 *250:10 *4121:A 13.8 
3 *250:10 *4123:B 18.7821 
*END

*D_NET *251 0.0066961
*CONN
*I *4039:D I *D sky130_fd_sc_hd__or4_2
*I *4128:B I *D sky130_fd_sc_hd__and2_2
*I *4133:A3 I *D sky130_fd_sc_hd__o31ai_2
*I *4038:B I *D sky130_fd_sc_hd__nor2_2
*I *4126:A I *D sky130_fd_sc_hd__and2_2
*I *4037:X O *D sky130_fd_sc_hd__or4_2
*CAP
1 *4039:D 0.000177533
2 *4128:B 0
3 *4133:A3 0.000131938
4 *4038:B 0.000449197
5 *4126:A 0
6 *4037:X 0.00066678
7 *251:40 0.000274505
8 *251:32 0.000452
9 *251:19 0.000661336
10 *251:10 0.000747018
11 *4038:B *4038:A 4.22908e-05
12 *4038:B *4634:A 9.90431e-05
13 *4038:B *253:12 0.000108539
14 *4039:D *253:12 0
15 *4039:D *701:37 7.83366e-05
16 *4133:A3 *4129:B 0.000183674
17 *4133:A3 *4135:A2 0
18 *4133:A3 *252:10 0.000391576
19 *251:10 *4037:B 0.000142856
20 *251:10 *4121:B 0
21 *251:10 *4124:A2 0.00010979
22 *251:10 *4124:B1 0
23 *251:10 *4564:RESET_B 0.000197787
24 *251:10 *452:14 0
25 *251:10 *783:23 1.21258e-05
26 *251:10 *784:26 2.00529e-05
27 *251:19 *4564:RESET_B 1.99099e-05
28 *251:19 *452:14 0
29 *251:19 *701:37 6.1684e-05
30 *251:32 *4633:A 0
31 *251:32 *253:12 0
32 *251:32 *701:37 0.000118339
33 *251:40 *4127:A1 0.00055575
34 *251:40 *4127:B1 0.000303747
35 *251:40 *659:98 0.00045789
36 *251:40 *720:92 0.000232399
*RES
1 *4037:X *251:10 25.1571 
2 *251:10 *4126:A 13.8 
3 *251:10 *251:19 1.94643 
4 *251:19 *4038:B 21.7464 
5 *251:19 *251:32 2.85714 
6 *251:32 *251:40 12.5714 
7 *251:40 *4133:A3 23.2821 
8 *251:40 *4128:B 9.3 
9 *251:32 *4039:D 17.1214 
*END

*D_NET *252 0.00213622
*CONN
*I *4129:A I *D sky130_fd_sc_hd__nor2_2
*I *4131:B I *D sky130_fd_sc_hd__xnor2_2
*I *4038:Y O *D sky130_fd_sc_hd__nor2_2
*CAP
1 *4129:A 0
2 *4131:B 4.40688e-05
3 *4038:Y 0.000376228
4 *252:10 0.000420297
5 *4131:B *4130:A2 5.33334e-05
6 *252:10 *4038:A 0.000174805
7 *252:10 *4129:B 0.000129851
8 *252:10 *4131:A 0.000122053
9 *252:10 *4133:A1 0.000223592
10 *252:10 *481:53 0
11 *252:10 *786:10 0.000200413
12 *4133:A3 *252:10 0.000391576
*RES
1 *4038:Y *252:10 30.2643 
2 *252:10 *4131:B 10.2464 
3 *252:10 *4129:A 9.3 
*END

*D_NET *253 0.0125988
*CONN
*I *4134:A I *D sky130_fd_sc_hd__and2_2
*I *4142:A3 I *D sky130_fd_sc_hd__o31a_2
*I *4041:A I *D sky130_fd_sc_hd__nor2_2
*I *4042:C I *D sky130_fd_sc_hd__or4_2
*I *4147:A2 I *D sky130_fd_sc_hd__o31a_2
*I *4137:B I *D sky130_fd_sc_hd__nand2_2
*I *4136:B I *D sky130_fd_sc_hd__nor2_2
*I *4039:X O *D sky130_fd_sc_hd__or4_2
*CAP
1 *4134:A 0.000316495
2 *4142:A3 0.0003428
3 *4041:A 0.000990885
4 *4042:C 0
5 *4147:A2 0.000130829
6 *4137:B 0.000100713
7 *4136:B 0.000609575
8 *4039:X 0
9 *253:56 0.000313577
10 *253:52 0.00166333
11 *253:46 0.000968974
12 *253:16 0.000932034
13 *253:12 0.000999256
14 *253:6 0.000957525
15 *4041:A *4041:B 9.58593e-05
16 *4134:A *4076:B 0
17 *4134:A *4134:B 0
18 *4134:A *4477:D 0
19 *4134:A *4479:CLK 0.000105603
20 *4134:A *4568:RESET_B 7.17509e-05
21 *4134:A *4633:A 0.000307344
22 *4134:A *481:53 1.37292e-05
23 *4136:B *4136:A 0.000155055
24 *4136:B *4137:A 6.25544e-05
25 *4136:B *4138:B 0.000641708
26 *4136:B *4139:A2 3.18676e-05
27 *4136:B *307:6 1.74352e-05
28 *4137:B *4137:A 0
29 *4142:A3 *4040:C 2.44318e-05
30 *4142:A3 *791:14 9.90367e-05
31 *4147:A2 *4042:A 0.000279558
32 *4147:A2 *4042:D 0.000586504
33 *4147:A2 *4147:A1 1.04232e-05
34 *4147:A2 *254:14 5.52238e-05
35 *253:12 *4038:A 7.77751e-05
36 *253:12 *4568:RESET_B 2.88424e-05
37 *253:12 *4633:A 0.00035768
38 *253:12 *4634:A 1.92905e-05
39 *253:12 *701:37 0
40 *253:46 *4038:A 5.83233e-05
41 *253:46 *702:27 0.000100913
42 *253:52 *4572:CLK 0.000306637
43 *253:52 *481:24 0
44 *253:52 *702:27 0.000488067
45 *253:56 *4572:CLK 5.83233e-05
46 *253:56 *4715:A 9.59532e-06
47 *253:56 *531:32 7.80714e-06
48 *253:56 *702:27 9.29686e-05
49 *4038:B *253:12 0.000108539
50 *4039:D *253:12 0
51 *251:32 *253:12 0
*RES
1 *4039:X *253:6 13.8 
2 *253:6 *253:12 15.0536 
3 *253:12 *253:16 2.60714 
4 *253:16 *4136:B 22.3536 
5 *253:16 *4137:B 11.3893 
6 *253:12 *253:46 7.96429 
7 *253:46 *253:52 12.0179 
8 *253:52 *253:56 7.96429 
9 *253:56 *4147:A2 15.1929 
10 *253:56 *4042:C 9.3 
11 *253:52 *4041:A 25.7643 
12 *253:46 *4142:A3 19.2643 
13 *253:6 *4134:A 21.1393 
*END

*D_NET *254 0.00441325
*CONN
*I *4041:B I *D sky130_fd_sc_hd__nor2_2
*I *4042:D I *D sky130_fd_sc_hd__or4_2
*I *4147:A3 I *D sky130_fd_sc_hd__o31a_2
*I *4040:X O *D sky130_fd_sc_hd__or3_2
*CAP
1 *4041:B 0.000135802
2 *4042:D 0.000296803
3 *4147:A3 0
4 *4040:X 0.000649055
5 *254:14 0.000535738
6 *254:8 0.00102379
7 *4042:D *4042:A 0.000108091
8 *4042:D *697:10 5.52302e-05
9 *254:8 *4142:A1 0.000127446
10 *254:8 *4144:B1 0.000118334
11 *254:8 *4145:A 0.000202806
12 *254:8 *449:362 0
13 *254:8 *451:8 0
14 *254:8 *531:46 0
15 *254:8 *660:12 0
16 *254:8 *660:14 0
17 *254:8 *790:12 0.000152771
18 *254:14 *4042:A 1.21289e-05
19 *254:14 *4145:A 3.17067e-05
20 *254:14 *4149:A 0.00010096
21 *254:14 *451:8 0
22 *254:14 *660:14 0
23 *254:14 *792:12 0.000124994
24 *4041:A *4041:B 9.58593e-05
25 *4147:A2 *4042:D 0.000586504
26 *4147:A2 *254:14 5.52238e-05
*RES
1 *4040:X *254:8 27.8893 
2 *254:8 *254:14 9.94643 
3 *254:14 *4147:A3 9.3 
4 *254:14 *4042:D 16.4429 
5 *254:8 *4041:B 16.3893 
*END

*D_NET *255 0.00143508
*CONN
*I *4145:B I *D sky130_fd_sc_hd__xnor2_2
*I *4143:A I *D sky130_fd_sc_hd__nor2_2
*I *4041:Y O *D sky130_fd_sc_hd__nor2_2
*CAP
1 *4145:B 0.000105817
2 *4143:A 0.000153058
3 *4041:Y 0.00018431
4 *255:10 0.000443185
5 *4143:A *4144:A1 2.89016e-05
6 *4143:A *4144:A2 8.17614e-05
7 *4145:B *4144:A1 3.08382e-05
8 *4145:B *4144:B1 9.60875e-05
9 *4145:B *4145:A 5.52302e-05
10 *255:10 *4571:D 6.04256e-05
11 *255:10 *660:14 0.000195471
*RES
1 *4041:Y *255:10 22.9786 
2 *255:10 *4143:A 12.3179 
3 *255:10 *4145:B 11.4786 
*END

*D_NET *256 0.00400327
*CONN
*I *4148:A2 I *D sky130_fd_sc_hd__o21ai_2
*I *4150:A2 I *D sky130_fd_sc_hd__a21bo_2
*I *4043:B I *D sky130_fd_sc_hd__nor2_2
*I *4042:X O *D sky130_fd_sc_hd__or4_2
*CAP
1 *4148:A2 2.23854e-05
2 *4150:A2 0.000324101
3 *4043:B 0.000288241
4 *4042:X 0.000238292
5 *256:25 0.000942006
6 *256:8 0.00112205
7 *4043:B *4043:A 5.71472e-05
8 *4043:B *4114:B1 5.75896e-05
9 *4043:B *4150:A1 0
10 *4043:B *4678:A 0
11 *4043:B *479:23 0.000176234
12 *4150:A2 *4150:B1_N 0
13 *4150:A2 *4200:A2 0
14 *256:8 *3845:A 0
15 *256:8 *4042:B 4.57538e-05
16 *256:8 *4114:A1 0
17 *256:8 *4114:B1 6.8646e-06
18 *256:8 *4116:A1 0
19 *256:8 *479:23 9.25014e-06
20 *256:8 *531:22 0
21 *256:8 *531:32 0
22 *256:25 *4114:A1 0.000228558
23 *256:25 *4149:B 5.62995e-05
24 *256:25 *4632:A 5.33334e-05
25 *256:25 *658:8 0.000190838
26 *256:25 *658:36 0.000184321
*RES
1 *4042:X *256:8 18.175 
2 *256:8 *4043:B 19.55 
3 *256:8 *256:25 17.3571 
4 *256:25 *4150:A2 23.925 
5 *256:25 *4148:A2 9.72857 
*END

*D_NET *257 0.000545633
*CONN
*I *4658:A I *D sky130_fd_sc_hd__clkdlybuf4s25_1
*I *4043:Y O *D sky130_fd_sc_hd__nor2_2
*CAP
1 *4658:A 0.000179346
2 *4043:Y 0.000179346
3 *4658:A *4114:B1 0
4 *4658:A *4678:A 0.000186941
5 *4658:A *657:92 0
*RES
1 *4043:Y *4658:A 31.975 
*END

*D_NET *258 0.00128782
*CONN
*I *4052:C I *D sky130_fd_sc_hd__or3_2
*I *4046:C I *D sky130_fd_sc_hd__or3_2
*I *4045:X O *D sky130_fd_sc_hd__or3b_2
*CAP
1 *4052:C 0
2 *4046:C 0.000172085
3 *4045:X 0.000281486
4 *258:12 0.00045357
5 *4046:C *4052:A 2.89016e-05
6 *4046:C *261:12 5.23057e-05
7 *258:12 *750:25 0.000276211
8 *4052:B *4046:C 2.32625e-05
9 *149:18 *258:12 0
*RES
1 *4045:X *258:12 22.5321 
2 *258:12 *4046:C 12.7464 
3 *258:12 *4052:C 9.3 
*END

*D_NET *259 0.0083848
*CONN
*I *4063:A3 I *D sky130_fd_sc_hd__o31a_2
*I *4050:A2 I *D sky130_fd_sc_hd__o21a_2
*I *4051:A2 I *D sky130_fd_sc_hd__o21a_2
*I *4047:B I *D sky130_fd_sc_hd__or2_2
*I *4060:C I *D sky130_fd_sc_hd__or3_2
*I *4064:A3 I *D sky130_fd_sc_hd__o31a_2
*I *4046:X O *D sky130_fd_sc_hd__or3_2
*CAP
1 *4063:A3 0
2 *4050:A2 0
3 *4051:A2 0
4 *4047:B 0.000374228
5 *4060:C 4.43563e-05
6 *4064:A3 9.33084e-05
7 *4046:X 0.000536217
8 *259:50 0.000506743
9 *259:44 0.000246959
10 *259:38 0.000556929
11 *259:21 0.000664396
12 *259:8 0.000807081
13 *4047:B *4051:B1 0
14 *4047:B *4063:A1 0
15 *4047:B *4063:A2 1.41029e-05
16 *4047:B *449:67 9.35419e-05
17 *4047:B *666:81 0.000117084
18 *4060:C *4060:A 0.000182804
19 *4060:C *4459:RESET_B 0.000164886
20 *4064:A3 *3901:B 5.60178e-05
21 *4064:A3 *4064:A1 0.000135028
22 *4064:A3 *4064:A2 5.48071e-05
23 *4064:A3 *4064:B1 4.63219e-05
24 *4064:A3 *668:31 9.41642e-05
25 *259:8 *4469:RESET_B 4.79842e-05
26 *259:8 *4690:A 0
27 *259:8 *4692:A 0
28 *259:8 *261:12 0
29 *259:38 *4738:A 6.57675e-05
30 *259:38 *449:113 6.51946e-05
31 *259:38 *714:61 8.31169e-05
32 *259:44 *4051:B1 5.21676e-05
33 *259:44 *4063:A1 3.17163e-05
34 *259:44 *4063:B1 5.83304e-05
35 *259:44 *686:10 5.39552e-05
36 *259:50 *3902:C_N 0.000140984
37 *259:50 *4050:B1 9.90367e-05
38 *259:50 *4051:B1 0
39 *259:50 *666:81 1.81709e-05
40 *3896:B *259:38 0.000172092
41 *3896:B *259:44 4.29471e-05
42 *3896:B *259:50 1.98839e-05
43 *3904:B *259:38 0
44 *3953:A *259:8 0.000202835
45 *4047:A *4047:B 1.32293e-05
46 *4051:A1 *4047:B 1.02504e-05
47 *4051:A1 *259:50 0.000149911
48 *4457:D *4047:B 0.000150476
49 *4458:D *4060:C 3.59795e-05
50 *4458:D *4064:A3 0.000135028
51 *4458:D *259:21 0.000161621
52 *4458:D *259:38 9.10794e-05
53 *4466:D *259:50 0.00012401
54 *86:8 *259:8 0.000908697
55 *86:8 *259:21 0.000206087
56 *86:65 *259:21 0.000177594
57 *86:65 *259:38 8.25123e-06
58 *131:17 *259:50 0.000269428
59 *149:18 *259:8 0
*RES
1 *4046:X *259:8 27.8893 
2 *259:8 *4064:A3 16.8 
3 *259:8 *259:21 5.58036 
4 *259:21 *4060:C 16.0589 
5 *259:21 *259:38 14.2411 
6 *259:38 *259:44 11.8571 
7 *259:44 *259:50 9.75 
8 *259:50 *4047:B 21.7107 
9 *259:50 *4051:A2 13.8 
10 *259:44 *4050:A2 9.3 
11 *259:38 *4063:A3 9.3 
*END

*D_NET *260 0.00354554
*CONN
*I *4048:B I *D sky130_fd_sc_hd__and2_2
*I *4049:B I *D sky130_fd_sc_hd__and2_2
*I *4047:X O *D sky130_fd_sc_hd__or2_2
*CAP
1 *4048:B 0.00060296
2 *4049:B 0.000106107
3 *4047:X 0.000327898
4 *260:14 0.00103696
5 *4048:B *3996:C 0.000107543
6 *4048:B *4703:A 5.62207e-05
7 *4048:B *461:20 0
8 *4048:B *642:28 9.69119e-06
9 *4048:B *684:8 0
10 *4048:B *685:73 6.48786e-05
11 *4048:B *692:18 1.99881e-05
12 *4049:B *4049:A 0.000358971
13 *4049:B *4054:B1 0.000360894
14 *4049:B *714:61 4.88637e-05
15 *260:14 *4049:A 0.000140933
16 *260:14 *515:8 9.90367e-05
17 *260:14 *642:28 0
18 *260:14 *684:8 0.00015134
19 *3996:D *4048:B 4.87854e-05
20 *213:12 *4048:B 4.46186e-06
*RES
1 *4047:X *260:14 24.6036 
2 *260:14 *4049:B 13.9607 
3 *260:14 *4048:B 28.4429 
*END

*D_NET *261 0.0146628
*CONN
*I *4068:C I *D sky130_fd_sc_hd__or3_2
*I *4055:B I *D sky130_fd_sc_hd__nor2_2
*I *4056:B I *D sky130_fd_sc_hd__or2_2
*I *4054:A2 I *D sky130_fd_sc_hd__o21a_2
*I *4053:A2 I *D sky130_fd_sc_hd__o21a_2
*I *4065:C I *D sky130_fd_sc_hd__or3_2
*I *4052:X O *D sky130_fd_sc_hd__or3_2
*CAP
1 *4068:C 0.000582174
2 *4055:B 0.000268665
3 *4056:B 7.43376e-05
4 *4054:A2 0.000196213
5 *4053:A2 0.000178002
6 *4065:C 8.25583e-05
7 *4052:X 0.000455112
8 *261:69 0.000982483
9 *261:65 0.00176906
10 *261:41 0.00135437
11 *261:22 0.00228496
12 *261:12 0.00222477
13 *4053:A2 *4053:B1 9.84673e-05
14 *4055:B *4061:A 0
15 *4055:B *4622:A 0
16 *4055:B *4753:A 0.000116014
17 *4055:B *449:39 4.75956e-06
18 *4056:B *4623:A 2.12733e-05
19 *4056:B *4759:A 9.75679e-05
20 *4065:C *3899:C_N 0.000150625
21 *4065:C *672:37 0
22 *4068:C *3910:B 1.90111e-05
23 *4068:C *4068:B 1.32724e-05
24 *4068:C *4349:B1 0.000112995
25 *4068:C *4349:B2 2.89114e-05
26 *4068:C *4736:A 7.95313e-05
27 *4068:C *671:40 3.69047e-06
28 *261:12 *4052:A 5.71472e-05
29 *261:12 *4420:CLK 0
30 *261:12 *4469:RESET_B 0
31 *261:12 *4692:A 0.000195237
32 *261:12 *469:10 0
33 *261:12 *671:12 0.00012501
34 *261:12 *671:16 0
35 *261:12 *758:12 8.15939e-05
36 *261:22 *3895:B 9.71197e-05
37 *261:22 *4692:A 0.000397918
38 *261:22 *666:8 7.98119e-05
39 *261:22 *671:12 1.21258e-05
40 *261:41 *3899:C_N 2.48938e-05
41 *261:41 *3908:C 3.69047e-06
42 *261:41 *497:27 0.000137206
43 *261:41 *497:29 8.86895e-05
44 *261:41 *672:37 0
45 *261:65 *671:12 0.000216862
46 *261:65 *671:40 0.000146464
47 *261:69 *3893:A3 0.000257265
48 *261:69 *3910:B 5.01213e-05
49 *261:69 *3910:C 0
50 *261:69 *4349:B2 1.18358e-05
51 *261:69 *4460:RESET_B 0.000134052
52 *261:69 *4753:A 4.41092e-05
53 *261:69 *264:8 0
54 *261:69 *449:39 3.47641e-06
55 *261:69 *673:23 5.83304e-05
56 *261:69 *673:32 8.07951e-05
57 *261:69 *673:45 0.000148753
58 *3900:D *261:41 7.80914e-05
59 *4046:C *261:12 5.23057e-05
60 *4052:B *261:12 0.00010096
61 *4053:A1 *4053:A2 0.000111329
62 *4054:A1 *4054:A2 0.000340466
63 *4056:A *4055:B 0
64 *4349:A3 *261:69 3.17163e-05
65 *4464:D *261:41 8.49275e-05
66 *4737:A *261:65 5.62995e-05
67 *87:8 *261:22 2.40379e-05
68 *142:20 *4053:A2 5.33005e-05
69 *142:20 *4054:A2 4.66056e-05
70 *142:20 *261:41 3.14003e-05
71 *149:18 *261:12 0
72 *259:8 *261:12 0
*RES
1 *4052:X *261:12 28.9964 
2 *261:12 *261:22 22.0357 
3 *261:22 *4065:C 15.7464 
4 *261:22 *261:41 24.0536 
5 *261:41 *4053:A2 17.2107 
6 *261:41 *4054:A2 18.7821 
7 *261:12 *261:65 8.89286 
8 *261:65 *261:69 19.5 
9 *261:69 *4056:B 15.1571 
10 *261:69 *4055:B 19.0857 
11 *261:65 *4068:C 17.1393 
*END

*D_NET *262 0.00272129
*CONN
*I *4059:B1 I *D sky130_fd_sc_hd__a211oi_2
*I *4055:Y O *D sky130_fd_sc_hd__nor2_2
*CAP
1 *4059:B1 0.000718209
2 *4055:Y 0.000718209
3 *4059:B1 *4058:A2 0
4 *4059:B1 *4058:B1 0.000396642
5 *4059:B1 *470:64 0
6 *4059:B1 *691:32 0.000116749
7 *4056:A *4059:B1 0.000186662
8 *4461:D *4059:B1 8.49843e-05
9 *4745:A *4059:B1 0.000499837
*RES
1 *4055:Y *4059:B1 43.6 
*END

*D_NET *263 0.000969419
*CONN
*I *4058:A2 I *D sky130_fd_sc_hd__a31o_2
*I *4056:X O *D sky130_fd_sc_hd__or2_2
*CAP
1 *4058:A2 0.000244993
2 *4056:X 0.000244993
3 *4058:A2 *4058:A3 0.000177941
4 *4058:A2 *714:69 0.000228558
5 *4056:A *4058:A2 2.49484e-05
6 *4059:B1 *4058:A2 0
7 *4461:D *4058:A2 4.79842e-05
*RES
1 *4056:X *4058:A2 32.6357 
*END

*D_NET *264 0.00552777
*CONN
*I *4058:A3 I *D sky130_fd_sc_hd__a31o_2
*I *4059:A2 I *D sky130_fd_sc_hd__a211oi_2
*I *4057:X O *D sky130_fd_sc_hd__or3b_2
*CAP
1 *4058:A3 0.000404827
2 *4059:A2 0
3 *4057:X 0.00070771
4 *264:8 0.00111254
5 *4058:A3 *3893:A2 4.70947e-05
6 *4058:A3 *4759:A 0.000211651
7 *4058:A3 *470:18 0.000142351
8 *4058:A3 *470:20 0.000201442
9 *4058:A3 *714:69 0.000227532
10 *264:8 *3893:A2 4.27842e-06
11 *264:8 *3893:A3 6.14702e-06
12 *264:8 *3910:C 0.000148189
13 *264:8 *3910:D 0.000514241
14 *264:8 *4057:B 7.30641e-05
15 *264:8 *4071:A3 0
16 *264:8 *4353:B2 0.000153047
17 *264:8 *4693:A 0.000170513
18 *264:8 *4740:A 0.000301703
19 *264:8 *470:20 0.000176914
20 *264:8 *732:10 0.000171375
21 *4056:A *4058:A3 0.000225822
22 *4058:A2 *4058:A3 0.000177941
23 *4349:A3 *264:8 0.000296278
24 *4461:D *4058:A3 2.89016e-05
25 *4474:D *264:8 0
26 *160:38 *264:8 2.42082e-05
27 *261:69 *264:8 0
*RES
1 *4057:X *264:8 36.3893 
2 *264:8 *4059:A2 13.8 
3 *264:8 *4058:A3 26.6571 
*END

*D_NET *265 0.0017724
*CONN
*I *4062:B I *D sky130_fd_sc_hd__and2_2
*I *4061:B I *D sky130_fd_sc_hd__and2_2
*I *4060:X O *D sky130_fd_sc_hd__or3_2
*CAP
1 *4062:B 4.6629e-05
2 *4061:B 0
3 *4060:X 0.000313924
4 *265:12 0.000360552
5 *4062:B *4061:A 0.000188586
6 *4062:B *714:69 0.000276211
7 *265:12 *4583:CLK 0
8 *265:12 *714:61 9.31893e-05
9 *265:12 *714:69 5.52302e-05
10 *3904:B *265:12 0.000282044
11 *4459:D *265:12 0.000156032
*RES
1 *4060:X *265:12 27.2821 
2 *265:12 *4061:B 9.3 
3 *265:12 *4062:B 11.8893 
*END

*D_NET *266 0.00231984
*CONN
*I *4066:B I *D sky130_fd_sc_hd__and2_2
*I *4067:B I *D sky130_fd_sc_hd__and2_2
*I *4065:X O *D sky130_fd_sc_hd__or3_2
*CAP
1 *4066:B 0
2 *4067:B 0.000127682
3 *4065:X 0.000307468
4 *266:10 0.00043515
5 *4067:B *4067:A 0.000182694
6 *266:10 *3898:A 0.000230014
7 *266:10 *3898:C 0.000353073
8 *266:10 *4066:A 8.71761e-05
9 *266:10 *4067:A 2.14658e-05
10 *266:10 *666:18 3.99614e-06
11 *3900:C *266:10 0.000571118
*RES
1 *4065:X *266:10 18.9071 
2 *266:10 *4067:B 11.8893 
3 *266:10 *4066:B 9.3 
*END

*D_NET *267 0.00208524
*CONN
*I *4072:B1 I *D sky130_fd_sc_hd__o211a_2
*I *4071:A2 I *D sky130_fd_sc_hd__a31o_2
*I *4068:X O *D sky130_fd_sc_hd__or3_2
*CAP
1 *4072:B1 0
2 *4071:A2 0.000337959
3 *4068:X 0.000376619
4 *267:8 0.000714579
5 *4071:A2 *4071:B1 0.000268396
6 *4071:A2 *4072:A2 5.59013e-05
7 *267:8 *4475:RESET_B 0.000148897
8 *267:8 *4688:A 0
9 *267:8 *668:10 9.64602e-05
10 *267:8 *687:26 3.06406e-05
11 *4475:D *267:8 5.57914e-05
*RES
1 *4068:X *267:8 23.0321 
2 *267:8 *4071:A2 19.3357 
3 *267:8 *4072:B1 13.8 
*END

*D_NET *268 0.000798708
*CONN
*I *4072:A2 I *D sky130_fd_sc_hd__o211a_2
*I *4069:Y O *D sky130_fd_sc_hd__nor3_2
*CAP
1 *4072:A2 0.000371403
2 *4069:Y 0.000371403
3 *4072:A2 *4688:A 0
4 *4071:A2 *4072:A2 5.59013e-05
*RES
1 *4069:Y *4072:A2 34.0464 
*END

*D_NET *269 0.000911489
*CONN
*I *4071:A3 I *D sky130_fd_sc_hd__a31o_2
*I *4070:X O *D sky130_fd_sc_hd__or3_2
*CAP
1 *4071:A3 0.000382928
2 *4070:X 0.000382928
3 *4071:A3 *4069:B 0.000125724
4 *4071:A3 *4071:A1 1.99099e-05
5 *4071:A3 *4688:A 0
6 *4071:A3 *4693:A 0
7 *264:8 *4071:A3 0
*RES
1 *4070:X *4071:A3 34.3321 
*END

*D_NET *270 0.00518871
*CONN
*I *4074:B I *D sky130_fd_sc_hd__or2_2
*I *4085:B1 I *D sky130_fd_sc_hd__o2bb2a_2
*I *4389:A2_N I *D sky130_fd_sc_hd__a2bb2o_2
*I *4073:X O *D sky130_fd_sc_hd__or3_2
*CAP
1 *4074:B 3.09987e-05
2 *4085:B1 0.00036132
3 *4389:A2_N 0.00056364
4 *4073:X 0
5 *270:23 0.000918126
6 *270:4 0.00108945
7 *4085:B1 *4482:D 7.48554e-05
8 *4389:A2_N *3871:B1 0
9 *4389:A2_N *3891:A1 0.000169037
10 *4389:A2_N *4369:A 0
11 *4389:A2_N *4369:B 8.71589e-05
12 *4389:A2_N *4380:A1 0.000343203
13 *4389:A2_N *4733:A 0.000465264
14 *4389:A2_N *650:25 9.7659e-05
15 *4389:A2_N *650:34 1.98839e-05
16 *4389:A2_N *1024:44 0.000282304
17 *270:23 *3887:A1 7.58841e-05
18 *270:23 *3891:A1 0.000321176
19 *270:23 *4482:CLK 0
20 *270:23 *486:10 0
21 *270:23 *486:12 0
22 *270:23 *710:12 5.98225e-05
23 *270:23 *1024:29 0
24 *3889:B1 *4389:A2_N 0.000200406
25 *4074:A *4074:B 2.85234e-05
*RES
1 *4073:X *270:4 9.3 
2 *270:4 *4389:A2_N 34.5679 
3 *270:4 *270:23 14.4821 
4 *270:23 *4085:B1 20.6036 
5 *270:23 *4074:B 14.3357 
*END

*D_NET *271 0.00705732
*CONN
*I *4093:C I *D sky130_fd_sc_hd__and3_2
*I *4091:B I *D sky130_fd_sc_hd__nand2_2
*I *4089:B I *D sky130_fd_sc_hd__nand2_2
*I *4084:B I *D sky130_fd_sc_hd__nand3_2
*I *4077:B1 I *D sky130_fd_sc_hd__o21ai_2
*I *4075:B I *D sky130_fd_sc_hd__nand2_2
*I *4074:X O *D sky130_fd_sc_hd__or2_2
*CAP
1 *4093:C 0.00027506
2 *4091:B 0.000121764
3 *4089:B 0.00033435
4 *4084:B 3.04135e-05
5 *4077:B1 0.000339276
6 *4075:B 0
7 *4074:X 0.000230008
8 *271:56 0.000811965
9 *271:43 0.00088123
10 *271:19 0.000913008
11 *271:15 0.000708053
12 *271:6 0.000263005
13 *4077:B1 *4077:A1 5.71472e-05
14 *4077:B1 *4483:D 0.000201127
15 *4077:B1 *272:12 8.89385e-05
16 *4077:B1 *487:8 3.5707e-05
17 *4077:B1 *487:10 2.19684e-05
18 *4077:B1 *487:16 9.55806e-05
19 *4077:B1 *487:73 9.10431e-06
20 *4089:B *4090:B1 2.6913e-05
21 *4089:B *4484:D 8.32964e-05
22 *4091:B *4092:B1 9.90367e-05
23 *4091:B *710:26 6.87574e-05
24 *4093:C *4486:CLK 9.57064e-05
25 *4093:C *4486:D 0.000102545
26 *271:19 *4481:D 6.74911e-05
27 *271:19 *4483:D 7.82193e-05
28 *271:19 *4797:A 0.00010395
29 *271:19 *487:73 0.000223442
30 *271:43 *4482:CLK 0
31 *271:56 *4482:CLK 0
32 *271:56 *4484:D 4.96258e-05
33 *271:56 *4485:D 4.40493e-05
34 *271:56 *486:10 0
35 *271:56 *486:12 0
36 *3882:C *4089:B 1.62025e-05
37 *4075:A *271:43 0
38 *4089:A *4089:B 0.000219103
39 *118:8 *4084:B 5.33005e-05
40 *119:25 *4089:B 2.59355e-05
41 *119:34 *4089:B 0.000128111
42 *121:10 *271:56 4.25809e-05
43 *121:19 *4093:C 5.88692e-05
44 *121:19 *271:56 1.19309e-05
45 *121:32 *4093:C 4.0552e-05
46 *123:10 *4093:C 0
47 *123:10 *271:43 0
48 *123:10 *271:56 0
*RES
1 *4074:X *271:6 13.1214 
2 *271:6 *4075:B 9.3 
3 *271:6 *271:15 5.03571 
4 *271:15 *271:19 10.7857 
5 *271:19 *4077:B1 21.9071 
6 *271:19 *4084:B 14.3357 
7 *271:15 *271:43 2.25 
8 *271:43 *4089:B 21.2286 
9 *271:43 *271:56 8.01786 
10 *271:56 *4091:B 16.4071 
11 *271:56 *4093:C 19.5321 
*END

*D_NET *272 0.00537184
*CONN
*I *4088:B1 I *D sky130_fd_sc_hd__a21oi_2
*I *4082:B1 I *D sky130_fd_sc_hd__a21oi_2
*I *4080:B1 I *D sky130_fd_sc_hd__a21oi_2
*I *4076:B I *D sky130_fd_sc_hd__nor2_2
*I *4075:Y O *D sky130_fd_sc_hd__nand2_2
*CAP
1 *4088:B1 0
2 *4082:B1 0
3 *4080:B1 0
4 *4076:B 0.000419589
5 *4075:Y 0.000164509
6 *272:20 0.000693312
7 *272:12 0.000988718
8 *272:10 0.000879504
9 *4076:B *4076:A 0.000114651
10 *4076:B *4079:B1 7.77751e-05
11 *4076:B *4477:D 0.000344917
12 *4076:B *4479:D 5.24274e-05
13 *4076:B *4568:RESET_B 0
14 *4076:B *701:37 0.000122942
15 *4076:B *998:65 0.000140933
16 *272:10 *4088:A2 3.67279e-06
17 *272:12 *4077:A1 0
18 *272:12 *4084:C 0
19 *272:12 *4088:A2 3.98645e-05
20 *272:12 *4480:CLK 0
21 *272:12 *4480:RESET_B 0
22 *272:12 *4482:SET_B 0.000173015
23 *272:12 *4483:D 0.000737282
24 *272:12 *4797:A 1.34741e-05
25 *272:12 *487:16 0
26 *272:12 *1003:35 1.6398e-05
27 *272:20 *4480:CLK 6.30405e-05
28 *272:20 *4480:D 0.000103267
29 *272:20 *4480:RESET_B 0
30 *272:20 *998:36 0
31 *3880:D *272:12 0
32 *4075:A *272:10 9.84673e-05
33 *4077:B1 *272:12 8.89385e-05
34 *4080:A1 *4076:B 3.51442e-05
35 *4080:A1 *272:20 0
36 *4134:A *4076:B 0
37 *117:28 *272:12 0
*RES
1 *4075:Y *272:10 16.9964 
2 *272:10 *272:12 17.125 
3 *272:12 *272:20 9.83929 
4 *272:20 *4076:B 29.8 
5 *272:20 *4080:B1 9.3 
6 *272:12 *4082:B1 13.8 
7 *272:10 *4088:B1 13.8 
*END

*D_NET *273 0.00076568
*CONN
*I *4078:B1 I *D sky130_fd_sc_hd__a21o_2
*I *4077:Y O *D sky130_fd_sc_hd__o21ai_2
*CAP
1 *4078:B1 0.000265894
2 *4077:Y 0.000265894
3 *4078:B1 *4077:A2 8.08376e-05
4 *4078:B1 *4478:D 0
5 *4078:B1 *999:12 0.000153054
*RES
1 *4077:Y *4078:B1 33.225 
*END

*D_NET *274 0.000175986
*CONN
*I *4080:A2 I *D sky130_fd_sc_hd__a21oi_2
*I *4079:Y O *D sky130_fd_sc_hd__o21ai_2
*CAP
1 *4080:A2 2.15792e-05
2 *4079:Y 2.15792e-05
3 *4080:A2 *4079:A1 0.00010096
4 *4080:A2 *4079:B1 3.18676e-05
*RES
1 *4079:Y *4080:A2 19.5464 
*END

*D_NET *275 0.000230021
*CONN
*I *4082:A2 I *D sky130_fd_sc_hd__a21oi_2
*I *4081:Y O *D sky130_fd_sc_hd__nand2_2
*CAP
1 *4082:A2 7.00149e-05
2 *4081:Y 7.00149e-05
3 *4082:A2 *4081:A 8.9991e-05
*RES
1 *4081:Y *4082:A2 20.1625 
*END

*D_NET *276 0.00139585
*CONN
*I *4084:C I *D sky130_fd_sc_hd__nand3_2
*I *4083:Y O *D sky130_fd_sc_hd__nand2_2
*CAP
1 *4084:C 0.000532148
2 *4083:Y 0.000532148
3 *4084:C *1004:10 5.19842e-06
4 *3880:D *4084:C 7.79781e-06
5 *4083:B *4084:C 0.000175502
6 *117:28 *4084:C 2.19778e-05
7 *117:41 *4084:C 6.39262e-05
8 *118:8 *4084:C 5.71472e-05
9 *272:12 *4084:C 0
*RES
1 *4083:Y *4084:C 36.35 
*END

*D_NET *277 0.00112745
*CONN
*I *4086:B1 I *D sky130_fd_sc_hd__o21ai_2
*I *4085:X O *D sky130_fd_sc_hd__o2bb2a_2
*CAP
1 *4086:B1 0.000410425
2 *4085:X 0.000410425
3 *4086:B1 *4086:A1 2.59355e-05
4 *4086:B1 *4482:CLK 0.000220219
5 *4086:B1 *4482:D 1.29975e-05
6 *4086:A2 *4086:B1 2.3942e-05
7 *118:14 *4086:B1 2.53112e-06
8 *118:25 *4086:B1 2.09722e-05
*RES
1 *4085:X *4086:B1 35.2786 
*END

*D_NET *278 0.000455475
*CONN
*I *4088:A2 I *D sky130_fd_sc_hd__a21oi_2
*I *4087:Y O *D sky130_fd_sc_hd__o21ai_2
*CAP
1 *4088:A2 0.000146237
2 *4087:Y 0.000146237
3 *4088:A1 *4088:A2 5.49995e-05
4 *119:10 *4088:A2 6.44649e-05
5 *272:10 *4088:A2 3.67279e-06
6 *272:12 *4088:A2 3.98645e-05
*RES
1 *4087:Y *4088:A2 30.6 
*END

*D_NET *279 0.00146535
*CONN
*I *4090:B1 I *D sky130_fd_sc_hd__a21o_2
*I *4089:Y O *D sky130_fd_sc_hd__nand2_2
*CAP
1 *4090:B1 0.000506982
2 *4089:Y 0.000506982
3 *3882:C *4090:B1 0.000236129
4 *4089:A *4090:B1 1.19813e-05
5 *4089:B *4090:B1 2.6913e-05
6 *119:25 *4090:B1 5.33005e-05
7 *119:34 *4090:B1 0.000123059
*RES
1 *4089:Y *4090:B1 27.0286 
*END

*D_NET *280 0.00036765
*CONN
*I *4092:B1 I *D sky130_fd_sc_hd__a21o_2
*I *4091:Y O *D sky130_fd_sc_hd__nand2_2
*CAP
1 *4092:B1 4.85045e-05
2 *4091:Y 4.85045e-05
3 *4092:B1 *4485:D 9.90431e-05
4 *4092:B1 *710:26 7.25614e-05
5 *4091:B *4092:B1 9.90367e-05
*RES
1 *4091:Y *4092:B1 20.3679 
*END

*D_NET *281 0.0051556
*CONN
*I *4681:A I *D sky130_fd_sc_hd__clkdlybuf4s25_1
*I *4094:Y O *D sky130_fd_sc_hd__nand2_2
*CAP
1 *4681:A 0.00243762
2 *4094:Y 0.00243762
3 *4681:A *4139:A1 8.51263e-05
4 *4681:A *4139:A2 0.000163442
5 *4681:A *449:222 9.59532e-06
6 *4681:A *519:14 2.21972e-05
*RES
1 *4094:Y *4681:A 42.062 
*END

*D_NET *282 0.000968372
*CONN
*I *4097:B I *D sky130_fd_sc_hd__nor2_2
*I *4096:X O *D sky130_fd_sc_hd__and2_2
*CAP
1 *4097:B 0.000340957
2 *4096:X 0.000340957
3 *4097:B *4098:A2 8.20918e-05
4 *4097:B *4098:B1 0.00010096
5 *4097:B *4554:D 5.52302e-05
6 *4097:A *4097:B 4.81746e-05
*RES
1 *4096:X *4097:B 23.8143 
*END

*D_NET *283 0.000226256
*CONN
*I *4098:A2 I *D sky130_fd_sc_hd__o21ai_2
*I *4097:Y O *D sky130_fd_sc_hd__nor2_2
*CAP
1 *4098:A2 3.39854e-05
2 *4097:Y 3.39854e-05
3 *4097:A *4098:A2 7.61932e-05
4 *4097:B *4098:A2 8.20918e-05
*RES
1 *4097:Y *4098:A2 19.9571 
*END

*D_NET *284 0.000492768
*CONN
*I *4100:A2 I *D sky130_fd_sc_hd__o21ai_2
*I *4099:Y O *D sky130_fd_sc_hd__xnor2_2
*CAP
1 *4100:A2 9.35658e-05
2 *4099:Y 9.35658e-05
3 *4100:A2 *4100:A1 2.26669e-05
4 *4100:A2 *4100:B1 5.66971e-05
5 *4100:A2 *711:29 0.000226272
*RES
1 *4099:Y *4100:A2 21.2071 
*END

*D_NET *285 0.000315107
*CONN
*I *4102:B I *D sky130_fd_sc_hd__and2_2
*I *4101:Y O *D sky130_fd_sc_hd__o31ai_2
*CAP
1 *4102:B 0.000107517
2 *4101:Y 0.000107517
3 *4102:B *782:29 0.000100074
*RES
1 *4101:Y *4102:B 20.7786 
*END

*D_NET *286 0.00257782
*CONN
*I *4103:A2 I *D sky130_fd_sc_hd__o21ai_2
*I *4102:X O *D sky130_fd_sc_hd__and2_2
*CAP
1 *4103:A2 0.000882782
2 *4102:X 0.000882782
3 *4103:A2 *4030:A 8.90899e-05
4 *4103:A2 *4030:B 2.33087e-05
5 *4103:A2 *4103:A1 0.000150773
6 *4103:A2 *4555:D 0.00015244
7 *4103:A2 *478:16 0
8 *4103:A2 *782:29 0.000396641
*RES
1 *4102:X *4103:A2 41.4214 
*END

*D_NET *287 0.00137846
*CONN
*I *4105:B I *D sky130_fd_sc_hd__nor2_2
*I *4104:X O *D sky130_fd_sc_hd__and2_2
*CAP
1 *4105:B 0.000614257
2 *4104:X 0.000614257
3 *4105:B *4108:A1 2.11693e-05
4 *4105:B *4108:A2 0.000100248
5 *4105:B *4558:D 2.85321e-05
*RES
1 *4104:X *4105:B 37.6357 
*END

*D_NET *288 0.00023959
*CONN
*I *4106:A2 I *D sky130_fd_sc_hd__o21ai_2
*I *4105:Y O *D sky130_fd_sc_hd__nor2_2
*CAP
1 *4106:A2 6.25313e-05
2 *4105:Y 6.25313e-05
3 *4106:A2 *4557:CLK 6.35274e-05
4 *4105:A *4106:A2 5.09999e-05
*RES
1 *4105:Y *4106:A2 29.2429 
*END

*D_NET *289 0.000955892
*CONN
*I *4108:A2 I *D sky130_fd_sc_hd__o21ai_2
*I *4107:Y O *D sky130_fd_sc_hd__xnor2_2
*CAP
1 *4108:A2 0.000253775
2 *4107:Y 0.000253775
3 *4108:A2 *4106:B1 7.79781e-06
4 *4108:A2 *4108:A1 8.24725e-05
5 *4108:A2 *4111:A1 5.80706e-06
6 *4108:A2 *4111:B1 2.8266e-06
7 *4108:A2 *4558:D 0.000150718
8 *4105:B *4108:A2 0.000100248
9 *4107:B *4108:A2 9.84729e-05
*RES
1 *4107:Y *4108:A2 32.9214 
*END

*D_NET *290 0.00168326
*CONN
*I *4110:B I *D sky130_fd_sc_hd__and2_2
*I *4109:Y O *D sky130_fd_sc_hd__o31ai_2
*CAP
1 *4110:B 0.000424198
2 *4109:Y 0.000424198
3 *4110:B *4033:A 0.000173614
4 *4110:B *4107:A 5.50052e-05
5 *4110:B *4111:A2 8.39e-05
6 *4110:B *4559:D 4.35141e-05
7 *4110:B *4559:RESET_B 0.000127852
8 *4110:B *798:21 9.15842e-06
9 *4110:B *798:40 5.36422e-05
10 *4110:B *799:12 0.000246611
11 *245:27 *4110:B 2.16573e-05
12 *247:12 *4110:B 0
13 *247:16 *4110:B 1.99099e-05
*RES
1 *4109:Y *4110:B 38.9929 
*END

*D_NET *291 0.000242886
*CONN
*I *4111:A2 I *D sky130_fd_sc_hd__o21ai_2
*I *4110:X O *D sky130_fd_sc_hd__and2_2
*CAP
1 *4111:A2 7.94928e-05
2 *4110:X 7.94928e-05
3 *4110:B *4111:A2 8.39e-05
*RES
1 *4110:X *4111:A2 29.5464 
*END

*D_NET *292 0.00027386
*CONN
*I *4113:B I *D sky130_fd_sc_hd__nor2_2
*I *4112:X O *D sky130_fd_sc_hd__and2_2
*CAP
1 *4113:B 0.00013693
2 *4112:X 0.00013693
*RES
1 *4112:X *4113:B 20.7964 
*END

*D_NET *293 0.00164619
*CONN
*I *4114:A2 I *D sky130_fd_sc_hd__o21ai_2
*I *4113:Y O *D sky130_fd_sc_hd__nor2_2
*CAP
1 *4114:A2 0.000411566
2 *4113:Y 0.000411566
3 *4114:A2 *3845:A 0
4 *4114:A2 *4560:D 0.000509725
5 *4114:A2 *4562:CLK 7.77652e-05
6 *4114:A2 *479:27 0.0001098
7 *4114:A2 *479:33 0.00010816
8 *4114:A2 *531:95 1.76039e-05
9 *4113:A *4114:A2 0
*RES
1 *4113:Y *4114:A2 38.5464 
*END

*D_NET *294 0.000901634
*CONN
*I *4116:A2 I *D sky130_fd_sc_hd__o21ai_2
*I *4115:Y O *D sky130_fd_sc_hd__xnor2_2
*CAP
1 *4116:A2 0.000223435
2 *4115:Y 0.000223435
3 *4116:A2 *4116:A1 7.80968e-05
4 *4116:A2 *4116:B1 1.62384e-05
5 *4116:A2 *4119:A2 0.000180777
6 *4116:A2 *4561:D 0.000175519
7 *4116:A2 *531:95 4.1331e-06
*RES
1 *4115:Y *4116:A2 32.7607 
*END

*D_NET *295 0.000614262
*CONN
*I *4118:B I *D sky130_fd_sc_hd__and2_2
*I *4117:Y O *D sky130_fd_sc_hd__o31ai_2
*CAP
1 *4118:B 0.000195382
2 *4117:Y 0.000195382
3 *4118:B *4117:A1 8.06427e-05
4 *4118:B *4117:B1 0
5 *4118:B *4119:A2 0.000142856
*RES
1 *4117:Y *4118:B 31.725 
*END

*D_NET *296 0.00146798
*CONN
*I *4119:A2 I *D sky130_fd_sc_hd__o21ai_2
*I *4118:X O *D sky130_fd_sc_hd__and2_2
*CAP
1 *4119:A2 0.00054456
2 *4118:X 0.00054456
3 *4119:A2 *4115:A 5.52238e-05
4 *4116:A2 *4119:A2 0.000180777
5 *4118:B *4119:A2 0.000142856
*RES
1 *4118:X *4119:A2 28.1893 
*END

*D_NET *297 0.00153898
*CONN
*I *4121:B I *D sky130_fd_sc_hd__nor2_2
*I *4120:X O *D sky130_fd_sc_hd__and2_2
*CAP
1 *4121:B 0.000477068
2 *4120:X 0.000477068
3 *4121:B *4120:A 0.000153047
4 *4121:B *4125:A1 0
5 *4121:B *4564:RESET_B 0
6 *4121:B *783:23 0.000200406
7 *4121:B *784:26 0
8 *4037:D *4121:B 0
9 *4120:B *4121:B 0.000185643
10 *4125:A3 *4121:B 0
11 *249:30 *4121:B 0
12 *250:10 *4121:B 4.57445e-05
13 *251:10 *4121:B 0
*RES
1 *4120:X *4121:B 36.6893 
*END

*D_NET *298 0.00109207
*CONN
*I *4122:A2 I *D sky130_fd_sc_hd__o21ai_2
*I *4121:Y O *D sky130_fd_sc_hd__nor2_2
*CAP
1 *4122:A2 0.000409739
2 *4121:Y 0.000409739
3 *4122:A2 *4124:A2 9.90367e-05
4 *4122:A2 *4124:B1 3.93247e-05
5 *4122:A2 *4125:A2 0.000102207
6 *4122:A2 *4563:D 1.64329e-05
7 *4123:B *4122:A2 1.55885e-05
*RES
1 *4121:Y *4122:A2 25.725 
*END

*D_NET *299 0.00101304
*CONN
*I *4124:A2 I *D sky130_fd_sc_hd__o21ai_2
*I *4123:Y O *D sky130_fd_sc_hd__xnor2_2
*CAP
1 *4124:A2 0.000338814
2 *4123:Y 0.000338814
3 *4124:A2 *4124:B1 0
4 *4124:A2 *4564:D 0.000126582
5 *4122:A2 *4124:A2 9.90367e-05
6 *251:10 *4124:A2 0.00010979
*RES
1 *4123:Y *4124:A2 35.0464 
*END

*D_NET *300 0.0021042
*CONN
*I *4126:B I *D sky130_fd_sc_hd__and2_2
*I *4125:Y O *D sky130_fd_sc_hd__o31ai_2
*CAP
1 *4126:B 0.000807411
2 *4125:Y 0.000807411
3 *4126:B *4127:A2 0
4 *4126:B *4565:RESET_B 0.000477857
5 *4126:B *481:18 1.15172e-05
6 *4126:B *785:8 0
7 *4037:D *4126:B 0
*RES
1 *4125:Y *4126:B 39.3679 
*END

*D_NET *301 0.00139046
*CONN
*I *4127:A2 I *D sky130_fd_sc_hd__o21ai_2
*I *4126:X O *D sky130_fd_sc_hd__and2_2
*CAP
1 *4127:A2 0.000436536
2 *4126:X 0.000436536
3 *4127:A2 *4564:RESET_B 0
4 *4127:A2 *4565:D 0.000366668
5 *4127:A2 *4565:RESET_B 4.97621e-05
6 *4127:A2 *481:18 0.00010096
7 *4127:A2 *701:37 0
8 *4126:B *4127:A2 0
*RES
1 *4126:X *4127:A2 36.0821 
*END

*D_NET *302 0.00140199
*CONN
*I *4129:B I *D sky130_fd_sc_hd__nor2_2
*I *4128:X O *D sky130_fd_sc_hd__and2_2
*CAP
1 *4129:B 0.000295666
2 *4128:X 0.000295666
3 *4129:B *4134:B 0.000134608
4 *4129:B *4135:A2 0
5 *4129:B *4566:RESET_B 0.000362524
6 *4133:A3 *4129:B 0.000183674
7 *252:10 *4129:B 0.000129851
*RES
1 *4128:X *4129:B 36.8321 
*END

*D_NET *303 0.00215507
*CONN
*I *4130:A2 I *D sky130_fd_sc_hd__o21ai_2
*I *4129:Y O *D sky130_fd_sc_hd__nor2_2
*CAP
1 *4130:A2 0.000456985
2 *4129:Y 0.000456985
3 *4130:A2 *4038:A 4.1331e-06
4 *4130:A2 *4039:B 0.00010326
5 *4130:A2 *4131:A 0.000355758
6 *4130:A2 *4132:A1 0
7 *4130:A2 *4133:A1 1.5942e-05
8 *4130:A2 *4477:RESET_B 2.58997e-05
9 *4130:A2 *4718:A 0.000315887
10 *4130:A2 *702:27 0.000250193
11 *4130:A2 *786:10 6.76178e-05
12 *4130:A2 *787:21 4.90803e-05
13 *4131:B *4130:A2 5.33334e-05
*RES
1 *4129:Y *4130:A2 39.8321 
*END

*D_NET *304 0.00103201
*CONN
*I *4132:A2 I *D sky130_fd_sc_hd__o21ai_2
*I *4131:Y O *D sky130_fd_sc_hd__xnor2_2
*CAP
1 *4132:A2 0.000165388
2 *4131:Y 0.000165388
3 *4132:A2 *4132:A1 0.000317311
4 *4132:A2 *4132:B1 5.71472e-05
5 *4132:A2 *4680:A 6.87673e-05
6 *4132:A2 *659:21 0.000258011
*RES
1 *4131:Y *4132:A2 24.4929 
*END

*D_NET *305 0.00117481
*CONN
*I *4134:B I *D sky130_fd_sc_hd__and2_2
*I *4133:Y O *D sky130_fd_sc_hd__o31ai_2
*CAP
1 *4134:B 0.000334686
2 *4133:Y 0.000334686
3 *4134:B *4133:B1 5.52302e-05
4 *4134:B *4135:A2 0.000116277
5 *4134:B *4479:CLK 6.05161e-06
6 *4134:B *4566:RESET_B 9.91086e-05
7 *4134:B *4568:CLK 9.41642e-05
8 *4129:B *4134:B 0.000134608
9 *4134:A *4134:B 0
*RES
1 *4133:Y *4134:B 34.9929 
*END

*D_NET *306 0.00158792
*CONN
*I *4135:A2 I *D sky130_fd_sc_hd__o21ai_2
*I *4134:X O *D sky130_fd_sc_hd__and2_2
*CAP
1 *4135:A2 0.000389998
2 *4134:X 0.000389998
3 *4135:A2 *4479:CLK 0.000115474
4 *4135:A2 *4566:RESET_B 0
5 *4135:A2 *481:53 0.000576172
6 *4129:B *4135:A2 0
7 *4133:A3 *4135:A2 0
8 *4134:B *4135:A2 0.000116277
*RES
1 *4134:X *4135:A2 37.0643 
*END

*D_NET *307 0.00100175
*CONN
*I *4138:A_N I *D sky130_fd_sc_hd__and2b_2
*I *4140:B I *D sky130_fd_sc_hd__xnor2_2
*I *4136:Y O *D sky130_fd_sc_hd__nor2_2
*CAP
1 *4138:A_N 0.000147519
2 *4140:B 6.70618e-05
3 *4136:Y 0.000125791
4 *307:6 0.000340372
5 *4138:A_N *4136:A 9.7659e-05
6 *4140:B *4139:A1 0.000128146
7 *307:6 *4136:A 7.77652e-05
8 *4136:B *307:6 1.74352e-05
*RES
1 *4136:Y *307:6 11.0679 
2 *307:6 *4140:B 19.9429 
3 *307:6 *4138:A_N 11.4964 
*END

*D_NET *308 0.00143251
*CONN
*I *4138:B I *D sky130_fd_sc_hd__and2b_2
*I *4137:Y O *D sky130_fd_sc_hd__nand2_2
*CAP
1 *4138:B 0.000125507
2 *4137:Y 0.000125507
3 *4138:B *4040:C 1.51018e-05
4 *4138:B *4136:A 0.000487473
5 *4138:B *4137:A 3.72171e-05
6 *4136:B *4138:B 0.000641708
*RES
1 *4137:Y *4138:B 24.9036 
*END

*D_NET *309 0.00153371
*CONN
*I *4139:A2 I *D sky130_fd_sc_hd__o21ai_2
*I *4138:X O *D sky130_fd_sc_hd__and2b_2
*CAP
1 *4139:A2 0.000303915
2 *4138:X 0.000303915
3 *4139:A2 *4139:A1 0.000194836
4 *4139:A2 *4569:D 0.000535738
5 *4136:B *4139:A2 3.18676e-05
6 *4681:A *4139:A2 0.000163442
*RES
1 *4138:X *4139:A2 37.0643 
*END

*D_NET *310 0.000512841
*CONN
*I *4141:A2 I *D sky130_fd_sc_hd__o21ai_2
*I *4140:Y O *D sky130_fd_sc_hd__xnor2_2
*CAP
1 *4141:A2 0.000155264
2 *4140:Y 0.000155264
3 *4141:A2 *4139:A1 9.74684e-05
4 *4141:A2 *4143:B 9.90367e-05
5 *4141:A2 *531:46 5.80706e-06
*RES
1 *4140:Y *4141:A2 31.1 
*END

*D_NET *311 0.00182611
*CONN
*I *4143:B I *D sky130_fd_sc_hd__nor2_2
*I *4142:X O *D sky130_fd_sc_hd__o31a_2
*CAP
1 *4143:B 0.000755817
2 *4142:X 0.000755817
3 *4143:B *4140:A 8.55687e-05
4 *4143:B *4570:D 0.000129868
5 *4143:B *4571:D 0
6 *4143:B *531:46 0
7 *4141:A2 *4143:B 9.90367e-05
*RES
1 *4142:X *4143:B 40.9929 
*END

*D_NET *312 0.000480135
*CONN
*I *4144:A2 I *D sky130_fd_sc_hd__o21ai_2
*I *4143:Y O *D sky130_fd_sc_hd__nor2_2
*CAP
1 *4144:A2 0.000189302
2 *4143:Y 0.000189302
3 *4144:A2 *4144:A1 1.97695e-05
4 *4143:A *4144:A2 8.17614e-05
*RES
1 *4143:Y *4144:A2 22.0286 
*END

*D_NET *313 0.000957431
*CONN
*I *4146:A2 I *D sky130_fd_sc_hd__o21ai_2
*I *4145:Y O *D sky130_fd_sc_hd__xnor2_2
*CAP
1 *4146:A2 0.000155893
2 *4145:Y 0.000155893
3 *4146:A2 *4144:A1 0.00010096
4 *4146:A2 *659:27 5.83304e-05
5 *4146:A2 *699:22 5.07157e-05
6 *4146:A2 *699:24 6.58195e-05
7 *4146:A2 *720:43 0.000369818
*RES
1 *4145:Y *4146:A2 33.225 
*END

*D_NET *314 0.000973829
*CONN
*I *4149:A I *D sky130_fd_sc_hd__or2_2
*I *4147:X O *D sky130_fd_sc_hd__o31a_2
*CAP
1 *4149:A 0.000395293
2 *4147:X 0.000395293
3 *4149:A *660:14 5.57727e-05
4 *4149:A *792:12 2.65105e-05
5 *254:14 *4149:A 0.00010096
*RES
1 *4147:X *4149:A 33.3679 
*END

*D_NET *315 0.000493602
*CONN
*I *4149:B I *D sky130_fd_sc_hd__or2_2
*I *4148:Y O *D sky130_fd_sc_hd__o21ai_2
*CAP
1 *4149:B 0.000167018
2 *4148:Y 0.000167018
3 *4149:B *660:14 0
4 *4148:A1 *4149:B 0.000103267
5 *256:25 *4149:B 5.62995e-05
*RES
1 *4148:Y *4149:B 30.725 
*END

*D_NET *316 0.00112467
*CONN
*I *4677:A I *D sky130_fd_sc_hd__clkdlybuf4s25_1
*I *4151:Y O *D sky130_fd_sc_hd__nand2_2
*CAP
1 *4677:A 0.000492131
2 *4151:Y 0.000492131
3 *4677:A *4162:B 4.79842e-05
4 *4677:A *4163:A2 0
5 *4677:A *4471:CLK 0
6 *4677:A *4471:D 0
7 *4677:A *4471:RESET_B 0
8 *4677:A *4689:A 0
9 *4677:A *4699:A 0
10 *4677:A *843:42 9.24203e-05
*RES
1 *4151:Y *4677:A 37.1357 
*END

*D_NET *317 0.00032265
*CONN
*I *4154:B I *D sky130_fd_sc_hd__nor2_2
*I *4153:X O *D sky130_fd_sc_hd__and2_2
*CAP
1 *4154:B 9.8629e-05
2 *4153:X 9.8629e-05
3 *4154:B *4153:B 0
4 *4154:B *4155:A2 2.44318e-05
5 *4154:A *4154:B 0.00010096
*RES
1 *4153:X *4154:B 20.7964 
*END

*D_NET *318 0.00135859
*CONN
*I *4155:A2 I *D sky130_fd_sc_hd__o21ai_2
*I *4154:Y O *D sky130_fd_sc_hd__nor2_2
*CAP
1 *4155:A2 0.000281737
2 *4154:Y 0.000281737
3 *4155:A2 *4153:B 2.59355e-05
4 *4155:A2 *4158:A1 5.59013e-05
5 *4155:A2 *4532:CLK 0.000150625
6 *4155:A2 *4532:D 7.77751e-05
7 *4155:A2 *827:12 9.30093e-05
8 *4154:A *4155:A2 0.000367433
9 *4154:B *4155:A2 2.44318e-05
*RES
1 *4154:Y *4155:A2 34.7429 
*END

*D_NET *319 0.00149624
*CONN
*I *4157:A2 I *D sky130_fd_sc_hd__o21ai_2
*I *4156:Y O *D sky130_fd_sc_hd__xnor2_2
*CAP
1 *4157:A2 0.000323212
2 *4156:Y 0.000323212
3 *4157:A2 *4157:A1 0.00054619
4 *4157:A2 *4159:B 0
5 *4157:A2 *4532:CLK 0
6 *4157:A2 *4533:D 0.000106488
7 *4157:A2 *473:22 0
8 *4157:A2 *473:24 0
9 *4157:A2 *553:27 1.04707e-05
10 *4157:A2 *653:66 0.000186662
*RES
1 *4156:Y *4157:A2 36.7786 
*END

*D_NET *320 0.00160093
*CONN
*I *4159:B I *D sky130_fd_sc_hd__and2_2
*I *4158:Y O *D sky130_fd_sc_hd__o31ai_2
*CAP
1 *4159:B 0.000316324
2 *4158:Y 0.000316324
3 *4159:B *4157:A1 0.000152779
4 *4159:B *4160:A2 0.000290234
5 *4159:B *473:16 6.75007e-05
6 *4159:B *553:27 2.95746e-06
7 *4159:B *653:70 9.40241e-05
8 *4159:B *841:10 0.000144903
9 *4159:B *841:21 0.000143804
10 *4157:A2 *4159:B 0
11 *4159:A *4159:B 7.20796e-05
*RES
1 *4158:Y *4159:B 38.0821 
*END

*D_NET *321 0.00221308
*CONN
*I *4160:A2 I *D sky130_fd_sc_hd__o21ai_2
*I *4159:X O *D sky130_fd_sc_hd__and2_2
*CAP
1 *4160:A2 0.000737744
2 *4159:X 0.000737744
3 *4160:A2 *4160:B1 1.92789e-05
4 *4160:A2 *4533:D 0.00014285
5 *4160:A2 *473:16 0.000121733
6 *4160:A2 *473:20 1.92905e-05
7 *4160:A2 *841:10 9.33978e-07
8 *4159:A *4160:A2 0.000143268
9 *4159:B *4160:A2 0.000290234
*RES
1 *4159:X *4160:A2 39.4393 
*END

*D_NET *322 0.000196234
*CONN
*I *4162:B I *D sky130_fd_sc_hd__nor2_2
*I *4161:X O *D sky130_fd_sc_hd__and2_2
*CAP
1 *4162:B 7.41247e-05
2 *4161:X 7.41247e-05
3 *4162:B *4163:A2 0
4 *4677:A *4162:B 4.79842e-05
*RES
1 *4161:X *4162:B 29.2429 
*END

*D_NET *323 0.000867605
*CONN
*I *4163:A2 I *D sky130_fd_sc_hd__o21ai_2
*I *4162:Y O *D sky130_fd_sc_hd__nor2_2
*CAP
1 *4163:A2 0.000391928
2 *4162:Y 0.000391928
3 *4163:A2 *4165:B1 4.46186e-06
4 *4163:A2 *4166:A1 0
5 *4163:A2 *653:10 7.92879e-05
6 *4162:B *4163:A2 0
7 *4677:A *4163:A2 0
*RES
1 *4162:Y *4163:A2 34.0464 
*END

*D_NET *324 0.00155114
*CONN
*I *4165:A2 I *D sky130_fd_sc_hd__o21ai_2
*I *4164:Y O *D sky130_fd_sc_hd__xnor2_2
*CAP
1 *4165:A2 0.000637752
2 *4164:Y 0.000637752
3 *4165:A2 *4017:B 0
4 *4165:A2 *4165:B1 0.000139907
5 *4165:A2 *4166:A1 0
6 *4165:A2 *4535:CLK 1.39841e-05
7 *4165:A2 *4535:D 0
8 *4165:A2 *4535:RESET_B 0.000121741
9 *4165:A2 *4536:D 0
10 *4165:A2 *4536:RESET_B 0
11 *4165:A2 *4699:A 0
*RES
1 *4164:Y *4165:A2 37.0821 
*END

*D_NET *325 0.0018095
*CONN
*I *4167:B I *D sky130_fd_sc_hd__and2_2
*I *4166:Y O *D sky130_fd_sc_hd__o31ai_2
*CAP
1 *4167:B 0.000620883
2 *4166:Y 0.000620883
3 *4167:B *652:52 1.55953e-05
4 *4166:A3 *4167:B 0.00047054
5 *232:16 *4167:B 8.15939e-05
*RES
1 *4166:Y *4167:B 37.0643 
*END

*D_NET *326 0.00278464
*CONN
*I *4168:A2 I *D sky130_fd_sc_hd__o21ai_2
*I *4167:X O *D sky130_fd_sc_hd__and2_2
*CAP
1 *4168:A2 0.00121924
2 *4167:X 0.00121924
3 *4168:A2 *4168:A1 3.51442e-05
4 *4168:A2 *4536:RESET_B 3.69047e-06
5 *4168:A2 *4645:A 0
6 *4168:A2 *4674:A 0.000131375
7 *4168:A2 *493:12 0
8 *4168:A2 *680:25 4.64226e-05
9 *4168:A2 *844:6 9.60939e-05
10 *4168:A2 *844:27 3.34366e-05
*RES
1 *4167:X *4168:A2 40.8222 
*END

*D_NET *327 0.00150903
*CONN
*I *4170:B I *D sky130_fd_sc_hd__nor2_2
*I *4169:X O *D sky130_fd_sc_hd__and2_2
*CAP
1 *4170:B 0.000432451
2 *4169:X 0.000432451
3 *4170:B *4171:A2 0
4 *4170:B *4175:B 0.000100165
5 *4170:B *652:10 0
6 *4018:B *4170:B 0.000181899
7 *4170:A *4170:B 0.000322453
8 *232:31 *4170:B 3.96138e-05
*RES
1 *4169:X *4170:B 35.4929 
*END

*D_NET *328 0.000858936
*CONN
*I *4171:A2 I *D sky130_fd_sc_hd__o21ai_2
*I *4170:Y O *D sky130_fd_sc_hd__nor2_2
*CAP
1 *4171:A2 0.000371601
2 *4170:Y 0.000371601
3 *4171:A2 *4018:A 5.49995e-05
4 *4171:A2 *4176:A1 3.67279e-06
5 *4171:A2 *542:62 2.3421e-05
6 *4171:A2 *652:10 0
7 *4171:A2 *846:12 2.53112e-06
8 *4170:A *4171:A2 0
9 *4170:B *4171:A2 0
10 *233:8 *4171:A2 3.11088e-05
*RES
1 *4170:Y *4171:A2 34.1714 
*END

*D_NET *329 0.00137988
*CONN
*I *4173:A2 I *D sky130_fd_sc_hd__o21ai_2
*I *4172:Y O *D sky130_fd_sc_hd__xnor2_2
*CAP
1 *4173:A2 0.000647734
2 *4172:Y 0.000647734
3 *4173:A2 *4173:B1 3.66289e-05
4 *4173:A2 *846:12 9.33978e-07
5 *4172:B *4173:A2 4.6845e-05
*RES
1 *4172:Y *4173:A2 37.1179 
*END

*D_NET *330 0.00121849
*CONN
*I *4175:B I *D sky130_fd_sc_hd__and2_2
*I *4174:Y O *D sky130_fd_sc_hd__o31ai_2
*CAP
1 *4175:B 0.000393376
2 *4174:Y 0.000393376
3 *4170:B *4175:B 0.000100165
4 *232:16 *4175:B 0.000237549
5 *232:31 *4175:B 9.40222e-05
*RES
1 *4174:Y *4175:B 35.5107 
*END

*D_NET *331 0.00144574
*CONN
*I *4176:A2 I *D sky130_fd_sc_hd__o21ai_2
*I *4175:X O *D sky130_fd_sc_hd__and2_2
*CAP
1 *4176:A2 0.000695367
2 *4175:X 0.000695367
3 *4172:B *4176:A2 5.50052e-05
*RES
1 *4175:X *4176:A2 39.2429 
*END

*D_NET *332 0.00132342
*CONN
*I *4178:B I *D sky130_fd_sc_hd__nor2_2
*I *4177:X O *D sky130_fd_sc_hd__and2_2
*CAP
1 *4178:B 0.000393042
2 *4177:X 0.000393042
3 *4178:B *4180:A 7.15503e-05
4 *4178:B *4181:A2 9.67754e-05
5 *4178:A *4178:B 0.000225374
6 *4180:B *4178:B 0.000143633
*RES
1 *4177:X *4178:B 26.1357 
*END

*D_NET *333 0.00184418
*CONN
*I *4179:A2 I *D sky130_fd_sc_hd__o21ai_2
*I *4178:Y O *D sky130_fd_sc_hd__nor2_2
*CAP
1 *4179:A2 0.000747467
2 *4178:Y 0.000747467
3 *4179:A2 *4181:A1 5.4959e-05
4 *4179:A2 *4181:B1 7.88091e-05
5 *4179:A2 *4187:B1 1.16733e-05
6 *4179:A2 *4541:RESET_B 0.000100936
7 *4179:A2 *542:29 2.97578e-05
8 *4179:A2 *652:67 1.16543e-05
9 *4179:A2 *693:18 6.14514e-05
*RES
1 *4178:Y *4179:A2 38.8679 
*END

*D_NET *334 0.00110358
*CONN
*I *4181:A2 I *D sky130_fd_sc_hd__o21ai_2
*I *4180:Y O *D sky130_fd_sc_hd__xnor2_2
*CAP
1 *4181:A2 0.00033274
2 *4180:Y 0.00033274
3 *4181:A2 *4541:RESET_B 0.000100936
4 *4181:A2 *4542:D 0.000107067
5 *4181:A2 *693:18 5.59032e-05
6 *4181:A2 *829:22 7.74135e-05
7 *4178:B *4181:A2 9.67754e-05
*RES
1 *4180:Y *4181:A2 35.0464 
*END

*D_NET *335 0.000283579
*CONN
*I *4183:B I *D sky130_fd_sc_hd__and2_2
*I *4182:Y O *D sky130_fd_sc_hd__o31ai_2
*CAP
1 *4183:B 0.000141789
2 *4182:Y 0.000141789
*RES
1 *4182:Y *4183:B 20.7786 
*END

*D_NET *336 0.000690083
*CONN
*I *4184:A2 I *D sky130_fd_sc_hd__o21ai_2
*I *4183:X O *D sky130_fd_sc_hd__and2_2
*CAP
1 *4184:A2 0.000268518
2 *4183:X 0.000268518
3 *4184:A2 *655:46 0
4 *4184:A2 *693:16 0.000153047
*RES
1 *4183:X *4184:A2 32.5464 
*END

*D_NET *337 0.000644167
*CONN
*I *4186:B I *D sky130_fd_sc_hd__nor2_2
*I *4185:X O *D sky130_fd_sc_hd__and2_2
*CAP
1 *4186:B 0.000118765
2 *4185:X 0.000118765
3 *4186:B *4545:RESET_B 0.00015078
4 *4186:B *4546:RESET_B 0.00015018
5 *4186:A *4186:B 0.000105676
*RES
1 *4185:X *4186:B 31.6714 
*END

*D_NET *338 0.00075966
*CONN
*I *4187:A2 I *D sky130_fd_sc_hd__o21ai_2
*I *4186:Y O *D sky130_fd_sc_hd__nor2_2
*CAP
1 *4187:A2 0.000340732
2 *4186:Y 0.000340732
3 *4187:A2 *4544:D 7.8195e-05
*RES
1 *4186:Y *4187:A2 33.5643 
*END

*D_NET *339 0.000259613
*CONN
*I *4189:A2 I *D sky130_fd_sc_hd__o21ai_2
*I *4188:Y O *D sky130_fd_sc_hd__xnor2_2
*CAP
1 *4189:A2 5.93531e-05
2 *4188:Y 5.93531e-05
3 *236:10 *4189:A2 0.000140907
*RES
1 *4188:Y *4189:A2 19.9571 
*END

*D_NET *340 0.000524813
*CONN
*I *4191:B I *D sky130_fd_sc_hd__and2_2
*I *4190:Y O *D sky130_fd_sc_hd__o31ai_2
*CAP
1 *4191:B 0.000130035
2 *4190:Y 0.000130035
3 *4191:B *4190:B1 0.000186669
4 *4191:B *4192:A2 2.28499e-05
5 *4190:A3 *4191:B 5.52238e-05
*RES
1 *4190:Y *4191:B 21.6179 
*END

*D_NET *341 0.0011747
*CONN
*I *4192:A2 I *D sky130_fd_sc_hd__o21ai_2
*I *4191:X O *D sky130_fd_sc_hd__and2_2
*CAP
1 *4192:A2 0.000330948
2 *4191:X 0.000330948
3 *4192:A2 *4190:A1 9.82345e-05
4 *4192:A2 *4190:A2 0.000137561
5 *4192:A2 *4190:B1 0.000142856
6 *4192:A2 *4546:D 4.77058e-05
7 *4190:A3 *4192:A2 6.35941e-05
8 *4191:B *4192:A2 2.28499e-05
*RES
1 *4191:X *4192:A2 25.3143 
*END

*D_NET *342 0.00330192
*CONN
*I *4198:B I *D sky130_fd_sc_hd__xnor2_2
*I *4195:A_N I *D sky130_fd_sc_hd__and2b_2
*I *4193:Y O *D sky130_fd_sc_hd__nor2_2
*CAP
1 *4198:B 6.73981e-06
2 *4195:A_N 0.000361169
3 *4193:Y 0.000469197
4 *342:12 0.000837106
5 *4195:A_N *4195:B 1.34631e-05
6 *4195:A_N *4196:A2 5.50313e-05
7 *4195:A_N *4196:B1 6.74226e-05
8 *4195:A_N *4199:A1 0
9 *4195:A_N *4199:A2 9.80271e-05
10 *4195:A_N *4548:CLK 0.000182313
11 *4195:A_N *564:20 0.00021887
12 *4195:A_N *653:96 0.000185545
13 *4198:B *4196:B1 2.36643e-05
14 *342:12 *4196:A2 5.33005e-05
15 *342:12 *4196:B1 0.000419288
16 *342:12 *4198:A 4.13496e-05
17 *342:12 *834:38 0.000269428
*RES
1 *4193:Y *342:12 18.1036 
2 *342:12 *4195:A_N 27.5679 
3 *342:12 *4198:B 9.83571 
*END

*D_NET *343 0.00299534
*CONN
*I *4195:B I *D sky130_fd_sc_hd__and2b_2
*I *4194:Y O *D sky130_fd_sc_hd__nand2_2
*CAP
1 *4195:B 0.000994933
2 *4194:Y 0.000994933
3 *4195:B *4194:A 0.000198698
4 *4195:B *4196:A2 3.34457e-05
5 *4195:B *4548:CLK 0.000135761
6 *4195:B *4548:D 0.00022609
7 *4195:B *4571:CLK 0
8 *4195:B *474:82 0
9 *4195:B *696:81 0.000282127
10 *4195:A_N *4195:B 1.34631e-05
11 *4202:B *4195:B 0.000115889
*RES
1 *4194:Y *4195:B 43.0821 
*END

*D_NET *344 0.00320828
*CONN
*I *4196:A2 I *D sky130_fd_sc_hd__o21ai_2
*I *4195:X O *D sky130_fd_sc_hd__and2b_2
*CAP
1 *4196:A2 0.0011705
2 *4195:X 0.0011705
3 *4196:A2 *4025:A 1.24548e-05
4 *4196:A2 *4025:B 8.15095e-05
5 *4196:A2 *4198:A 0.000173384
6 *4196:A2 *4199:B1 0.000317634
7 *4196:A2 *4547:D 5.54183e-05
8 *4196:A2 *4548:CLK 1.10868e-05
9 *4196:A2 *4548:D 4.0597e-05
10 *4196:A2 *474:82 0
11 *4196:A2 *835:8 1.58163e-05
12 *4195:A_N *4196:A2 5.50313e-05
13 *4195:B *4196:A2 3.34457e-05
14 *239:31 *4196:A2 1.76135e-05
15 *342:12 *4196:A2 5.33005e-05
*RES
1 *4195:X *4196:A2 44.0464 
*END

*D_NET *345 0.00183049
*CONN
*I *4200:A2 I *D sky130_fd_sc_hd__a21boi_2
*I *4197:X O *D sky130_fd_sc_hd__or3_2
*CAP
1 *4200:A2 0.000817775
2 *4197:X 0.000817775
3 *4200:A2 *4024:A 1.24368e-05
4 *4200:A2 *4200:A1 7.94648e-05
5 *4200:A2 *474:71 0
6 *4200:A2 *474:82 0
7 *4150:A2 *4200:A2 0
8 *4191:A *4200:A2 0
9 *239:14 *4200:A2 0.00010304
10 *239:31 *4200:A2 0
*RES
1 *4197:X *4200:A2 41.8321 
*END

*D_NET *346 0.00102903
*CONN
*I *4199:A2 I *D sky130_fd_sc_hd__o21ai_2
*I *4198:Y O *D sky130_fd_sc_hd__xnor2_2
*CAP
1 *4199:A2 0.000234348
2 *4198:Y 0.000234348
3 *4199:A2 *4196:B1 1.30891e-05
4 *4199:A2 *4199:A1 0
5 *4199:A2 *4199:B1 0.000242994
6 *4199:A2 *4548:CLK 9.83388e-05
7 *4199:A2 *4627:A 9.85424e-06
8 *4199:A2 *653:96 9.80271e-05
9 *4195:A_N *4199:A2 9.80271e-05
*RES
1 *4198:Y *4199:A2 32.7071 
*END

*D_NET *347 0.000884317
*CONN
*I *4201:A2 I *D sky130_fd_sc_hd__o21ai_2
*I *4200:Y O *D sky130_fd_sc_hd__a21boi_2
*CAP
1 *4201:A2 0.00026612
2 *4200:Y 0.00026612
3 *4201:A2 *4627:A 4.1331e-06
4 *4201:A2 *474:25 7.6644e-05
5 *4201:A2 *564:26 0
6 *4202:B *4201:A2 0
7 *239:14 *4201:A2 0.000271301
*RES
1 *4200:Y *4201:A2 31.8321 
*END

*D_NET *348 0.000804471
*CONN
*I *4203:A2 I *D sky130_fd_sc_hd__o21ai_2
*I *4202:X O *D sky130_fd_sc_hd__xor2_2
*CAP
1 *4203:A2 0.000144888
2 *4202:X 0.000144888
3 *4203:A2 *3844:A 0.000101987
4 *4203:A2 *4550:D 0.000219896
5 *4203:A2 *4660:A 9.84137e-06
6 *4203:A2 *464:10 0.000182971
*RES
1 *4202:X *4203:A2 40.8857 
*END

*D_NET *349 0.000453974
*CONN
*I *4743:A I *D sky130_fd_sc_hd__dlygate4sd3_1
*I *4204:Y O *D sky130_fd_sc_hd__o21ai_2
*CAP
1 *4743:A 0.000122138
2 *4204:Y 0.000122138
3 *4743:A *4204:A1 5.49489e-05
4 *4743:A *4205:C1 4.13122e-06
5 *4743:A *695:26 0.000150618
*RES
1 *4204:Y *4743:A 30.0821 
*END

*D_NET *350 0.00288479
*CONN
*I *4684:A I *D sky130_fd_sc_hd__clkdlybuf4s25_1
*I *4263:B1_N I *D sky130_fd_sc_hd__a21bo_2
*I *4261:B1 I *D sky130_fd_sc_hd__o21ai_2
*I *4207:Y O *D sky130_fd_sc_hd__nand2_2
*CAP
1 *4684:A 2.23854e-05
2 *4263:B1_N 4.78454e-05
3 *4261:B1 0.000222918
4 *4207:Y 0.00019813
5 *350:12 0.00067088
6 *350:6 0.000620632
7 *4261:B1 *4530:D 8.06331e-05
8 *4263:B1_N *4663:A 1.28809e-05
9 *350:6 *681:63 5.41609e-05
10 *350:12 *4263:A1 2.44318e-05
11 *350:12 *4663:A 2.60984e-05
12 *350:12 *4788:A 5.52238e-05
13 *350:12 *663:6 0.000608147
14 *4012:B *4263:B1_N 0
15 *4261:A1 *4261:B1 0
16 *4263:A2 *4263:B1_N 1.28809e-05
17 *4263:A2 *350:12 0.000227539
18 *227:21 *4261:B1 0
19 *227:21 *4263:B1_N 0
*RES
1 *4207:Y *350:6 12.7107 
2 *350:6 *350:12 13.6786 
3 *350:12 *4261:B1 17.8714 
4 *350:12 *4263:B1_N 14.6616 
5 *350:6 *4684:A 9.72857 
*END

*D_NET *351 0.00210802
*CONN
*I *4210:B I *D sky130_fd_sc_hd__nor2_2
*I *4209:X O *D sky130_fd_sc_hd__and2_2
*CAP
1 *4210:B 0.000962094
2 *4209:X 0.000962094
3 *4210:B *4173:A1 0
4 *4210:B *4526:D 3.4879e-05
5 *4210:B *542:45 0
6 *4210:B *662:8 5.55288e-05
7 *4210:B *662:12 5.41494e-05
8 *4210:B *883:34 3.92757e-05
*RES
1 *4209:X *4210:B 44.1 
*END

*D_NET *352 0.00130029
*CONN
*I *4211:A2 I *D sky130_fd_sc_hd__o21ai_2
*I *4210:Y O *D sky130_fd_sc_hd__nor2_2
*CAP
1 *4211:A2 0.000403517
2 *4210:Y 0.000403517
3 *4211:A2 *4211:A1 1.49188e-05
4 *4211:A2 *4510:D 0.000180777
5 *4211:A2 *662:14 0.000297559
6 *4210:A *4211:A2 0
*RES
1 *4210:Y *4211:A2 35.225 
*END

*D_NET *353 0.000984066
*CONN
*I *4213:A2 I *D sky130_fd_sc_hd__o21ai_2
*I *4212:Y O *D sky130_fd_sc_hd__xnor2_2
*CAP
1 *4213:A2 0.000306816
2 *4212:Y 0.000306816
3 *4213:A2 *4000:A 1.98839e-05
4 *4213:A2 *4000:B 5.66971e-05
5 *4213:A2 *4000:C 0.000132553
6 *4213:A2 *492:18 1.12578e-05
7 *216:8 *4213:A2 0.000150043
*RES
1 *4212:Y *4213:A2 33.2786 
*END

*D_NET *354 0.00148299
*CONN
*I *4215:B I *D sky130_fd_sc_hd__and2_2
*I *4214:Y O *D sky130_fd_sc_hd__o31ai_2
*CAP
1 *4215:B 0.000455135
2 *4214:Y 0.000455135
3 *4215:B *4000:B 6.94441e-06
4 *4215:B *4013:A 2.07809e-05
5 *4215:B *4208:A1 4.97967e-05
6 *4215:B *4214:A3 0.000146261
7 *4215:B *4216:A1 0
8 *4215:B *4512:RESET_B 6.66813e-05
9 *4215:B *679:34 0.000185476
10 *4215:B *872:14 9.67754e-05
*RES
1 *4214:Y *4215:B 38.0821 
*END

*D_NET *355 0.000464963
*CONN
*I *4216:A2 I *D sky130_fd_sc_hd__o21ai_2
*I *4215:X O *D sky130_fd_sc_hd__and2_2
*CAP
1 *4216:A2 0.000192116
2 *4215:X 0.000192116
3 *4215:A *4216:A2 8.07313e-05
*RES
1 *4215:X *4216:A2 22.0286 
*END

*D_NET *356 0.00124391
*CONN
*I *4218:B I *D sky130_fd_sc_hd__nor2_2
*I *4217:X O *D sky130_fd_sc_hd__and2_2
*CAP
1 *4218:B 0.00057531
2 *4217:X 0.00057531
3 *4218:A *4218:B 4.22908e-05
4 *4222:A3 *4218:B 5.09999e-05
*RES
1 *4217:X *4218:B 37.975 
*END

*D_NET *357 0.00217758
*CONN
*I *4219:A2 I *D sky130_fd_sc_hd__o21ai_2
*I *4218:Y O *D sky130_fd_sc_hd__nor2_2
*CAP
1 *4219:A2 0.000661751
2 *4218:Y 0.000661751
3 *4219:A2 *4219:A1 0.000226274
4 *4219:A2 *4221:A1 8.91963e-06
5 *4219:A2 *4221:B1 0.000152593
6 *4219:A2 *4513:D 0.000193257
7 *4219:A2 *4514:CLK 0.000195257
8 *4218:A *4219:A2 7.77751e-05
*RES
1 *4218:Y *4219:A2 42.7429 
*END

*D_NET *358 0.00137802
*CONN
*I *4221:A2 I *D sky130_fd_sc_hd__o21ai_2
*I *4220:Y O *D sky130_fd_sc_hd__xnor2_2
*CAP
1 *4221:A2 0.000689011
2 *4220:Y 0.000689011
*RES
1 *4220:Y *4221:A2 37.2429 
*END

*D_NET *359 0.00201791
*CONN
*I *4223:B I *D sky130_fd_sc_hd__and2_2
*I *4222:Y O *D sky130_fd_sc_hd__o31ai_2
*CAP
1 *4223:B 0.000424324
2 *4222:Y 0.000424324
3 *4223:B *4002:A 0
4 *4223:B *4002:C 0.000430987
5 *4223:B *4222:B1 0.000293261
6 *4223:B *4224:A2 0
7 *4223:B *4515:D 0.000165521
8 *4223:B *4519:RESET_B 0
9 *4223:B *575:18 0
10 *4223:B *661:18 0.00015134
11 *218:8 *4223:B 0.000128154
*RES
1 *4222:Y *4223:B 39.7964 
*END

*D_NET *360 0.000441011
*CONN
*I *4224:A2 I *D sky130_fd_sc_hd__o21ai_2
*I *4223:X O *D sky130_fd_sc_hd__and2_2
*CAP
1 *4224:A2 0.000156782
2 *4223:X 0.000156782
3 *4224:A2 *575:18 0.000127446
4 *4224:A2 *661:18 0
5 *4223:B *4224:A2 0
*RES
1 *4223:X *4224:A2 30.1893 
*END

*D_NET *361 0.000170729
*CONN
*I *4226:B I *D sky130_fd_sc_hd__nor2_2
*I *4225:X O *D sky130_fd_sc_hd__and2_2
*CAP
1 *4226:B 8.53646e-05
2 *4225:X 8.53646e-05
*RES
1 *4225:X *4226:B 19.9571 
*END

*D_NET *362 0.000762692
*CONN
*I *4227:A2 I *D sky130_fd_sc_hd__o21ai_2
*I *4226:Y O *D sky130_fd_sc_hd__nor2_2
*CAP
1 *4227:A2 0.000381346
2 *4226:Y 0.000381346
*RES
1 *4226:Y *4227:A2 34.0107 
*END

*D_NET *363 0.000686648
*CONN
*I *4229:A2 I *D sky130_fd_sc_hd__o21ai_2
*I *4228:Y O *D sky130_fd_sc_hd__xnor2_2
*CAP
1 *4229:A2 0.000228416
2 *4228:Y 0.000228416
3 *4229:A2 *4517:D 5.70016e-05
4 *4003:B *4229:A2 7.6997e-05
5 *4228:B *4229:A2 9.58181e-05
*RES
1 *4228:Y *4229:A2 31.9214 
*END

*D_NET *364 0.000422981
*CONN
*I *4231:B I *D sky130_fd_sc_hd__and2_2
*I *4230:Y O *D sky130_fd_sc_hd__o31ai_2
*CAP
1 *4231:B 0.000159388
2 *4230:Y 0.000159388
3 *4231:B *4235:A2 0
4 *4231:B *4518:RESET_B 0
5 *4231:B *893:8 0
6 *4231:B *894:12 0
7 *4230:A3 *4231:B 3.67142e-05
8 *220:12 *4231:B 6.74911e-05
*RES
1 *4230:Y *4231:B 30.4929 
*END

*D_NET *365 0.000924411
*CONN
*I *4232:A2 I *D sky130_fd_sc_hd__o21ai_2
*I *4231:X O *D sky130_fd_sc_hd__and2_2
*CAP
1 *4232:A2 0.000305651
2 *4231:X 0.000305651
3 *4232:A2 *4232:A1 0.000214771
4 *4232:A2 *4232:B1 9.83388e-05
5 *4232:A2 *4518:RESET_B 0
*RES
1 *4231:X *4232:A2 33.8857 
*END

*D_NET *366 0.000521978
*CONN
*I *4234:B I *D sky130_fd_sc_hd__nor2_2
*I *4233:X O *D sky130_fd_sc_hd__and2_2
*CAP
1 *4234:B 0.000185061
2 *4233:X 0.000185061
3 *4234:B *4235:A2 8.15843e-05
4 *220:12 *4234:B 0
5 *220:21 *4234:B 5.62995e-05
6 *220:38 *4234:B 1.39726e-05
*RES
1 *4233:X *4234:B 30.9036 
*END

*D_NET *367 0.00173483
*CONN
*I *4235:A2 I *D sky130_fd_sc_hd__o21ai_2
*I *4234:Y O *D sky130_fd_sc_hd__nor2_2
*CAP
1 *4235:A2 0.000512586
2 *4234:Y 0.000512586
3 *4235:A2 *477:24 2.49484e-05
4 *4231:B *4235:A2 0
5 *4234:A *4235:A2 0.00060312
6 *4234:B *4235:A2 8.15843e-05
7 *220:12 *4235:A2 0
*RES
1 *4234:Y *4235:A2 38.1 
*END

*D_NET *368 0.00203226
*CONN
*I *4237:A2 I *D sky130_fd_sc_hd__o21ai_2
*I *4236:Y O *D sky130_fd_sc_hd__xnor2_2
*CAP
1 *4237:A2 0.000688521
2 *4236:Y 0.000688521
3 *4237:A2 *4006:B 0
4 *4237:A2 *4240:A2 0.000456284
5 *4237:A2 *4519:RESET_B 0
6 *4237:A2 *4520:D 0
7 *4237:A2 *873:8 3.92757e-05
8 *4237:A2 *873:23 6.7257e-05
9 *4237:A2 *875:10 9.2403e-05
*RES
1 *4236:Y *4237:A2 42.3679 
*END

*D_NET *369 0.000475545
*CONN
*I *4239:B I *D sky130_fd_sc_hd__and2_2
*I *4238:Y O *D sky130_fd_sc_hd__o31ai_2
*CAP
1 *4239:B 6.47383e-05
2 *4238:Y 6.47383e-05
3 *4239:B *4238:B1 0.000105163
4 *4007:B *4239:B 0.000240905
*RES
1 *4238:Y *4239:B 21.2071 
*END

*D_NET *370 0.00302303
*CONN
*I *4240:A2 I *D sky130_fd_sc_hd__o21ai_2
*I *4239:X O *D sky130_fd_sc_hd__and2_2
*CAP
1 *4240:A2 0.000867449
2 *4239:X 0.000867449
3 *4240:A2 *4233:A 4.92208e-05
4 *4240:A2 *4238:B1 0
5 *4240:A2 *4521:D 0.000137983
6 *4240:A2 *677:33 2.7814e-05
7 *4240:A2 *873:23 0.000479464
8 *4240:A2 *874:32 4.02462e-05
9 *4240:A2 *875:10 0
10 *4237:A2 *4240:A2 0.000456284
11 *220:38 *4240:A2 9.71197e-05
*RES
1 *4239:X *4240:A2 43.8857 
*END

*D_NET *371 0.00289127
*CONN
*I *4242:B I *D sky130_fd_sc_hd__nor2_2
*I *4241:X O *D sky130_fd_sc_hd__and2_2
*CAP
1 *4242:B 0.000434998
2 *4241:X 0.000434998
3 *4242:B *3982:A 0.000136958
4 *4242:B *3982:B 9.41642e-05
5 *4242:B *4241:A 7.43578e-06
6 *4242:B *4243:A2 2.89114e-05
7 *4242:B *4523:CLK 0.000371533
8 *4242:B *488:67 0.000384455
9 *4242:B *677:14 0.000900506
10 *4241:B *4242:B 2.15245e-05
11 *4244:B *4242:B 7.57869e-05
*RES
1 *4241:X *4242:B 42.4929 
*END

*D_NET *372 0.000338619
*CONN
*I *4243:A2 I *D sky130_fd_sc_hd__o21ai_2
*I *4242:Y O *D sky130_fd_sc_hd__nor2_2
*CAP
1 *4243:A2 8.82473e-05
2 *4242:Y 8.82473e-05
3 *4243:A2 *457:10 5.33786e-05
4 *4243:A2 *488:67 6.97972e-05
5 *4242:A *4243:A2 1.00375e-05
6 *4242:B *4243:A2 2.89114e-05
*RES
1 *4242:Y *4243:A2 29.7786 
*END

*D_NET *373 0.0013263
*CONN
*I *4245:A2 I *D sky130_fd_sc_hd__o21ai_2
*I *4244:Y O *D sky130_fd_sc_hd__xnor2_2
*CAP
1 *4245:A2 0.000341412
2 *4244:Y 0.000341412
3 *4245:A2 *4244:A 0.00010326
4 *4245:A2 *4245:A1 6.47073e-05
5 *4245:A2 *4523:D 0.000129868
6 *4244:B *4245:A2 0.000345639
*RES
1 *4244:Y *4245:A2 35.4036 
*END

*D_NET *374 0.000445068
*CONN
*I *4247:B I *D sky130_fd_sc_hd__and2_2
*I *4246:Y O *D sky130_fd_sc_hd__o31ai_2
*CAP
1 *4247:B 8.78753e-05
2 *4246:Y 8.78753e-05
3 *4247:B *4248:A2 8.07313e-05
4 *4241:B *4247:B 0
5 *222:41 *4247:B 0.000188586
*RES
1 *4246:Y *4247:B 21.2071 
*END

*D_NET *375 0.00100107
*CONN
*I *4248:A2 I *D sky130_fd_sc_hd__o21ai_2
*I *4247:X O *D sky130_fd_sc_hd__and2_2
*CAP
1 *4248:A2 0.000321473
2 *4247:X 0.000321473
3 *4248:A2 *4245:B1 0
4 *4248:A2 *4524:D 0.000104974
5 *4241:B *4248:A2 0.000142856
6 *4247:B *4248:A2 8.07313e-05
7 *222:33 *4248:A2 0
8 *222:41 *4248:A2 2.95641e-05
*RES
1 *4247:X *4248:A2 32.9571 
*END

*D_NET *376 0.00192835
*CONN
*I *4253:B I *D sky130_fd_sc_hd__xnor2_2
*I *4251:A_N I *D sky130_fd_sc_hd__and2b_2
*I *4249:Y O *D sky130_fd_sc_hd__nor2_2
*CAP
1 *4253:B 0.000441254
2 *4251:A_N 0.000129483
3 *4249:Y 4.46536e-05
4 *376:8 0.000615391
5 *4251:A_N *4251:B 5.98338e-05
6 *4251:A_N *4257:A2 2.39654e-05
7 *4251:A_N *4682:A 0
8 *4251:A_N *597:20 0
9 *4251:A_N *663:57 0.000102403
10 *4253:B *4251:B 0.000137983
11 *4253:B *4254:A2 4.47081e-05
12 *4253:B *4257:B1 0
13 *4253:B *4683:A 0.00013545
14 *4253:B *663:72 2.97829e-05
15 *376:8 *4257:A2 5.01213e-05
16 *376:8 *663:57 9.0573e-05
17 *225:20 *4253:B 2.27416e-05
*RES
1 *4249:Y *376:8 15.1393 
2 *376:8 *4251:A_N 16.9607 
3 *376:8 *4253:B 20.675 
*END

*D_NET *377 0.000784776
*CONN
*I *4251:B I *D sky130_fd_sc_hd__and2b_2
*I *4250:Y O *D sky130_fd_sc_hd__nand2_2
*CAP
1 *4251:B 0.000145899
2 *4250:Y 0.000145899
3 *4251:B *4257:A2 3.10819e-05
4 *4251:B *4682:A 3.69047e-06
5 *4251:B *597:10 2.15339e-05
6 *4251:B *597:20 0.00017603
7 *4251:B *663:72 6.28241e-05
8 *4251:A_N *4251:B 5.98338e-05
9 *4253:B *4251:B 0.000137983
*RES
1 *4250:Y *4251:B 31.9214 
*END

*D_NET *378 0.000925419
*CONN
*I *4252:A2 I *D sky130_fd_sc_hd__o21ai_2
*I *4251:X O *D sky130_fd_sc_hd__and2b_2
*CAP
1 *4252:A2 0.00018622
2 *4251:X 0.00018622
3 *4252:A2 *4525:D 0.000154762
4 *4252:A2 *4526:CLK 0
5 *4252:A2 *4662:A 5.33005e-05
6 *4252:A2 *492:10 0
7 *4252:A2 *492:58 0
8 *4252:A2 *597:20 0.000344917
*RES
1 *4251:X *4252:A2 32.5107 
*END

*D_NET *379 0.00180252
*CONN
*I *4254:A2 I *D sky130_fd_sc_hd__o21ai_2
*I *4253:Y O *D sky130_fd_sc_hd__xnor2_2
*CAP
1 *4254:A2 0.000280645
2 *4253:Y 0.000280645
3 *4254:A2 *4526:D 0.000512608
4 *4254:A2 *4662:A 0
5 *4254:A2 *4683:A 9.90367e-05
6 *4254:A2 *597:31 1.3142e-05
7 *4254:A2 *597:33 5.80706e-06
8 *4254:A2 *679:12 0.000214342
9 *4254:A2 *679:14 0.000128154
10 *4254:A2 *679:23 0.000223433
11 *4253:B *4254:A2 4.47081e-05
*RES
1 *4253:Y *4254:A2 38.0821 
*END

*D_NET *380 0.00205328
*CONN
*I *4256:B I *D sky130_fd_sc_hd__nor2_2
*I *4255:X O *D sky130_fd_sc_hd__o31a_2
*CAP
1 *4256:B 0.000645477
2 *4255:X 0.000645477
3 *4256:B *4257:A2 1.24368e-05
4 *4256:B *4664:A 0.000269428
5 *4256:B *597:10 2.59355e-05
6 *4256:B *679:10 4.87953e-05
7 *4256:B *682:14 5.71472e-05
8 *4256:B *682:27 0.000348579
9 *3:14 *4256:B 0
*RES
1 *4255:X *4256:B 40.475 
*END

*D_NET *381 0.000731808
*CONN
*I *4257:A2 I *D sky130_fd_sc_hd__o21ai_2
*I *4256:Y O *D sky130_fd_sc_hd__nor2_2
*CAP
1 *4257:A2 0.000197529
2 *4256:Y 0.000197529
3 *4257:A2 *4527:CLK 7.79781e-06
4 *4257:A2 *597:10 0.00014148
5 *4257:A2 *663:57 6.98669e-05
6 *4251:A_N *4257:A2 2.39654e-05
7 *4251:B *4257:A2 3.10819e-05
8 *4256:B *4257:A2 1.24368e-05
9 *376:8 *4257:A2 5.01213e-05
*RES
1 *4256:Y *4257:A2 32.5107 
*END

*D_NET *382 0.000227918
*CONN
*I *4259:A2 I *D sky130_fd_sc_hd__o21ai_2
*I *4258:Y O *D sky130_fd_sc_hd__xnor2_2
*CAP
1 *4259:A2 7.96194e-05
2 *4258:Y 7.96194e-05
3 *4259:A2 *4528:D 6.86792e-05
*RES
1 *4258:Y *4259:A2 19.9571 
*END

*D_NET *383 0.00247889
*CONN
*I *4262:A I *D sky130_fd_sc_hd__or2_2
*I *4260:X O *D sky130_fd_sc_hd__o31a_2
*CAP
1 *4262:A 0.000739449
2 *4260:X 0.000739449
3 *4262:A *3843:A 6.44542e-05
4 *4262:A *4260:A1 1.56e-05
5 *4262:A *4262:B 0.000374364
6 *4262:A *4528:D 0.000109809
7 *4262:A *4529:D 0
8 *4262:A *608:14 0.000105884
9 *4262:A *608:16 0
10 *4262:A *682:14 0
11 *4262:A *882:19 0
12 *4262:A *885:8 4.16383e-05
13 *4262:A *885:19 5.85042e-05
14 *4258:B *4262:A 0.000208271
15 *225:20 *4262:A 2.14658e-05
*RES
1 *4260:X *4262:A 45.475 
*END

*D_NET *384 0.00237343
*CONN
*I *4262:B I *D sky130_fd_sc_hd__or2_2
*I *4261:Y O *D sky130_fd_sc_hd__o21ai_2
*CAP
1 *4262:B 0.000714412
2 *4261:Y 0.000714412
3 *4262:B *3909:B 2.8266e-06
4 *4262:B *4663:A 0.000295844
5 *4262:B *494:12 0
6 *4262:B *494:60 6.82922e-05
7 *4262:B *608:14 7.6644e-05
8 *4261:A1 *4262:B 0.000126629
9 *4262:A *4262:B 0.000374364
*RES
1 *4261:Y *4262:B 41.4929 
*END

*D_NET *385 0.000799821
*CONN
*I *4266:A2 I *D sky130_fd_sc_hd__a21oi_2
*I *4265:Y O *D sky130_fd_sc_hd__nand2_2
*CAP
1 *4266:A2 0.000305647
2 *4265:Y 0.000305647
3 *4266:A2 *466:8 0.000123068
4 *4266:A2 *466:58 6.54584e-05
*RES
1 *4265:Y *4266:A2 32.2429 
*END

*D_NET *386 0.0026179
*CONN
*I *4268:A2 I *D sky130_fd_sc_hd__a21oi_2
*I *4267:Y O *D sky130_fd_sc_hd__nand2_2
*CAP
1 *4268:A2 0.00056324
2 *4267:Y 0.00056324
3 *4268:A2 *4265:A 0.000142744
4 *4268:A2 *4265:B 0.000168197
5 *4268:A2 *4489:D 0.000126279
6 *4268:A2 *4490:D 5.14943e-05
7 *4268:A2 *466:8 7.57394e-05
8 *4268:A2 *619:44 0.000139202
9 *4268:A2 *619:46 0.000475712
10 *4268:A2 *619:56 0.000261317
11 *4268:A1 *4268:A2 5.07348e-05
*RES
1 *4267:Y *4268:A2 42.9036 
*END

*D_NET *387 0.00229631
*CONN
*I *4270:A2 I *D sky130_fd_sc_hd__a21oi_2
*I *4269:Y O *D sky130_fd_sc_hd__nand2_2
*CAP
1 *4270:A2 0.000698278
2 *4269:Y 0.000698278
3 *4270:A2 *466:8 1.98839e-05
4 *4270:A2 *931:17 0.000364638
5 *4268:A1 *4270:A2 0.000186387
6 *4270:A1 *4270:A2 0.000271898
7 *193:10 *4270:A2 1.85025e-05
8 *193:27 *4270:A2 3.84473e-05
*RES
1 *4269:Y *4270:A2 41.2964 
*END

*D_NET *388 0.000437813
*CONN
*I *4272:A2 I *D sky130_fd_sc_hd__a21oi_2
*I *4271:Y O *D sky130_fd_sc_hd__nand2_2
*CAP
1 *4272:A2 0.000202016
2 *4271:Y 0.000202016
3 *4272:A2 *4271:A 2.84026e-05
4 *4272:A1 *4272:A2 5.37741e-06
*RES
1 *4271:Y *4272:A2 30.4929 
*END

*D_NET *389 0.00209784
*CONN
*I *4274:A2 I *D sky130_fd_sc_hd__a21oi_2
*I *4273:Y O *D sky130_fd_sc_hd__o21ai_2
*CAP
1 *4274:A2 0.000480701
2 *4273:Y 0.000480701
3 *4274:A2 *3980:A 7.83659e-05
4 *4274:A2 *3983:A 0.000187733
5 *4274:A2 *3983:B 5.03772e-05
6 *4274:A2 *4271:A 1.08936e-05
7 *4274:A2 *619:25 4.25569e-05
8 *4274:A2 *933:12 0.000190697
9 *4274:A2 *933:36 3.42301e-05
10 *4274:A2 *934:21 0.000239236
11 *3979:B *4274:A2 4.43256e-05
12 *3983:D *4274:A2 0.00022459
13 *200:10 *4274:A2 3.34295e-05
*RES
1 *4273:Y *4274:A2 38.4571 
*END

*D_NET *390 0.00167085
*CONN
*I *4276:A2 I *D sky130_fd_sc_hd__a21oi_2
*I *4275:Y O *D sky130_fd_sc_hd__nand2_2
*CAP
1 *4276:A2 0.00041774
2 *4275:Y 0.00041774
3 *4276:A2 *4273:B1 0
4 *4276:A2 *4275:A 0.000804616
5 *4276:A2 *675:36 0
6 *4276:A2 *677:14 2.49484e-05
7 *4275:B *4276:A2 0
8 *4276:A1 *4276:A2 5.80706e-06
9 *197:25 *4276:A2 0
*RES
1 *4275:Y *4276:A2 37.4036 
*END

*D_NET *391 0.000548682
*CONN
*I *4278:A2 I *D sky130_fd_sc_hd__a21oi_2
*I *4277:Y O *D sky130_fd_sc_hd__nand2_2
*CAP
1 *4278:A2 0.000146919
2 *4277:Y 0.000146919
3 *4278:A2 *4277:A 5.56943e-05
4 *4278:A2 *4494:D 4.34013e-05
5 *4278:A2 *642:45 5.62995e-05
6 *4278:A2 *642:57 8.16036e-05
7 *4277:B *4278:A2 1.78447e-05
*RES
1 *4277:Y *4278:A2 31.5196 
*END

*D_NET *392 0.000371252
*CONN
*I *4280:A2 I *D sky130_fd_sc_hd__a21oi_2
*I *4279:Y O *D sky130_fd_sc_hd__nand2_2
*CAP
1 *4280:A2 0.000170193
2 *4279:Y 0.000170193
3 *4280:A2 *4279:A 3.08664e-05
*RES
1 *4279:Y *4280:A2 30.4929 
*END

*D_NET *393 0.0010984
*CONN
*I *4282:A2 I *D sky130_fd_sc_hd__a21oi_2
*I *4281:Y O *D sky130_fd_sc_hd__nand2_2
*CAP
1 *4282:A2 0.000549201
2 *4281:Y 0.000549201
*RES
1 *4281:Y *4282:A2 35.9214 
*END

*D_NET *394 0.00181727
*CONN
*I *4284:A2 I *D sky130_fd_sc_hd__a21oi_2
*I *4283:Y O *D sky130_fd_sc_hd__nand2_2
*CAP
1 *4284:A2 0.000571719
2 *4283:Y 0.000571719
3 *4284:A2 *4284:B1 6.55528e-06
4 *4284:A2 *4497:CLK 2.37144e-05
5 *4284:A2 *4827:A 0.000127246
6 *4284:A2 *496:22 0.000276864
7 *4284:A2 *496:24 0.000104198
8 *4284:A2 *496:46 8.9719e-06
9 *4283:B *4284:A2 2.62951e-05
10 *4284:A1 *4284:A2 9.99853e-05
*RES
1 *4283:Y *4284:A2 39.225 
*END

*D_NET *395 0.000860768
*CONN
*I *4286:A2 I *D sky130_fd_sc_hd__a21oi_2
*I *4285:Y O *D sky130_fd_sc_hd__nand2_2
*CAP
1 *4286:A2 0.000150694
2 *4285:Y 0.000150694
3 *4286:A2 *4285:A 1.3142e-05
4 *4286:A2 *4498:D 0.000188218
5 *4286:A2 *4499:CLK 0.000216291
6 *4286:A1 *4286:A2 0.000141729
*RES
1 *4285:Y *4286:A2 32.1179 
*END

*D_NET *396 9.79068e-05
*CONN
*I *4288:A2 I *D sky130_fd_sc_hd__a21oi_2
*I *4287:Y O *D sky130_fd_sc_hd__nand2_2
*CAP
1 *4288:A2 2.06557e-05
2 *4287:Y 2.06557e-05
3 *4288:A1 *4288:A2 5.65955e-05
*RES
1 *4287:Y *4288:A2 19.1357 
*END

*D_NET *397 0.00039972
*CONN
*I *4290:A2 I *D sky130_fd_sc_hd__a21oi_2
*I *4289:Y O *D sky130_fd_sc_hd__o21ai_2
*CAP
1 *4290:A2 0.000126978
2 *4289:Y 0.000126978
3 *4290:A2 *4291:A 5.49544e-05
4 *4290:A2 *4500:CLK 3.58558e-05
5 *4289:A2 *4290:A2 5.49544e-05
*RES
1 *4289:Y *4290:A2 30.0821 
*END

*D_NET *398 0.00169075
*CONN
*I *4292:A2 I *D sky130_fd_sc_hd__a21oi_2
*I *4291:Y O *D sky130_fd_sc_hd__nand2_2
*CAP
1 *4292:A2 0.000336806
2 *4291:Y 0.000336806
3 *4292:A2 *4291:A 0.000103437
4 *4292:A2 *4454:D 0.000128154
5 *4292:A2 *4500:CLK 0.000172115
6 *4292:A2 *467:31 4.75812e-05
7 *4292:A2 *467:44 4.96531e-05
8 *208:14 *4292:A2 0.000516199
*RES
1 *4291:Y *4292:A2 37.7786 
*END

*D_NET *399 0.00313644
*CONN
*I *4294:A2 I *D sky130_fd_sc_hd__a21oi_2
*I *4293:Y O *D sky130_fd_sc_hd__nand2_2
*CAP
1 *4294:A2 0.000860989
2 *4293:Y 0.000860989
3 *4294:A2 *4293:A 0
4 *4294:A2 *4294:B1 5.07619e-05
5 *4294:A2 *4502:D 1.59373e-05
6 *4294:A2 *4504:D 0.000320031
7 *4294:A2 *4815:A 0.000185118
8 *4294:A2 *630:6 0.000171737
9 *4294:A2 *630:8 4.82865e-05
10 *4294:A2 *685:21 1.59689e-05
11 *3994:D *4294:A2 0.000606625
*RES
1 *4293:Y *4294:A2 45.9214 
*END

*D_NET *400 0.00158679
*CONN
*I *4296:A2 I *D sky130_fd_sc_hd__a21oi_2
*I *4295:Y O *D sky130_fd_sc_hd__nand2_2
*CAP
1 *4296:A2 0.000590821
2 *4295:Y 0.000590821
3 *4296:A2 *3993:A 5.49489e-05
4 *4296:A2 *3994:C 2.95944e-05
5 *4296:A2 *924:34 3.95928e-05
6 *3993:B *4296:A2 2.84026e-05
7 *4296:A1 *4296:A2 0.000252605
*RES
1 *4295:Y *4296:A2 35.9571 
*END

*D_NET *401 0.0013646
*CONN
*I *4298:A2 I *D sky130_fd_sc_hd__a21oi_2
*I *4297:Y O *D sky130_fd_sc_hd__o21ai_2
*CAP
1 *4298:A2 0.000365864
2 *4297:Y 0.000365864
3 *4298:A2 *3992:A 4.73286e-05
4 *4298:A2 *4297:A1 5.06672e-05
5 *4298:A2 *4298:B1 0.000185124
6 *4298:A2 *4502:D 0.000124083
7 *4298:A2 *530:18 6.96796e-05
8 *4298:A2 *630:34 1.50257e-05
9 *3992:B *4298:A2 5.65955e-05
10 *209:8 *4298:A2 8.43666e-05
*RES
1 *4297:Y *4298:A2 35.9214 
*END

*D_NET *402 0.00183138
*CONN
*I *4301:A1 I *D sky130_fd_sc_hd__a21oi_2
*I *4302:B I *D sky130_fd_sc_hd__nand2_2
*I *4299:X O *D sky130_fd_sc_hd__or2_2
*CAP
1 *4301:A1 6.15541e-05
2 *4302:B 9.96638e-05
3 *4299:X 0.000270822
4 *402:10 0.00043204
5 *4301:A1 *4505:D 6.05161e-06
6 *4301:A1 *642:90 0.000139907
7 *4302:B *4303:A2 7.6021e-05
8 *402:10 *4299:A 0
9 *402:10 *4303:A2 8.47107e-05
10 *402:10 *4508:CLK 0
11 *3996:D *4302:B 0.000117369
12 *3996:D *402:10 0.000322529
13 *4299:B *402:10 0.000116481
14 *4303:A1 *402:10 1.40849e-05
15 *211:42 *402:10 9.0143e-05
*RES
1 *4299:X *402:10 21.1393 
2 *402:10 *4302:B 16.6571 
3 *402:10 *4301:A1 15.1571 
*END

*D_NET *403 0.000843409
*CONN
*I *4301:A2 I *D sky130_fd_sc_hd__a21oi_2
*I *4300:Y O *D sky130_fd_sc_hd__nand2_2
*CAP
1 *4301:A2 0.000118185
2 *4300:Y 0.000118185
3 *4301:A2 *4300:A 2.44318e-05
4 *4301:A2 *4303:A2 5.75803e-05
5 *4301:A2 *4303:B1 9.90367e-05
6 *4301:A2 *4506:D 1.98839e-05
7 *4301:A2 *4667:A 3.17148e-05
8 *4301:A2 *642:90 0.000173076
9 *4303:A1 *4301:A2 1.76039e-05
10 *211:42 *4301:A2 0.000183713
*RES
1 *4300:Y *4301:A2 31.9214 
*END

*D_NET *404 0.000800171
*CONN
*I *4303:A2 I *D sky130_fd_sc_hd__a21oi_2
*I *4302:Y O *D sky130_fd_sc_hd__nand2_2
*CAP
1 *4303:A2 0.000286304
2 *4302:Y 0.000286304
3 *4303:A2 *642:90 0
4 *4301:A2 *4303:A2 5.75803e-05
5 *4302:B *4303:A2 7.6021e-05
6 *4303:A1 *4303:A2 9.25014e-06
7 *402:10 *4303:A2 8.47107e-05
*RES
1 *4302:Y *4303:A2 33.0286 
*END

*D_NET *405 0.00284847
*CONN
*I *4305:A1 I *D sky130_fd_sc_hd__mux2_1
*I *4304:X O *D sky130_fd_sc_hd__and2_2
*CAP
1 *4305:A1 0.000557155
2 *4304:X 0.000557155
3 *4305:A1 *3996:C 7.32955e-05
4 *4305:A1 *4299:A 0
5 *4305:A1 *4506:RESET_B 0.000149904
6 *4305:A1 *4507:D 3.25247e-05
7 *4305:A1 *4834:A 0.000329746
8 *4305:A1 *927:27 0.000257892
9 *213:12 *4305:A1 0.000890797
*RES
1 *4304:X *4305:A1 44.7071 
*END

*D_NET *406 0.00147848
*CONN
*I *4309:A2 I *D sky130_fd_sc_hd__a21oi_2
*I *4308:Y O *D sky130_fd_sc_hd__nand2_2
*CAP
1 *4309:A2 0.000562963
2 *4308:Y 0.000562963
3 *4309:A2 *471:12 0.000202005
4 *4309:A2 *471:23 2.23987e-05
5 *4309:A2 *930:8 0
6 *174:14 *4309:A2 0.000128154
*RES
1 *4308:Y *4309:A2 38.7607 
*END

*D_NET *407 0.00184757
*CONN
*I *4311:A2 I *D sky130_fd_sc_hd__a21oi_2
*I *4310:Y O *D sky130_fd_sc_hd__nand2_2
*CAP
1 *4311:A2 0.000506159
2 *4310:Y 0.000506159
3 *4311:A2 *4310:A 6.97972e-05
4 *4311:A2 *4313:B1 0
5 *4311:A2 *4577:D 0.000103253
6 *4311:A2 *4578:D 0.00017378
7 *4311:A2 *647:18 3.30352e-05
8 *4311:A2 *647:37 5.62995e-05
9 *4311:A2 *647:43 0
10 *4310:B *4311:A2 0
11 *4311:A1 *4311:A2 0.00039165
12 *176:10 *4311:A2 7.43578e-06
*RES
1 *4310:Y *4311:A2 41.3321 
*END

*D_NET *408 0.000784201
*CONN
*I *4313:A2 I *D sky130_fd_sc_hd__a21oi_2
*I *4312:Y O *D sky130_fd_sc_hd__nand2_2
*CAP
1 *4313:A2 0.000178258
2 *4312:Y 0.000178258
3 *4313:A2 *3957:A 0.000230475
4 *4313:A2 *4310:A 3.18676e-05
5 *4313:A2 *4835:A 9.90431e-05
6 *4312:B *4313:A2 4.88637e-05
7 *176:16 *4313:A2 1.74352e-05
*RES
1 *4312:Y *4313:A2 23.2607 
*END

*D_NET *409 0.00147907
*CONN
*I *4315:A2 I *D sky130_fd_sc_hd__o21a_2
*I *4314:X O *D sky130_fd_sc_hd__and2_2
*CAP
1 *4315:A2 0.000275144
2 *4314:X 0.000275144
3 *4315:A2 *4579:RESET_B 0
4 *4315:A2 *4816:A 0.000168217
5 *4315:A2 *472:50 0.000135028
6 *4315:A2 *688:79 0
7 *4315:A2 *979:8 4.27338e-05
8 *4314:B *4315:A2 5.33005e-05
9 *4315:A1 *4315:A2 0.000529507
*RES
1 *4314:X *4315:A2 35.7607 
*END

*D_NET *410 0.000112637
*CONN
*I *4317:B I *D sky130_fd_sc_hd__nor2_2
*I *4316:Y O *D sky130_fd_sc_hd__xnor2_2
*CAP
1 *4317:B 5.63185e-05
2 *4316:Y 5.63185e-05
*RES
1 *4316:Y *4317:B 19.5464 
*END

*D_NET *411 0.00116589
*CONN
*I *4319:A2 I *D sky130_fd_sc_hd__a21oi_2
*I *4318:Y O *D sky130_fd_sc_hd__o31ai_2
*CAP
1 *4319:A2 0.000383361
2 *4318:Y 0.000383361
3 *4319:A2 *4312:A 0
4 *4319:A2 *4318:B1 0
5 *4319:A2 *4579:CLK 0.000174797
6 *4319:A2 *647:10 0
7 *176:16 *4319:A2 0.000224366
*RES
1 *4318:Y *4319:A2 36.1 
*END

*D_NET *412 0.000504658
*CONN
*I *4321:A2 I *D sky130_fd_sc_hd__a21oi_2
*I *4320:Y O *D sky130_fd_sc_hd__nand2_2
*CAP
1 *4321:A2 7.53817e-05
2 *4320:Y 7.53817e-05
3 *4321:A2 *4707:A 5.33005e-05
4 *4321:A2 *647:84 9.47456e-05
5 *4321:A1 *4321:A2 5.52238e-05
6 *4322:A2 *4321:A2 0
7 *179:8 *4321:A2 0.000150625
*RES
1 *4320:Y *4321:A2 30.3857 
*END

*D_NET *413 0.00143804
*CONN
*I *4323:A2 I *D sky130_fd_sc_hd__a21oi_2
*I *4322:Y O *D sky130_fd_sc_hd__o21ai_2
*CAP
1 *4323:A2 0.00026882
2 *4322:Y 0.00026882
3 *4323:A2 *4324:A 5.26184e-05
4 *4323:A2 *4325:B1 0
5 *4323:A2 *4582:CLK 2.72449e-05
6 *4323:A2 *4582:D 0.000320016
7 *4323:A2 *981:10 0.000342495
8 *4323:A2 *981:21 2.48938e-05
9 *4323:A2 *982:25 6.87451e-05
10 *4323:A2 *983:10 6.05161e-06
11 *4322:A2 *4323:A2 5.83304e-05
*RES
1 *4322:Y *4323:A2 36.2607 
*END

*D_NET *414 0.000442651
*CONN
*I *4325:A2 I *D sky130_fd_sc_hd__a21oi_2
*I *4324:Y O *D sky130_fd_sc_hd__nand2_2
*CAP
1 *4325:A2 0.000192752
2 *4324:Y 0.000192752
3 *4323:A1 *4325:A2 0
4 *4325:A1 *4325:A2 5.71472e-05
*RES
1 *4324:Y *4325:A2 22.1536 
*END

*D_NET *415 0.000204955
*CONN
*I *4327:A2 I *D sky130_fd_sc_hd__o21a_2
*I *4326:X O *D sky130_fd_sc_hd__and2_2
*CAP
1 *4327:A2 9.94515e-05
2 *4326:X 9.94515e-05
3 *4326:B *4327:A2 6.05161e-06
*RES
1 *4326:X *4327:A2 19.9571 
*END

*D_NET *416 0.000702522
*CONN
*I *4329:B I *D sky130_fd_sc_hd__nor2_2
*I *4328:Y O *D sky130_fd_sc_hd__xnor2_2
*CAP
1 *4329:B 0.000129248
2 *4328:Y 0.000129248
3 *4329:B *4586:D 9.90431e-05
4 *4329:B *648:56 0.000344984
*RES
1 *4328:Y *4329:B 31.5107 
*END

*D_NET *417 0.000252146
*CONN
*I *4331:A2 I *D sky130_fd_sc_hd__a21oi_2
*I *4330:Y O *D sky130_fd_sc_hd__o21ai_2
*CAP
1 *4331:A2 7.71102e-05
2 *4330:Y 7.71102e-05
3 *4330:A2 *4331:A2 1.33343e-05
4 *181:49 *4331:A2 3.57366e-05
5 *184:14 *4331:A2 4.88546e-05
*RES
1 *4330:Y *4331:A2 20.3857 
*END

*D_NET *418 0.00133028
*CONN
*I *4333:A2 I *D sky130_fd_sc_hd__a21oi_2
*I *4332:Y O *D sky130_fd_sc_hd__nand2_2
*CAP
1 *4333:A2 0.000350104
2 *4332:Y 0.000350104
3 *4333:A2 *4332:A 9.80173e-05
4 *4333:A2 *648:24 0.000144621
5 *4333:A2 *648:30 0.000314139
6 *4332:B *4333:A2 1.69961e-05
7 *4333:A1 *4333:A2 5.62995e-05
*RES
1 *4332:Y *4333:A2 25.725 
*END

*D_NET *419 0.000224162
*CONN
*I *4335:B I *D sky130_fd_sc_hd__nor2_2
*I *4334:X O *D sky130_fd_sc_hd__xor2_2
*CAP
1 *4335:B 1.1121e-05
2 *4334:X 1.1121e-05
3 *4335:B *648:18 0.00010096
4 *4333:A1 *4335:B 0.00010096
*RES
1 *4334:X *4335:B 19.5464 
*END

*D_NET *420 0.00151309
*CONN
*I *4337:A2 I *D sky130_fd_sc_hd__a21oi_2
*I *4336:Y O *D sky130_fd_sc_hd__o21ai_2
*CAP
1 *4337:A2 0.000323658
2 *4336:Y 0.000323658
3 *4337:A2 *3969:A 0.000359568
4 *4337:A2 *4336:A1 0.000129868
5 *4337:A2 *4589:D 0
6 *4337:A2 *4590:D 0.000101545
7 *4337:A2 *484:36 0
8 *4337:A2 *484:42 0
9 *4337:A2 *967:10 0.000216771
10 *4334:B *4337:A2 5.80217e-05
*RES
1 *4336:Y *4337:A2 36.8589 
*END

*D_NET *421 0.00128867
*CONN
*I *4339:A2 I *D sky130_fd_sc_hd__a21oi_2
*I *4338:Y O *D sky130_fd_sc_hd__nand2_2
*CAP
1 *4339:A2 0.000465247
2 *4338:Y 0.000465247
3 *4339:A2 *4339:B1 0
4 *4339:A2 *4591:D 0.000111148
5 *4339:A2 *4591:RESET_B 0.000227736
6 *4339:A2 *648:8 1.92905e-05
7 *189:10 *4339:A2 0
8 *189:12 *4339:A2 0
*RES
1 *4338:Y *4339:A2 36.8857 
*END

*D_NET *422 0.000236962
*CONN
*I *4341:B I *D sky130_fd_sc_hd__nor2_2
*I *4340:X O *D sky130_fd_sc_hd__xor2_2
*CAP
1 *4341:B 0.000118481
2 *4340:X 0.000118481
*RES
1 *4340:X *4341:B 20.3857 
*END

*D_NET *423 0.00125793
*CONN
*I *4343:A2 I *D sky130_fd_sc_hd__o21a_2
*I *4342:X O *D sky130_fd_sc_hd__o21a_2
*CAP
1 *4343:A2 0.000158253
2 *4342:X 0.000158253
3 *4343:A2 *4339:B1 2.44318e-05
4 *4343:A2 *4342:A1 1.28809e-05
5 *4343:A2 *4591:D 9.90367e-05
6 *4343:A2 *939:46 0.000649776
7 *4339:A1 *4343:A2 8.37145e-05
8 *189:16 *4343:A2 7.15846e-05
*RES
1 *4342:X *4343:A2 24.9036 
*END

*D_NET *424 0.00162554
*CONN
*I *4345:B I *D sky130_fd_sc_hd__nor2_2
*I *4344:Y O *D sky130_fd_sc_hd__xnor2_2
*CAP
1 *4345:B 0.000305051
2 *4344:Y 0.000305051
3 *4345:B *4342:B1 2.89114e-05
4 *4345:B *4594:D 0.000104974
5 *4345:B *4595:CLK 4.13573e-05
6 *4345:B *485:51 3.79726e-05
7 *4345:B *649:14 0.000161006
8 *4345:B *649:58 6.56976e-05
9 *4343:A1 *4345:B 0.000250201
10 *4344:B *4345:B 0.000185547
11 *4346:A2 *4345:B 0
12 *189:10 *4345:B 1.99099e-05
13 *189:12 *4345:B 4.21073e-05
14 *189:38 *4345:B 7.77545e-05
*RES
1 *4344:Y *4345:B 36.7786 
*END

*D_NET *425 0.0030033
*CONN
*I *4347:A1 I *D sky130_fd_sc_hd__mux2_1
*I *4346:X O *D sky130_fd_sc_hd__o31a_2
*CAP
1 *4347:A1 0.00060547
2 *4346:X 0.00060547
3 *4347:A1 *3973:B 0.000197182
4 *4347:A1 *4346:A1 5.52238e-05
5 *4347:A1 *4346:B1 0.000437446
6 *4347:A1 *4347:A0 0.000227428
7 *4347:A1 *975:8 0.000182723
8 *3974:B *4347:A1 0.000197991
9 *4347:S *4347:A1 0.000187026
10 *191:10 *4347:A1 0.000307337
*RES
1 *4346:X *4347:A1 43.35 
*END

*D_NET *426 0.00342309
*CONN
*I *4358:B1 I *D sky130_fd_sc_hd__a22o_2
*I *4357:X O *D sky130_fd_sc_hd__or3b_2
*CAP
1 *4358:B1 0.000752049
2 *4357:X 0.000752049
3 *4358:B1 *4357:C_N 2.2816e-05
4 *4358:B1 *4629:A 0.00129608
5 *4358:B1 *746:32 0
6 *3929:C1 *4358:B1 0.000283698
7 *4358:A2 *4358:B1 0.000316402
*RES
1 *4357:X *4358:B1 44.1179 
*END

*D_NET *427 0.00129875
*CONN
*I *4360:B1 I *D sky130_fd_sc_hd__a22o_2
*I *4359:Y O *D sky130_fd_sc_hd__nand2_2
*CAP
1 *4360:B1 0.000493095
2 *4359:Y 0.000493095
3 *4360:B1 *4360:A1 3.18676e-05
4 *4360:B1 *4360:B2 1.95646e-05
5 *4360:B1 *4471:CLK 0
6 *4360:B1 *449:226 1.92789e-05
7 *4360:B1 *747:40 1.19309e-05
8 *4360:B1 *747:55 0
9 *3870:B1 *4360:B1 0
10 *3:14 *4360:B1 0.000229913
*RES
1 *4359:Y *4360:B1 37.5107 
*END

*D_NET *428 0.00167156
*CONN
*I *4364:B I *D sky130_fd_sc_hd__nand2_2
*I *4362:A I *D sky130_fd_sc_hd__inv_2
*I *4361:X O *D sky130_fd_sc_hd__mux2_1
*CAP
1 *4364:B 0.000187537
2 *4362:A 0.000175685
3 *4361:X 0.000254379
4 *428:8 0.000617601
5 *4362:A *687:26 0
6 *4362:A *742:18 0.000144933
7 *4364:B *742:18 0.000173336
8 *428:8 *4349:B2 1.96125e-05
9 *428:8 *482:8 9.84729e-05
*RES
1 *4361:X *428:8 16.8 
2 *428:8 *4362:A 17.8 
3 *428:8 *4364:B 18.175 
*END

*D_NET *429 0.00200078
*CONN
*I *4363:B1 I *D sky130_fd_sc_hd__a221o_2
*I *4362:Y O *D sky130_fd_sc_hd__inv_2
*CAP
1 *4363:B1 0.000422073
2 *4362:Y 0.000422073
3 *4363:B1 *4363:A1 1.37693e-05
4 *4363:B1 *4363:B2 3.51552e-06
5 *4363:B1 *4365:A1 1.79572e-05
6 *4363:B1 *4365:B1 0.000177596
7 *4363:B1 *4365:B2 0.000108338
8 *4363:B1 *482:10 0.000174842
9 *4363:B1 *482:58 0.000160667
10 *4363:B1 *482:69 0.000162196
11 *4363:B1 *521:66 2.18321e-05
12 *4363:B1 *742:18 0.000279153
13 *4363:A2 *4363:B1 3.32713e-05
14 *171:20 *4363:B1 3.49456e-06
*RES
1 *4362:Y *4363:B1 39.0107 
*END

*D_NET *430 0.0015437
*CONN
*I *4365:B1 I *D sky130_fd_sc_hd__a221o_2
*I *4364:Y O *D sky130_fd_sc_hd__nand2_2
*CAP
1 *4365:B1 0.000238144
2 *4364:Y 0.000238144
3 *4365:B1 *4365:A1 0.000346262
4 *4365:B1 *4365:B2 0.000380431
5 *4365:B1 *4427:CLK 5.33005e-05
6 *4365:B1 *449:13 1.24912e-05
7 *4363:A2 *4365:B1 9.15842e-06
8 *4363:B1 *4365:B1 0.000177596
9 *4426:D *4365:B1 8.8175e-05
*RES
1 *4364:Y *4365:B1 35.2964 
*END

*D_NET *431 0.00309969
*CONN
*I *4369:B I *D sky130_fd_sc_hd__nor2_2
*I *4370:B I *D sky130_fd_sc_hd__or2_2
*I *4390:B1 I *D sky130_fd_sc_hd__a21oi_2
*I *4368:X O *D sky130_fd_sc_hd__a221o_2
*CAP
1 *4369:B 0.000395673
2 *4370:B 8.96965e-05
3 *4390:B1 3.75977e-05
4 *4368:X 0.000262683
5 *431:21 0.000629392
6 *431:10 0.000444302
7 *4369:B *432:10 5.62995e-05
8 *4369:B *433:14 5.35423e-05
9 *4369:B *650:25 3.81416e-06
10 *4369:B *650:34 2.77289e-05
11 *4370:B *433:14 4.71964e-05
12 *4370:B *1023:8 5.52302e-05
13 *4390:B1 *456:12 9.90367e-05
14 *431:10 *4642:A 9.69119e-06
15 *431:10 *456:12 0.000167779
16 *431:10 *715:75 0
17 *431:10 *716:52 0
18 *431:21 *4390:A1 8.56752e-05
19 *431:21 *4642:A 9.90367e-05
20 *431:21 *456:12 4.27935e-05
21 *4389:A1_N *4369:B 0.000143804
22 *4389:A1_N *4370:B 0.000148189
23 *4389:A2_N *4369:B 8.71589e-05
24 *123:67 *431:10 4.1331e-06
25 *123:88 *431:10 0.000109239
*RES
1 *4368:X *431:10 24.8 
2 *431:10 *4390:B1 10.2464 
3 *431:10 *431:21 7.5 
4 *431:21 *4370:B 16.2821 
5 *431:21 *4369:B 21.2643 
*END

*D_NET *432 0.00330858
*CONN
*I *4380:A3 I *D sky130_fd_sc_hd__a31o_2
*I *4673:A I *D sky130_fd_sc_hd__clkdlybuf4s25_1
*I *4369:Y O *D sky130_fd_sc_hd__nor2_2
*CAP
1 *4380:A3 0.000254401
2 *4673:A 0.000330996
3 *4369:Y 0.000300825
4 *432:10 0.000886222
5 *4380:A3 *4378:A3 0
6 *4380:A3 *4380:A1 0.000310781
7 *4380:A3 *4380:A2 1.17968e-05
8 *4380:A3 *4380:B1 0.000101545
9 *4380:A3 *651:66 0
10 *4673:A *4672:A 9.71197e-05
11 *4673:A *651:36 1.55885e-05
12 *4673:A *651:60 0.00030399
13 *432:10 *4380:A1 0.000539971
14 *432:10 *650:34 9.90431e-05
15 *432:10 *651:66 0
16 *432:10 *716:65 0
17 *4369:B *432:10 5.62995e-05
*RES
1 *4369:Y *432:10 21.8536 
2 *432:10 *4673:A 20.925 
3 *432:10 *4380:A3 19.5321 
*END

*D_NET *433 0.00579073
*CONN
*I *4377:B I *D sky130_fd_sc_hd__and2_2
*I *4379:B I *D sky130_fd_sc_hd__and2_2
*I *4672:A I *D sky130_fd_sc_hd__clkdlybuf4s25_1
*I *4370:X O *D sky130_fd_sc_hd__or2_2
*CAP
1 *4377:B 0.000622118
2 *4379:B 0
3 *4672:A 2.17614e-05
4 *4370:X 0.000585106
5 *433:25 0.000738809
6 *433:14 0.000723559
7 *4377:B *4376:A2 4.70078e-05
8 *4377:B *4377:A 9.90431e-05
9 *4377:B *4378:B1 0.000578035
10 *4377:B *4379:A 0.00041107
11 *4377:B *4380:A1 6.39901e-05
12 *4377:B *4380:A2 0.000202128
13 *4377:B *4434:RESET_B 0
14 *4377:B *4601:A 0.000230482
15 *4377:B *4856:A 0.00025299
16 *4672:A *651:60 9.71197e-05
17 *433:14 *4370:A 1.58163e-05
18 *433:14 *4380:A1 0.000246886
19 *433:14 *4389:B2 0.000292693
20 *433:14 *4390:A1 0.000114759
21 *433:14 *4768:A 3.70933e-05
22 *433:14 *650:10 0
23 *433:14 *716:52 0
24 *433:14 *1024:57 8.15095e-05
25 *433:25 *4379:A 1.02504e-05
26 *433:25 *4380:A1 0.000120645
27 *433:25 *650:10 0
28 *433:25 *650:73 0
29 *4369:B *433:14 5.35423e-05
30 *4370:B *433:14 4.71964e-05
31 *4389:A1_N *433:14 0
32 *4433:D *4377:B 0
33 *4673:A *4672:A 9.71197e-05
*RES
1 *4370:X *433:14 27.8714 
2 *433:14 *4672:A 14.7464 
3 *433:14 *433:25 2.85714 
4 *433:25 *4379:B 13.8 
5 *433:25 *4377:B 31.2643 
*END

*D_NET *434 0.000478489
*CONN
*I *4372:B1 I *D sky130_fd_sc_hd__a31o_2
*I *4371:X O *D sky130_fd_sc_hd__and2_2
*CAP
1 *4372:B1 0.00017439
2 *4371:X 0.00017439
3 *4372:B1 *4371:B 0.0001098
4 *4372:B1 *4372:A1 1.99099e-05
5 *4372:B1 *490:21 0
6 *4372:B1 *490:30 0
7 *4372:B1 *650:51 0
8 *4430:D *4372:B1 0
*RES
1 *4371:X *4372:B1 31.3679 
*END

*D_NET *435 0.000727854
*CONN
*I *4374:B1 I *D sky130_fd_sc_hd__a31o_2
*I *4373:X O *D sky130_fd_sc_hd__and2_2
*CAP
1 *4374:B1 0.000222096
2 *4373:X 0.000222096
3 *4374:B1 *4372:A1 0
4 *4374:B1 *4374:A2 9.90367e-05
5 *4374:B1 *4375:B 0.000184626
*RES
1 *4373:X *4374:B1 32.9214 
*END

*D_NET *436 0.00145841
*CONN
*I *4376:B1 I *D sky130_fd_sc_hd__a31o_2
*I *4375:X O *D sky130_fd_sc_hd__and2_2
*CAP
1 *4376:B1 0.000624061
2 *4375:X 0.000624061
3 *4376:B1 *4432:CLK 0.00010946
4 *4376:B1 *4432:RESET_B 4.79842e-05
5 *4376:B1 *4433:RESET_B 3.34295e-05
6 *4432:D *4376:B1 1.94142e-05
*RES
1 *4375:X *4376:B1 36.4571 
*END

*D_NET *437 0.00119083
*CONN
*I *4378:B1 I *D sky130_fd_sc_hd__a31o_2
*I *4377:X O *D sky130_fd_sc_hd__and2_2
*CAP
1 *4378:B1 0.000306396
2 *4377:X 0.000306396
3 *4377:B *4378:B1 0.000578035
*RES
1 *4377:X *4378:B1 24.8857 
*END

*D_NET *438 0.0004111
*CONN
*I *4380:B1 I *D sky130_fd_sc_hd__a31o_2
*I *4379:X O *D sky130_fd_sc_hd__and2_2
*CAP
1 *4380:B1 0.000154777
2 *4379:X 0.000154777
3 *4380:B1 *4376:A2 0
4 *4380:A3 *4380:B1 0.000101545
5 *4433:D *4380:B1 0
*RES
1 *4379:X *4380:B1 29.8857 
*END

*D_NET *439 0.00068179
*CONN
*I *4382:B1 I *D sky130_fd_sc_hd__a31o_2
*I *4381:X O *D sky130_fd_sc_hd__and2_2
*CAP
1 *4382:B1 0.000291376
2 *4381:X 0.000291376
3 *4382:B1 *4381:A 0
4 *4382:B1 *4382:A3 0
5 *4382:B1 *4755:A 0
6 *4382:B1 *939:46 9.90367e-05
*RES
1 *4381:X *4382:B1 32.9214 
*END

*D_NET *440 0.00153519
*CONN
*I *4384:B1 I *D sky130_fd_sc_hd__a31o_2
*I *4383:X O *D sky130_fd_sc_hd__and2_2
*CAP
1 *4384:B1 0.00042353
2 *4383:X 0.00042353
3 *4384:B1 *4383:B 0
4 *4384:B1 *4384:A2 5.52302e-05
5 *4384:B1 *4435:CLK 0.000206253
6 *4384:B1 *4435:RESET_B 0.000142856
7 *4384:B1 *4436:RESET_B 0.000103358
8 *4384:B1 *1018:10 2.56694e-05
9 *4435:D *4384:B1 0.000154762
*RES
1 *4383:X *4384:B1 37.3321 
*END

*D_NET *441 0.00181321
*CONN
*I *4386:B1 I *D sky130_fd_sc_hd__a31o_2
*I *4385:X O *D sky130_fd_sc_hd__and2_2
*CAP
1 *4386:B1 0.000337986
2 *4385:X 0.000337986
3 *4386:B1 *4382:A3 9.12446e-05
4 *4386:B1 *4386:A2 1.15281e-05
5 *4386:B1 *4388:A3 4.46186e-06
6 *4386:B1 *4596:CLK 3.69047e-06
7 *4386:B1 *651:16 0.000575099
8 *4386:B1 *651:36 0.000273269
9 *4386:B1 *715:75 0.000177948
*RES
1 *4385:X *4386:B1 37.7786 
*END

*D_NET *442 0.00243195
*CONN
*I *4388:B1 I *D sky130_fd_sc_hd__a31o_2
*I *4387:X O *D sky130_fd_sc_hd__and2_2
*CAP
1 *4388:B1 0.000561834
2 *4387:X 0.000561834
3 *4388:B1 *4387:B 0.000796074
4 *4388:B1 *4388:A2 0.000142856
5 *4388:B1 *489:10 0.00010096
6 *4388:B1 *715:75 0
7 *4388:B1 *716:52 0
8 *4439:D *4388:B1 0.000268396
*RES
1 *4387:X *4388:B1 41.1536 
*END

*D_NET *443 0.00467172
*CONN
*I *4391:B1 I *D sky130_fd_sc_hd__o21ai_2
*I *4393:B I *D sky130_fd_sc_hd__and4b_2
*I *4395:B1_N I *D sky130_fd_sc_hd__a21bo_2
*I *4392:A2 I *D sky130_fd_sc_hd__o21a_2
*I *4396:A3 I *D sky130_fd_sc_hd__a31o_2
*I *4390:Y O *D sky130_fd_sc_hd__a21oi_2
*CAP
1 *4391:B1 0
2 *4393:B 4.86727e-05
3 *4395:B1_N 1.57136e-05
4 *4392:A2 0.000350158
5 *4396:A3 1.41579e-05
6 *4390:Y 0.000540832
7 *443:45 4.86727e-05
8 *443:23 0.000460817
9 *443:21 0.000328554
10 *443:6 0.000788598
11 *4392:A2 *3834:A 2.42082e-05
12 *4392:A2 *3885:B 0.000165183
13 *4392:A2 *3885:C 1.3142e-05
14 *4392:A2 *4392:A1 0.000320024
15 *4392:A2 *4392:B1 1.39841e-05
16 *4392:A2 *4399:B1 9.25014e-06
17 *4392:A2 *446:8 1.46717e-05
18 *4392:A2 *715:44 4.16114e-05
19 *4393:B *4393:C 5.52238e-05
20 *4393:B *444:8 4.16984e-05
21 *4393:B *1008:31 0.000183713
22 *4395:B1_N *4393:C 2.75386e-05
23 *4396:A3 *4396:A2 3.57366e-05
24 *443:6 *4390:A1 3.63775e-05
25 *443:6 *456:12 6.05161e-06
26 *443:21 *4396:A2 0.000230482
27 *443:21 *4396:B1 7.83366e-05
28 *443:21 *1009:10 3.34366e-05
29 *443:21 *1009:12 0.000189448
30 *443:23 *3885:B 0.000184583
31 *443:23 *4396:B1 8.68569e-05
32 *443:23 *715:44 9.69119e-06
33 *443:23 *1009:12 3.34295e-05
34 *4390:A2 *443:6 5.71472e-05
35 *124:10 *4392:A2 0.00018372
*RES
1 *4390:Y *443:6 18.4607 
2 *443:6 *4396:A3 9.72857 
3 *443:6 *443:21 10.375 
4 *443:21 *443:23 2.85714 
5 *443:23 *4392:A2 22.1214 
6 *443:23 *4395:B1_N 14.0768 
7 *443:21 *443:45 4.5 
8 *443:45 *4393:B 11.0679 
9 *443:45 *4391:B1 9.3 
*END

*D_NET *444 0.00296808
*CONN
*I *4394:A2 I *D sky130_fd_sc_hd__a21o_2
*I *4392:B1 I *D sky130_fd_sc_hd__o21a_2
*I *4391:Y O *D sky130_fd_sc_hd__o21ai_2
*CAP
1 *4394:A2 0.000236937
2 *4392:B1 0.000260029
3 *4391:Y 0.000404297
4 *444:8 0.000901263
5 *4392:B1 *3885:A 6.16936e-05
6 *4392:B1 *4392:A1 3.52828e-05
7 *4392:B1 *4442:RESET_B 0.000175505
8 *4392:B1 *4443:CLK 8.6332e-05
9 *4392:B1 *485:12 5.93614e-05
10 *4394:A2 *4394:A1 5.52238e-05
11 *4394:A2 *4441:RESET_B 0.00013966
12 *4394:A2 *4442:RESET_B 7.90803e-05
13 *4394:A2 *4785:A 0
14 *4394:A2 *485:10 0.000101566
15 *4394:A2 *485:12 0.000129237
16 *4394:A2 *1009:10 0
17 *4394:A2 *1009:12 0
18 *444:8 *4393:C 5.03772e-05
19 *444:8 *4393:D 7.17235e-05
20 *444:8 *1008:6 4.58194e-05
21 *444:8 *1008:31 1.90111e-05
22 *4392:A2 *4392:B1 1.39841e-05
23 *4393:B *444:8 4.16984e-05
*RES
1 *4391:Y *444:8 18.8536 
2 *444:8 *4392:B1 19.7643 
3 *444:8 *4394:A2 20.2286 
*END

*D_NET *445 0.00129503
*CONN
*I *4394:B1 I *D sky130_fd_sc_hd__a21o_2
*I *4393:X O *D sky130_fd_sc_hd__and4b_2
*CAP
1 *4394:B1 0.000363991
2 *4393:X 0.000363991
3 *4394:B1 *4393:D 6.05161e-06
4 *4394:B1 *454:8 0
5 *4394:B1 *485:10 0.000187935
6 *4394:B1 *485:12 0.000172679
7 *4394:B1 *705:75 0.000180496
8 *4394:B1 *1008:6 1.98839e-05
*RES
1 *4393:X *4394:B1 34.9929 
*END

*D_NET *446 0.00219255
*CONN
*I *4397:A I *D sky130_fd_sc_hd__and2_2
*I *4399:A2 I *D sky130_fd_sc_hd__a21o_2
*I *4395:X O *D sky130_fd_sc_hd__a21bo_2
*CAP
1 *4397:A 0.000340542
2 *4399:A2 0.000212791
3 *4395:X 0.000232447
4 *446:8 0.00078578
5 *4397:A *4397:B 3.30611e-05
6 *4397:A *4443:CLK 5.76121e-05
7 *4399:A2 *4399:A1 5.71472e-05
8 *4399:A2 *4399:B1 5.52238e-05
9 *4399:A2 *449:177 6.65639e-05
10 *446:8 *3885:C 0.00015234
11 *446:8 *4392:A1 9.24491e-05
12 *446:8 *4399:B1 0
13 *4392:A2 *446:8 1.46717e-05
14 *4443:D *4399:A2 8.28073e-05
15 *4443:D *446:8 9.11365e-06
*RES
1 *4395:X *446:8 19.0857 
2 *446:8 *4399:A2 17.9786 
3 *446:8 *4397:A 18.3536 
*END

*D_NET *447 0.00288961
*CONN
*I *4397:B I *D sky130_fd_sc_hd__and2_2
*I *4396:X O *D sky130_fd_sc_hd__a31o_2
*CAP
1 *4397:B 0.00120325
2 *4396:X 0.00120325
3 *4397:B *3886:A 0.000138437
4 *4397:B *4396:B1 0
5 *4397:B *4399:A1 3.92854e-05
6 *4397:B *4399:B1 0
7 *4397:B *4443:CLK 0.000102207
8 *4397:B *1008:46 0
9 *4397:B *1011:10 5.26184e-05
10 *4391:A1 *4397:B 6.17227e-05
11 *4397:A *4397:B 3.30611e-05
12 *83:10 *4397:B 5.5782e-05
13 *124:10 *4397:B 0
*RES
1 *4396:X *4397:B 46.4214 
*END

*D_NET *448 0.00193652
*CONN
*I *4399:B1 I *D sky130_fd_sc_hd__a21o_2
*I *4398:X O *D sky130_fd_sc_hd__and4bb_2
*CAP
1 *4399:B1 0.000715131
2 *4398:X 0.000715131
3 *4399:B1 *4398:A_N 5.33433e-05
4 *4399:B1 *4399:A1 0
5 *4399:B1 *4443:RESET_B 0
6 *4399:B1 *4749:A 2.59355e-05
7 *4399:B1 *449:177 3.18676e-05
8 *4399:B1 *715:31 0.000187783
9 *4392:A2 *4399:B1 9.25014e-06
10 *4397:B *4399:B1 0
11 *4399:A2 *4399:B1 5.52238e-05
12 *4443:D *4399:B1 0
13 *124:10 *4399:B1 0.000142856
14 *446:8 *4399:B1 0
*RES
1 *4398:X *4399:B1 40.4571 
*END

*D_NET *449 0.0379248
*CONN
*I *4605:A I *D sky130_fd_sc_hd__clkbuf_8
*I *4604:A I *D sky130_fd_sc_hd__clkbuf_8
*I *4618:A I *D sky130_fd_sc_hd__clkbuf_8
*I *4617:A I *D sky130_fd_sc_hd__clkbuf_8
*I *4610:A I *D sky130_fd_sc_hd__clkbuf_8
*I *4603:A I *D sky130_fd_sc_hd__clkbuf_8
*I *4611:A I *D sky130_fd_sc_hd__clkbuf_8
*I *4612:A I *D sky130_fd_sc_hd__clkbuf_8
*I *4609:A I *D sky130_fd_sc_hd__clkbuf_8
*I *4608:A I *D sky130_fd_sc_hd__clkbuf_8
*I *4607:A I *D sky130_fd_sc_hd__clkbuf_8
*I *4606:A I *D sky130_fd_sc_hd__clkbuf_8
*I *4616:A I *D sky130_fd_sc_hd__clkbuf_8
*I *4614:A I *D sky130_fd_sc_hd__clkbuf_8
*I *4613:A I *D sky130_fd_sc_hd__clkbuf_8
*I *4615:A I *D sky130_fd_sc_hd__clkbuf_8
*I *4602:X O *D sky130_fd_sc_hd__clkbuf_16
*CAP
1 *4605:A 0
2 *4604:A 0
3 *4618:A 0
4 *4617:A 5.38013e-05
5 *4610:A 0
6 *4603:A 3.72884e-05
7 *4611:A 0
8 *4612:A 0
9 *4609:A 0
10 *4608:A 9.28299e-05
11 *4607:A 0.000136015
12 *4606:A 3.7707e-05
13 *4616:A 0
14 *4614:A 0
15 *4613:A 0.00010194
16 *4615:A 0
17 *4602:X 6.94604e-05
18 *449:362 0.000115107
19 *449:353 0.000191327
20 *449:346 0.000202363
21 *449:340 0.00100126
22 *449:335 0.00100195
23 *449:326 0.000215573
24 *449:322 0.00052094
25 *449:300 0.000247119
26 *449:296 0.000951969
27 *449:284 0.00011038
28 *449:279 0.00011038
29 *449:270 0.000115133
30 *449:266 0.00136524
31 *449:246 0.000426457
32 *449:241 0.000489456
33 *449:232 6.29996e-05
34 *449:228 0.00012648
35 *449:226 0.00309937
36 *449:222 0.00285655
37 *449:215 0.000914063
38 *449:192 0.000374918
39 *449:183 0.000282088
40 *449:181 8.5901e-05
41 *449:177 0.00108502
42 *449:147 0.000252845
43 *449:145 0.00123856
44 *449:138 0.000122613
45 *449:129 0.000127606
46 *449:125 0.000848699
47 *449:113 7.65977e-05
48 *449:94 0.000603459
49 *449:73 0.000605218
50 *449:71 0.000189343
51 *449:67 0.000836847
52 *449:57 0.00112418
53 *449:52 0.000450285
54 *449:43 0.000271787
55 *449:39 0.0017358
56 *449:13 0.0037474
57 *449:6 0.00137068
58 *4613:A *4843:A 5.82558e-05
59 *4617:A *475:19 5.03772e-05
60 *449:13 *3867:B 9.95314e-05
61 *449:13 *4365:A1 0.000191033
62 *449:13 *4407:RESET_B 0.000148851
63 *449:13 *4410:CLK 0
64 *449:13 *4712:A 0
65 *449:13 *4751:A 0
66 *449:13 *482:10 0
67 *449:13 *694:10 3.56976e-05
68 *449:39 *4058:A1 2.31886e-05
69 *449:39 *4622:A 2.85321e-05
70 *449:39 *4623:A 0.000156199
71 *449:39 *470:8 0.000128363
72 *449:39 *470:64 3.75452e-05
73 *449:57 *4063:B1 2.38501e-05
74 *449:57 *4738:A 5.23822e-05
75 *449:67 *4063:B1 9.21499e-05
76 *449:67 *4457:CLK 5.41882e-05
77 *449:67 *666:64 0.000136865
78 *449:67 *666:81 9.6272e-05
79 *449:71 *4457:CLK 9.68894e-05
80 *449:73 *4457:CLK 7.25873e-06
81 *449:94 *4463:RESET_B 1.22852e-05
82 *449:94 *4735:A 1.00689e-05
83 *449:94 *4843:A 5.19535e-05
84 *449:94 *461:20 3.11088e-05
85 *449:94 *510:8 3.17866e-05
86 *449:125 *4721:A 0.000114753
87 *449:129 *4721:A 4.45114e-05
88 *449:177 *4399:A1 5.49655e-05
89 *449:177 *709:6 3.18676e-05
90 *449:177 *709:21 9.47613e-05
91 *449:177 *712:10 6.26559e-05
92 *449:177 *1011:10 2.27416e-05
93 *449:181 *486:60 5.03772e-05
94 *449:192 *4447:CLK 8.68569e-05
95 *449:222 *3923:A2 0
96 *449:222 *3925:A2 0
97 *449:222 *3945:A1 0.00012169
98 *449:222 *4414:CLK 0
99 *449:222 *4712:A 5.0725e-05
100 *449:222 *475:65 0
101 *449:222 *519:14 0.000240533
102 *449:222 *694:10 0
103 *449:222 *694:12 0
104 *449:222 *694:14 0
105 *449:222 *741:31 5.74562e-05
106 *449:226 *3849:B1 2.89114e-05
107 *449:226 *3851:A1 0.000183491
108 *449:226 *3851:A2 2.59355e-05
109 *449:226 *4359:A 2.47724e-05
110 *449:226 *4771:A 7.48091e-05
111 *449:226 *4799:A 3.5801e-05
112 *449:226 *519:14 7.32173e-05
113 *449:226 *519:20 0.000210756
114 *449:226 *519:26 2.89114e-05
115 *449:226 *608:8 5.30209e-05
116 *449:226 *681:63 4.70078e-05
117 *449:228 *4528:RESET_B 3.17067e-05
118 *449:228 *459:12 0
119 *449:228 *681:63 2.66026e-05
120 *449:228 *682:14 3.24389e-05
121 *449:241 *4529:CLK 7.77652e-05
122 *449:246 *4528:RESET_B 0
123 *449:246 *682:14 0
124 *449:266 *4012:A 0.000219431
125 *449:266 *494:6 2.89114e-05
126 *449:266 *494:12 5.03772e-05
127 *449:266 *681:53 0
128 *449:266 *681:63 8.27403e-05
129 *449:266 *682:14 3.69865e-05
130 *449:284 *491:18 0
131 *449:296 *4791:A 0.000143566
132 *449:300 *4206:A1 0.000198729
133 *449:300 *4676:A 9.11365e-06
134 *449:300 *4791:A 0
135 *449:300 *654:8 0.000196432
136 *449:300 *696:16 0
137 *449:322 *4676:A 7.64083e-05
138 *449:322 *4791:A 0.000117621
139 *449:322 *465:12 7.86973e-05
140 *449:335 *4205:C1 0.000110553
141 *449:340 *4141:B1 3.67656e-05
142 *449:340 *4205:C1 3.30326e-05
143 *449:340 *4570:D 0.000101169
144 *449:346 *4141:B1 1.73838e-05
145 *449:346 *4144:B1 1.00073e-05
146 *449:353 *4144:B1 9.57138e-05
147 *449:362 *4144:B1 4.62708e-05
148 *449:362 *451:8 6.65302e-05
149 *449:362 *790:12 6.42242e-05
150 *449:362 *791:14 7.79781e-06
151 *3851:B1 *449:226 4.58194e-05
152 *3887:B1 *449:192 0
153 *3896:B *449:113 9.24491e-05
154 *3904:B *449:113 0
155 *3925:B1 *449:13 0
156 *3925:B1 *449:222 0.000103266
157 *3938:A2 *449:13 0.000283449
158 *3938:B1 *449:13 0
159 *3949:A2 *449:125 0.000144416
160 *3949:B1 *449:39 2.85234e-05
161 *3949:B1 *449:125 9.14454e-05
162 *4047:B *449:67 9.35419e-05
163 *4055:B *449:39 4.75956e-06
164 *4359:B *449:226 8.50042e-05
165 *4360:B1 *449:226 1.92789e-05
166 *4363:A2 *449:13 6.96346e-05
167 *4365:A2 *449:13 0.000268917
168 *4365:B1 *449:13 1.24912e-05
169 *4399:A2 *449:177 6.65639e-05
170 *4399:B1 *449:177 3.18676e-05
171 *4401:D *449:222 0.000119718
172 *4401:D *449:226 3.97657e-05
173 *4401:D *449:296 3.1521e-05
174 *4403:D *449:13 6.53781e-05
175 *4411:D *449:39 3.4689e-05
176 *4414:D *449:222 0
177 *4422:D *449:266 0.000102207
178 *4443:D *449:177 0.000105163
179 *4447:D *449:192 7.5362e-05
180 *4665:A *449:226 6.05161e-06
181 *4665:A *449:228 3.17163e-05
182 *4665:A *449:266 0.000238419
183 *4681:A *449:222 9.59532e-06
184 *3:14 *449:246 0
185 *254:8 *449:362 0
186 *259:38 *449:113 6.51946e-05
187 *261:69 *449:39 3.47641e-06
*RES
1 *4602:X *449:6 13.8 
2 *449:6 *449:13 33.7679 
3 *449:13 *449:39 33.0386 
4 *449:39 *449:43 1.68304 
5 *449:43 *4615:A 9.3 
6 *449:43 *449:52 2.5 
7 *449:52 *449:57 4.53571 
8 *449:57 *449:67 22.567 
9 *449:67 *449:71 1.73661 
10 *449:71 *449:73 1.60714 
11 *449:73 *449:94 17.9955 
12 *449:94 *4613:A 10.983 
13 *449:71 *4614:A 9.3 
14 *449:57 *449:113 6.75 
15 *449:113 *4616:A 13.8 
16 *449:13 *449:125 13.3214 
17 *449:125 *449:129 1.71429 
18 *449:129 *4606:A 10.0321 
19 *449:129 *449:138 4.5 
20 *449:138 *449:145 6.44643 
21 *449:145 *449:147 1.91964 
22 *449:147 *4607:A 11.6482 
23 *449:145 *449:177 28.7232 
24 *449:177 *449:181 1.5625 
25 *449:181 *449:183 4.5 
26 *449:183 *449:192 10.3705 
27 *449:192 *4608:A 10.7152 
28 *449:181 *4609:A 9.3 
29 *4602:X *449:215 14.7464 
30 *449:215 *449:222 23.75 
31 *449:222 *449:226 32.9643 
32 *449:226 *449:228 2.85714 
33 *449:228 *449:232 4.5 
34 *449:232 *4612:A 9.3 
35 *449:232 *449:241 5.85714 
36 *449:241 *449:246 7.71429 
37 *449:246 *4611:A 13.8 
38 *449:226 *449:266 28.1786 
39 *449:266 *449:270 1.30357 
40 *449:270 *4603:A 9.83571 
41 *449:270 *449:279 4.5 
42 *449:279 *449:284 1.94643 
43 *449:284 *4610:A 13.8 
44 *449:222 *449:296 5.46429 
45 *449:296 *449:300 10.3929 
46 *449:300 *4617:A 14.7464 
47 *449:296 *449:322 8.41071 
48 *449:322 *449:326 1.46429 
49 *449:326 *4618:A 9.3 
50 *449:326 *449:335 2.59821 
51 *449:335 *449:340 13.3929 
52 *449:340 *449:346 2.16964 
53 *449:346 *4604:A 9.3 
54 *449:346 *449:353 1.72768 
55 *449:353 *449:362 7.43304 
56 *449:362 *4605:A 13.8 
*END

*D_NET *450 0.00406387
*CONN
*I *4619:A I *D sky130_fd_sc_hd__clkbuf_16
*I *4630:A I *D sky130_fd_sc_hd__clkbuf_16
*I *4603:X O *D sky130_fd_sc_hd__clkbuf_8
*CAP
1 *4619:A 2.97294e-05
2 *4630:A 0.000323228
3 *4603:X 0.000633013
4 *450:10 0.000985971
5 *4619:A *4248:A1 9.60875e-05
6 *4619:A *677:33 4.87854e-05
7 *4630:A *4007:A 0.000175512
8 *4630:A *4235:B1 5.17614e-05
9 *4630:A *4240:A1 0
10 *4630:A *4240:B1 0.000479727
11 *4630:A *4245:B1 2.31791e-05
12 *450:10 *4007:A 0.000187019
13 *450:10 *4245:A1 0.000206073
14 *450:10 *4245:B1 0.000218734
15 *450:10 *4246:A2 0
16 *450:10 *4524:CLK 0
17 *450:10 *4524:D 0
18 *450:10 *491:18 0
19 *450:10 *876:16 0
20 *4242:A *450:10 0.000538509
21 *220:38 *4630:A 6.65398e-05
*RES
1 *4603:X *450:10 29.1393 
2 *450:10 *4630:A 21.675 
3 *450:10 *4619:A 14.7464 
*END

*D_NET *451 0.00423874
*CONN
*I *4632:A I *D sky130_fd_sc_hd__clkbuf_16
*I *4631:A I *D sky130_fd_sc_hd__clkbuf_16
*I *4604:X O *D sky130_fd_sc_hd__clkbuf_8
*CAP
1 *4632:A 1.99379e-05
2 *4631:A 0.000313715
3 *4604:X 0.000647736
4 *451:8 0.000981389
5 *4631:A *4150:A1 0.000405733
6 *4631:A *4573:CLK 0
7 *4631:A *478:8 0.0002214
8 *4631:A *478:10 0
9 *4631:A *478:54 0
10 *4631:A *697:12 0.000137699
11 *4631:A *697:18 7.83366e-05
12 *4632:A *658:36 9.90367e-05
13 *451:8 *4147:B1 0.000149911
14 *451:8 *4572:RESET_B 0.000151949
15 *451:8 *4573:CLK 0
16 *451:8 *531:32 0
17 *451:8 *531:46 0.000315887
18 *451:8 *660:14 0
19 *451:8 *697:10 5.06044e-05
20 *451:8 *697:12 6.09572e-05
21 *451:8 *791:14 0.000484585
22 *254:8 *451:8 0
23 *254:14 *451:8 0
24 *256:25 *4632:A 5.33334e-05
25 *449:362 *451:8 6.65302e-05
*RES
1 *4604:X *451:8 30.0143 
2 *451:8 *4631:A 22.9071 
3 *451:8 *4632:A 14.7464 
*END

*D_NET *452 0.005205
*CONN
*I *4633:A I *D sky130_fd_sc_hd__clkbuf_16
*I *4634:A I *D sky130_fd_sc_hd__clkbuf_16
*I *4605:X O *D sky130_fd_sc_hd__clkbuf_8
*CAP
1 *4633:A 0.000518845
2 *4634:A 2.94684e-05
3 *4605:X 0.000915097
4 *452:14 0.00146341
5 *4633:A *4477:CLK 2.14658e-05
6 *4633:A *4566:RESET_B 5.33005e-05
7 *4633:A *4568:D 0.000335929
8 *4633:A *4718:A 0.000480556
9 *4633:A *481:53 0.000203607
10 *452:14 *4124:B1 3.57844e-05
11 *452:14 *4563:D 7.6644e-05
12 *452:14 *4564:CLK 1.92905e-05
13 *452:14 *481:20 0.00014759
14 *452:14 *481:53 0.000120655
15 *4038:B *4634:A 9.90431e-05
16 *4134:A *4633:A 0.000307344
17 *251:10 *452:14 0
18 *251:19 *452:14 0
19 *251:32 *4633:A 0
20 *253:12 *4633:A 0.00035768
21 *253:12 *4634:A 1.92905e-05
*RES
1 *4605:X *452:14 27.9607 
2 *452:14 *4634:A 14.7464 
3 *452:14 *4633:A 28.3893 
*END

*D_NET *453 0.00341627
*CONN
*I *4636:A I *D sky130_fd_sc_hd__clkbuf_16
*I *4635:A I *D sky130_fd_sc_hd__clkbuf_16
*I *4606:X O *D sky130_fd_sc_hd__clkbuf_8
*CAP
1 *4636:A 0.000510118
2 *4635:A 0.00015935
3 *4606:X 0.000518345
4 *453:8 0.00118781
5 *4635:A *3952:B1 0.000136727
6 *4635:A *521:22 0.00012325
7 *4636:A *3853:B 0.000119662
8 *4636:A *3950:A1 0.000106436
9 *4636:A *528:47 2.70242e-05
10 *453:8 *4415:RESET_B 0.000131261
11 *453:8 *520:12 7.74135e-05
12 *453:8 *521:10 5.49088e-05
13 *453:8 *521:22 2.28343e-05
14 *3860:A2 *4635:A 0
15 *3860:A2 *4636:A 0.000187828
16 *100:14 *4636:A 5.33005e-05
*RES
1 *4606:X *453:8 23.6393 
2 *453:8 *4635:A 16.8 
3 *453:8 *4636:A 22.9607 
*END

*D_NET *454 0.0023824
*CONN
*I *4638:A I *D sky130_fd_sc_hd__clkbuf_16
*I *4637:A I *D sky130_fd_sc_hd__clkbuf_16
*I *4607:X O *D sky130_fd_sc_hd__clkbuf_8
*CAP
1 *4638:A 0.000163843
2 *4637:A 9.12463e-05
3 *4607:X 0.000714303
4 *454:8 0.000969392
5 *4638:A *4596:RESET_B 3.57405e-05
6 *4638:A *485:10 0
7 *454:8 *4443:CLK 0
8 *454:8 *485:12 0
9 *4394:B1 *454:8 0
10 *4440:D *454:8 0.000216546
11 *4441:D *4637:A 1.58163e-05
12 *4441:D *454:8 0.000175512
13 *4442:D *454:8 0
*RES
1 *4607:X *454:8 28.1929 
2 *454:8 *4637:A 15.1571 
3 *454:8 *4638:A 16.6929 
*END

*D_NET *455 0.00451429
*CONN
*I *4640:A I *D sky130_fd_sc_hd__clkbuf_16
*I *4639:A I *D sky130_fd_sc_hd__clkbuf_16
*I *4608:X O *D sky130_fd_sc_hd__clkbuf_8
*CAP
1 *4640:A 0.000736634
2 *4639:A 0.000292924
3 *4608:X 0.000153129
4 *455:6 0.00118269
5 *4639:A *4779:A 0.000245086
6 *4639:A *716:22 9.11365e-06
7 *4639:A *1024:44 0
8 *4639:A *1025:34 0.000301771
9 *4640:A *3888:A1 0.000335083
10 *4640:A *3888:B2 1.03904e-05
11 *4640:A *4779:A 5.33005e-05
12 *4640:A *1022:31 0.000195422
13 *4640:A *1024:29 0.000276368
14 *4389:A1_N *4639:A 0.000195555
15 *113:21 *4640:A 0
16 *118:14 *4640:A 0
17 *126:10 *4639:A 0.000526822
*RES
1 *4608:X *455:6 11.4786 
2 *455:6 *4639:A 27.5321 
3 *455:6 *4640:A 34.6571 
*END

*D_NET *456 0.00266885
*CONN
*I *4642:A I *D sky130_fd_sc_hd__clkbuf_16
*I *4643:A I *D sky130_fd_sc_hd__clkbuf_16
*I *4609:X O *D sky130_fd_sc_hd__clkbuf_8
*CAP
1 *4642:A 0.000134914
2 *4643:A 0
3 *4609:X 0.000333533
4 *456:12 0.000468447
5 *4642:A *4390:A1 8.76257e-05
6 *4642:A *715:75 0
7 *4642:A *716:52 0.000250201
8 *456:12 *3887:B2 0.000220455
9 *456:12 *4368:A1 5.16852e-05
10 *456:12 *4390:A1 0.000183726
11 *456:12 *715:10 0.000101545
12 *456:12 *715:75 0.000412333
13 *4368:A2 *456:12 0
14 *4390:B1 *456:12 9.90367e-05
15 *123:67 *456:12 0
16 *431:10 *4642:A 9.69119e-06
17 *431:10 *456:12 0.000167779
18 *431:21 *4642:A 9.90367e-05
19 *431:21 *456:12 4.27935e-05
20 *443:6 *456:12 6.05161e-06
*RES
1 *4609:X *456:12 29.3 
2 *456:12 *4643:A 9.3 
3 *456:12 *4642:A 22.4071 
*END

*D_NET *457 0.00356732
*CONN
*I *4644:A I *D sky130_fd_sc_hd__clkbuf_16
*I *4641:A I *D sky130_fd_sc_hd__clkbuf_16
*I *4610:X O *D sky130_fd_sc_hd__clkbuf_8
*CAP
1 *4644:A 0.000455776
2 *4641:A 0
3 *4610:X 0.000308449
4 *457:10 0.000764224
5 *4644:A *3981:A 0.000142856
6 *4644:A *3982:A 8.56716e-05
7 *4644:A *4418:CLK 3.76337e-05
8 *4644:A *4418:RESET_B 0.000483749
9 *4644:A *4847:A 0.000373913
10 *4644:A *491:6 3.48705e-05
11 *4644:A *491:14 0.000236142
12 *4644:A *491:16 0
13 *457:10 *3982:A 0.000123912
14 *457:10 *3982:B 1.37292e-05
15 *457:10 *4243:B1 5.41609e-05
16 *457:10 *4245:A1 4.0342e-06
17 *457:10 *488:67 0
18 *457:10 *491:16 0
19 *457:10 *491:18 0
20 *457:10 *586:6 1.97756e-05
21 *4242:A *457:10 0.000153054
22 *4243:A2 *457:10 5.33786e-05
23 *4418:D *4644:A 0.000122748
24 *198:8 *4644:A 9.92409e-05
*RES
1 *4610:X *457:10 20.9607 
2 *457:10 *4641:A 13.8 
3 *457:10 *4644:A 29.7464 
*END

*D_NET *458 0.00257422
*CONN
*I *4646:A I *D sky130_fd_sc_hd__clkbuf_16
*I *4645:A I *D sky130_fd_sc_hd__clkbuf_16
*I *4611:X O *D sky130_fd_sc_hd__clkbuf_8
*CAP
1 *4646:A 7.42734e-05
2 *4645:A 0.000267677
3 *4611:X 0.000708957
4 *458:12 0.00105091
5 *4645:A *4168:A1 0
6 *4645:A *4535:RESET_B 3.17148e-05
7 *4645:A *4683:A 0
8 *4645:A *879:10 5.03694e-05
9 *4646:A *4535:RESET_B 4.08637e-05
10 *4646:A *880:10 6.05161e-06
11 *458:12 *4009:C 0
12 *458:12 *4535:RESET_B 0.000177052
13 *458:12 *4683:A 5.35516e-05
14 *458:12 *679:12 0
15 *458:12 *682:14 8.39e-05
16 *458:12 *879:10 0
17 *458:12 *880:10 2.89016e-05
18 *4168:A2 *4645:A 0
19 *225:20 *458:12 0
*RES
1 *4611:X *458:12 31.3536 
2 *458:12 *4645:A 23.5857 
3 *458:12 *4646:A 10.675 
*END

*D_NET *459 0.00292043
*CONN
*I *4648:A I *D sky130_fd_sc_hd__clkbuf_16
*I *4647:A I *D sky130_fd_sc_hd__clkbuf_16
*I *4612:X O *D sky130_fd_sc_hd__clkbuf_8
*CAP
1 *4648:A 0.000640087
2 *4647:A 0.000192555
3 *4612:X 0.000305804
4 *459:12 0.00113844
5 *4648:A *3862:B 4.88515e-05
6 *4648:A *4652:A 5.33334e-05
7 *4648:A *495:6 8.70693e-05
8 *4648:A *669:50 5.73015e-05
9 *459:12 *681:63 0
10 *3:14 *459:12 0.000271978
11 *106:10 *459:12 0.00012501
12 *449:228 *459:12 0
*RES
1 *4612:X *459:12 24.8268 
2 *459:12 *4647:A 12.1125 
3 *459:12 *4648:A 17.4518 
*END

*D_NET *460 0.001835
*CONN
*I *4650:A I *D sky130_fd_sc_hd__clkbuf_16
*I *4649:A I *D sky130_fd_sc_hd__clkbuf_16
*I *4613:X O *D sky130_fd_sc_hd__clkbuf_8
*CAP
1 *4650:A 0.000100442
2 *4649:A 0.000627672
3 *4613:X 0.000728114
4 *4649:A *3899:A 0.000154562
5 *4649:A *4067:A 0.000110076
6 *4649:A *510:8 1.25366e-05
7 *4650:A *4843:A 2.85234e-05
8 *3900:C *4649:A 2.89114e-05
9 *142:14 *4650:A 3.69047e-06
10 *142:20 *4650:A 4.04683e-05
*RES
1 *4613:X *4649:A 38.6714 
2 *4613:X *4650:A 20.3679 
*END

*D_NET *461 0.00344682
*CONN
*I *4621:A I *D sky130_fd_sc_hd__clkbuf_16
*I *4620:A I *D sky130_fd_sc_hd__clkbuf_16
*I *4614:X O *D sky130_fd_sc_hd__clkbuf_8
*CAP
1 *4621:A 0.000138459
2 *4620:A 0.000112163
3 *4614:X 0.000739768
4 *461:20 0.00099039
5 *4620:A *692:18 7.84241e-05
6 *4621:A *3996:B 0.00022217
7 *4621:A *4505:RESET_B 0.00011891
8 *4621:A *4703:A 0.000243627
9 *4621:A *642:28 7.25296e-05
10 *461:20 *3908:B 8.36517e-05
11 *461:20 *4049:A 6.09572e-05
12 *461:20 *4735:A 0.000298692
13 *461:20 *4748:A 0
14 *461:20 *4754:A 0.000154081
15 *461:20 *684:8 1.40849e-05
16 *461:20 *692:18 8.78006e-05
17 *4048:B *461:20 0
18 *449:94 *461:20 3.11088e-05
*RES
1 *4614:X *461:20 35.1214 
2 *461:20 *4620:A 11.4786 
3 *461:20 *4621:A 22.9786 
*END

*D_NET *462 0.00319736
*CONN
*I *4623:A I *D sky130_fd_sc_hd__clkbuf_16
*I *4622:A I *D sky130_fd_sc_hd__clkbuf_16
*I *4615:X O *D sky130_fd_sc_hd__clkbuf_8
*CAP
1 *4623:A 0.00062947
2 *4622:A 0.000532562
3 *4615:X 0
4 *462:4 0.00116203
5 *4622:A *3893:A1 0.000101813
6 *4622:A *3893:B1 0.000216631
7 *4622:A *4061:A 2.89114e-05
8 *4622:A *4416:RESET_B 4.03996e-05
9 *4623:A *4061:A 5.62995e-05
10 *4623:A *4462:D 3.06035e-05
11 *4623:A *4759:A 0.000139338
12 *4055:B *4622:A 0
13 *4056:B *4623:A 2.12733e-05
14 *4460:D *4622:A 0
15 *4745:A *4623:A 5.33005e-05
16 *449:39 *4622:A 2.85321e-05
17 *449:39 *4623:A 0.000156199
*RES
1 *4615:X *462:4 9.3 
2 *462:4 *4622:A 28.9786 
3 *462:4 *4623:A 20.9429 
*END

*D_NET *463 0.00255377
*CONN
*I *4624:A I *D sky130_fd_sc_hd__clkbuf_16
*I *4625:A I *D sky130_fd_sc_hd__clkbuf_16
*I *4616:X O *D sky130_fd_sc_hd__clkbuf_8
*CAP
1 *4624:A 0.00011491
2 *4625:A 0.000110591
3 *4616:X 0.000656044
4 *463:8 0.000881545
5 *4624:A *4323:B1 0
6 *4624:A *4707:A 0
7 *4624:A *690:29 0
8 *4624:A *962:8 0
9 *463:8 *3902:A 0.000176234
10 *463:8 *3902:B 0.000270236
11 *463:8 *4323:B1 0
12 *463:8 *4466:RESET_B 0
13 *463:8 *4583:CLK 0
14 *463:8 *4841:A 0.000241665
15 *463:8 *690:29 0
16 *463:8 *691:19 0
17 *3904:B *463:8 0.000102545
18 *3962:B *463:8 0
*RES
1 *4616:X *463:8 28.1929 
2 *463:8 *4625:A 15.5679 
3 *463:8 *4624:A 15.7464 
*END

*D_NET *464 0.00322959
*CONN
*I *4627:A I *D sky130_fd_sc_hd__clkbuf_16
*I *4626:A I *D sky130_fd_sc_hd__clkbuf_16
*I *4617:X O *D sky130_fd_sc_hd__clkbuf_8
*CAP
1 *4627:A 0.000578332
2 *4626:A 1.98008e-05
3 *4617:X 0.00063988
4 *464:10 0.00123801
5 *4626:A *564:20 0
6 *4627:A *4199:B1 0.000167626
7 *4627:A *4549:D 8.15939e-05
8 *4627:A *474:6 3.00198e-05
9 *464:10 *3844:A 6.44241e-05
10 *464:10 *4550:CLK 5.45307e-05
11 *464:10 *4550:D 8.66228e-05
12 *464:10 *4551:D 0
13 *464:10 *4660:A 0
14 *464:10 *564:14 7.17932e-05
15 *464:10 *564:20 0
16 *4199:A2 *4627:A 9.85424e-06
17 *4201:A2 *4627:A 4.1331e-06
18 *4202:B *4627:A 0
19 *4202:B *464:10 0
20 *4203:A2 *464:10 0.000182971
*RES
1 *4617:X *464:10 26.4696 
2 *464:10 *4626:A 14.3804 
3 *464:10 *4627:A 24.4161 
*END

*D_NET *465 0.00600215
*CONN
*I *4629:A I *D sky130_fd_sc_hd__clkbuf_16
*I *4628:A I *D sky130_fd_sc_hd__clkbuf_16
*I *4618:X O *D sky130_fd_sc_hd__clkbuf_8
*CAP
1 *4629:A 0.0010304
2 *4628:A 0.000138051
3 *4618:X 0.000220258
4 *465:12 0.0013887
5 *4629:A *4204:A1 2.80632e-05
6 *4629:A *4204:B1 9.60875e-05
7 *4629:A *4357:C_N 0.000225989
8 *4629:A *4358:B2 5.07202e-05
9 *4629:A *4570:CLK 0.000719071
10 *4629:A *476:12 4.05411e-05
11 *4629:A *476:34 0.000473627
12 *4629:A *476:36 6.73939e-05
13 *4629:A *695:26 0
14 *4204:A2 *4629:A 0.000139251
15 *4358:A2 *4629:A 9.22222e-06
16 *4358:B1 *4629:A 0.00129608
17 *449:322 *465:12 7.86973e-05
*RES
1 *4618:X *465:12 22.5143 
2 *465:12 *4628:A 11.0679 
3 *465:12 *4629:A 46.675 
*END

*D_NET *466 0.00703572
*CONN
*I *4490:CLK I *D sky130_fd_sc_hd__dfrtp_2
*I *4489:CLK I *D sky130_fd_sc_hd__dfrtp_2
*I *4488:CLK I *D sky130_fd_sc_hd__dfrtp_2
*I *4487:CLK I *D sky130_fd_sc_hd__dfrtp_2
*I *4518:CLK I *D sky130_fd_sc_hd__dfrtp_2
*I *4517:CLK I *D sky130_fd_sc_hd__dfrtp_2
*I *4516:CLK I *D sky130_fd_sc_hd__dfrtp_2
*I *4619:X O *D sky130_fd_sc_hd__clkbuf_16
*CAP
1 *4490:CLK 0.000319966
2 *4489:CLK 0
3 *4488:CLK 9.01764e-05
4 *4487:CLK 3.7311e-05
5 *4518:CLK 0.000161805
6 *4517:CLK 3.7311e-05
7 *4516:CLK 0.000574129
8 *4619:X 0.000362556
9 *466:69 0.00046255
10 *466:58 0.000388335
11 *466:14 0.000761748
12 *466:12 0.000739534
13 *466:10 0.000765137
14 *466:8 0.000818536
15 *4488:CLK *4488:D 9.74665e-05
16 *466:8 *4265:A 0.000116792
17 *466:8 *4265:B 7.19623e-05
18 *466:8 *4694:A 0.000152931
19 *466:8 *619:56 8.93791e-05
20 *466:8 *674:10 0.00012306
21 *466:12 *3998:A 0
22 *466:58 *4266:B1 1.00399e-05
23 *466:69 *4266:B1 3.58558e-05
24 *4266:A1 *4488:CLK 4.4873e-05
25 *4266:A2 *466:8 0.000123068
26 *4266:A2 *466:58 6.54584e-05
27 *4268:A1 *466:8 0.000490116
28 *4268:A2 *466:8 7.57394e-05
29 *4270:A2 *466:8 1.98839e-05
*RES
1 *4619:X *466:8 25.425 
2 *466:8 *466:10 5.28571 
3 *466:10 *466:12 7.41071 
4 *466:12 *466:14 2.55357 
5 *466:14 *4516:CLK 23.8714 
6 *466:14 *4517:CLK 14.3357 
7 *466:12 *4518:CLK 16.3893 
8 *466:10 *4487:CLK 14.3357 
9 *466:8 *466:58 3.21429 
10 *466:58 *4488:CLK 15.5679 
11 *466:58 *466:69 2.25 
12 *466:69 *4489:CLK 13.8 
13 *466:69 *4490:CLK 19.1929 
*END

*D_NET *467 0.00760989
*CONN
*I *4501:CLK I *D sky130_fd_sc_hd__dfrtp_2
*I *4456:CLK I *D sky130_fd_sc_hd__dfrtp_2
*I *4503:CLK I *D sky130_fd_sc_hd__dfrtp_2
*I *4502:CLK I *D sky130_fd_sc_hd__dfrtp_2
*I *4454:CLK I *D sky130_fd_sc_hd__dfrtp_2
*I *4500:CLK I *D sky130_fd_sc_hd__dfrtp_2
*I *4620:X O *D sky130_fd_sc_hd__clkbuf_16
*CAP
1 *4501:CLK 5.65071e-05
2 *4456:CLK 0.000197644
3 *4503:CLK 0.000562033
4 *4502:CLK 3.7311e-05
5 *4454:CLK 8.52542e-05
6 *4500:CLK 0.000449273
7 *4620:X 0.000153011
8 *467:46 0.000982104
9 *467:44 0.000755767
10 *467:31 0.000326305
11 *467:16 0.00143595
12 *467:12 0.0011305
13 *4454:CLK *4454:D 2.89016e-05
14 *4456:CLK *4501:D 5.07619e-05
15 *4456:CLK *630:44 5.81642e-06
16 *4500:CLK *4291:A 0.000101908
17 *4500:CLK *4500:D 9.92332e-05
18 *4503:CLK *4296:B1 5.65955e-05
19 *4503:CLK *4503:D 9.99853e-05
20 *467:12 *4501:D 0
21 *467:12 *692:10 0
22 *467:16 *3991:A 6.52148e-05
23 *467:16 *3991:C 1.59373e-05
24 *467:44 *4454:D 0.000162358
25 *467:46 *4454:D 0.000105449
26 *3991:D *467:16 7.19508e-05
27 *4290:A2 *4500:CLK 3.58558e-05
28 *4291:B *4500:CLK 7.8195e-05
29 *4292:A2 *4500:CLK 0.000172115
30 *4292:A2 *467:31 4.75812e-05
31 *4292:A2 *467:44 4.96531e-05
32 *4294:A1 *4503:CLK 5.73473e-05
33 *207:12 *4500:CLK 4.81231e-05
34 *208:14 *467:16 2.42122e-05
35 *208:24 *4456:CLK 6.10381e-05
*RES
1 *4620:X *467:12 20.5857 
2 *467:12 *467:16 15.7143 
3 *467:16 *4500:CLK 23.7464 
4 *467:16 *467:31 1.33929 
5 *467:31 *4454:CLK 15.175 
6 *467:31 *467:44 3.3125 
7 *467:44 *467:46 7.25893 
8 *467:46 *4502:CLK 14.3357 
9 *467:46 *4503:CLK 24.05 
10 *467:44 *4456:CLK 17.2018 
11 *467:12 *4501:CLK 10.6929 
*END

*D_NET *468 0.00811538
*CONN
*I *4505:CLK I *D sky130_fd_sc_hd__dfrtp_2
*I *4507:CLK I *D sky130_fd_sc_hd__dfrtp_2
*I *4508:CLK I *D sky130_fd_sc_hd__dfrtp_2
*I *4504:CLK I *D sky130_fd_sc_hd__dfrtp_2
*I *4506:CLK I *D sky130_fd_sc_hd__dfrtp_2
*I *4457:CLK I *D sky130_fd_sc_hd__dfrtp_2
*I *4621:X O *D sky130_fd_sc_hd__clkbuf_16
*CAP
1 *4505:CLK 0
2 *4507:CLK 0
3 *4508:CLK 0.000351026
4 *4504:CLK 0.000467525
5 *4506:CLK 8.79512e-05
6 *4457:CLK 0.000859945
7 *4621:X 6.66566e-05
8 *468:54 0.00100172
9 *468:50 0.000267025
10 *468:37 0.000628689
11 *468:25 0.00063847
12 *468:8 0.00110819
13 *4457:CLK *3908:C 0
14 *4457:CLK *4465:CLK 0
15 *4457:CLK *4748:A 0
16 *4457:CLK *666:81 0
17 *4457:CLK *672:89 0.000199782
18 *4457:CLK *929:12 5.57914e-05
19 *4506:CLK *3995:A 2.89016e-05
20 *4506:CLK *4300:A 8.43535e-06
21 *4506:CLK *4506:D 7.16452e-05
22 *4506:CLK *642:18 6.05161e-06
23 *4508:CLK *4299:A 0
24 *4508:CLK *4508:D 3.79467e-05
25 *4508:CLK *4667:A 0.000121606
26 *468:25 *4465:CLK 0
27 *468:25 *471:51 0
28 *468:25 *929:12 7.98681e-05
29 *468:37 *3995:A 9.46929e-05
30 *468:37 *4709:A 0.000219711
31 *468:37 *471:51 0
32 *468:37 *642:18 0.000239701
33 *468:37 *927:6 0.000296291
34 *468:37 *929:12 0.000247771
35 *468:50 *3995:A 0.000121573
36 *468:50 *4299:A 4.66511e-05
37 *468:50 *926:34 0.00012401
38 *468:54 *3995:A 9.41642e-05
39 *468:54 *3995:B 9.41642e-05
40 *3996:D *468:50 2.59093e-05
41 *4047:A *4457:CLK 7.79481e-05
42 *4304:B *468:54 1.97756e-05
43 *4306:B *4508:CLK 0
44 *4466:D *4457:CLK 0
45 *142:14 *4457:CLK 9.14132e-05
46 *211:42 *4508:CLK 3.17163e-05
47 *211:42 *468:54 4.43256e-05
48 *402:10 *4508:CLK 0
49 *449:67 *4457:CLK 5.41882e-05
50 *449:71 *4457:CLK 9.68894e-05
51 *449:73 *4457:CLK 7.25873e-06
*RES
1 *4621:X *468:8 14.7464 
2 *468:8 *4457:CLK 30.8893 
3 *468:8 *468:25 8.30357 
4 *468:25 *468:37 21.0536 
5 *468:37 *4506:CLK 11.0679 
6 *468:37 *468:50 11.25 
7 *468:50 *468:54 3.42857 
8 *468:54 *4504:CLK 16.425 
9 *468:54 *4508:CLK 26.0143 
10 *468:50 *4507:CLK 9.3 
11 *468:25 *4505:CLK 9.3 
*END

*D_NET *469 0.00530632
*CONN
*I *4459:CLK I *D sky130_fd_sc_hd__dfrtp_2
*I *4583:CLK I *D sky130_fd_sc_hd__dfrtp_2
*I *4460:CLK I *D sky130_fd_sc_hd__dfrtp_2
*I *4458:CLK I *D sky130_fd_sc_hd__dfrtp_2
*I *4416:CLK I *D sky130_fd_sc_hd__dfrtp_2
*I *4420:CLK I *D sky130_fd_sc_hd__dfrtp_2
*I *4622:X O *D sky130_fd_sc_hd__clkbuf_16
*CAP
1 *4459:CLK 0
2 *4583:CLK 0.000644264
3 *4460:CLK 0
4 *4458:CLK 0.00020629
5 *4416:CLK 0
6 *4420:CLK 0.000120784
7 *4622:X 0.000287907
8 *469:44 0.00020629
9 *469:42 0.000787409
10 *469:36 0.000473124
11 *469:10 0.000486237
12 *469:8 0.000983338
13 *4420:CLK *4470:RESET_B 2.27416e-05
14 *4420:CLK *671:16 6.58289e-05
15 *4420:CLK *758:12 0
16 *4583:CLK *3902:B 0
17 *4583:CLK *4061:A 0
18 *4583:CLK *4841:A 0
19 *469:8 *668:29 0.000137697
20 *469:8 *668:31 6.05161e-06
21 *469:10 *4416:D 5.24274e-05
22 *469:10 *4416:RESET_B 0
23 *469:10 *4687:A 0
24 *469:10 *671:12 0
25 *469:10 *671:16 4.47843e-05
26 *469:10 *758:12 0
27 *469:36 *3893:A1 6.27091e-05
28 *469:36 *4459:RESET_B 9.84673e-05
29 *469:42 *4459:RESET_B 2.38501e-05
30 *3904:B *4583:CLK 0
31 *3962:B *4583:CLK 0
32 *4323:A1 *4583:CLK 0
33 *4459:D *4583:CLK 0.000308098
34 *4459:D *469:36 2.10974e-05
35 *4459:D *469:42 0.000167737
36 *4460:D *4583:CLK 9.91836e-05
37 *261:12 *4420:CLK 0
38 *261:12 *469:10 0
39 *265:12 *4583:CLK 0
40 *463:8 *4583:CLK 0
*RES
1 *4622:X *469:8 17.6214 
2 *469:8 *469:10 6.80357 
3 *469:10 *4420:CLK 16.5857 
4 *469:10 *4416:CLK 13.8 
5 *469:8 *469:36 11.1607 
6 *469:36 *469:42 7.89286 
7 *469:42 *469:44 4.5 
8 *469:44 *4458:CLK 12.3 
9 *469:44 *4460:CLK 9.3 
10 *469:42 *4583:CLK 25.7643 
11 *469:36 *4459:CLK 9.3 
*END

*D_NET *470 0.00850041
*CONN
*I *4587:CLK I *D sky130_fd_sc_hd__dfrtp_2
*I *4584:CLK I *D sky130_fd_sc_hd__dfrtp_2
*I *4462:CLK I *D sky130_fd_sc_hd__dfrtp_2
*I *4461:CLK I *D sky130_fd_sc_hd__dfrtp_2
*I *4474:CLK I *D sky130_fd_sc_hd__dfrtp_2
*I *4475:CLK I *D sky130_fd_sc_hd__dfrtp_2
*I *4623:X O *D sky130_fd_sc_hd__clkbuf_16
*CAP
1 *4587:CLK 0
2 *4584:CLK 6.99763e-05
3 *4462:CLK 0.000174879
4 *4461:CLK 6.05824e-05
5 *4474:CLK 0
6 *4475:CLK 0.000309842
7 *4623:X 0.000417306
8 *470:64 0.000909141
9 *470:20 0.000830036
10 *470:18 0.00108227
11 *470:12 0.000819163
12 *470:8 0.00139926
13 *4462:CLK *4462:D 1.29975e-05
14 *4462:CLK *687:24 1.21703e-05
15 *4475:CLK *3910:D 0.000129868
16 *4475:CLK *4353:B1 1.24368e-05
17 *4475:CLK *4740:A 0.000396016
18 *4584:CLK *4587:RESET_B 7.50473e-05
19 *470:12 *4462:D 4.58402e-05
20 *470:18 *4462:D 2.46444e-05
21 *470:18 *4462:RESET_B 1.34278e-05
22 *470:18 *509:10 0.000177044
23 *470:18 *687:24 3.01245e-06
24 *470:20 *3910:D 0.000394623
25 *470:64 *4058:A1 0
26 *470:64 *4058:B1 0
27 *470:64 *4587:D 2.72859e-05
28 *470:64 *4587:RESET_B 1.40131e-05
29 *470:64 *4706:A 0
30 *470:64 *648:30 0.000179062
31 *470:64 *687:10 6.3361e-05
32 *3968:B *470:64 0
33 *4058:A3 *470:18 0.000142351
34 *4058:A3 *470:20 0.000201442
35 *4059:B1 *470:64 0
36 *4461:D *470:18 2.29031e-05
37 *4474:D *4475:CLK 0.000133456
38 *4474:D *470:20 4.1331e-06
39 *264:8 *470:20 0.000176914
40 *449:39 *470:8 0.000128363
41 *449:39 *470:64 3.75452e-05
*RES
1 *4623:X *470:8 19.2643 
2 *470:8 *470:12 7.05357 
3 *470:12 *470:18 11.9107 
4 *470:18 *470:20 12.2679 
5 *470:20 *4475:CLK 21.8893 
6 *470:20 *4474:CLK 13.8 
7 *470:18 *4461:CLK 14.7464 
8 *470:12 *4462:CLK 11.8 
9 *470:8 *470:64 19.6786 
10 *470:64 *4584:CLK 11.0679 
11 *470:64 *4587:CLK 9.3 
*END

*D_NET *471 0.0042784
*CONN
*I *4575:CLK I *D sky130_fd_sc_hd__dfrtp_2
*I *4466:CLK I *D sky130_fd_sc_hd__dfrtp_2
*I *4465:CLK I *D sky130_fd_sc_hd__dfrtp_2
*I *4576:CLK I *D sky130_fd_sc_hd__dfrtp_2
*I *4578:CLK I *D sky130_fd_sc_hd__dfrtp_2
*I *4577:CLK I *D sky130_fd_sc_hd__dfrtp_2
*I *4624:X O *D sky130_fd_sc_hd__clkbuf_16
*CAP
1 *4575:CLK 0
2 *4466:CLK 0
3 *4465:CLK 0.000199742
4 *4576:CLK 5.67971e-05
5 *4578:CLK 0.000129571
6 *4577:CLK 4.10635e-05
7 *4624:X 0.000130186
8 *471:51 0.000644182
9 *471:45 0.00058461
10 *471:23 0.000259637
11 *471:12 0.000578333
12 *471:6 0.000734356
13 *4465:CLK *4051:B1 0
14 *4576:CLK *4313:B1 0
15 *4576:CLK *4576:D 5.80217e-05
16 *4578:CLK *4576:D 5.71472e-05
17 *471:12 *647:43 8.58946e-05
18 *471:23 *4309:B1 5.01876e-06
19 *471:23 *4313:B1 0
20 *471:23 *647:43 5.76372e-05
21 *471:45 *4575:D 0
22 *471:51 *4051:B1 0
23 *471:51 *4575:D 0
24 *471:51 *929:12 0
25 *4309:A2 *471:12 0.000202005
26 *4309:A2 *471:23 2.23987e-05
27 *4457:CLK *4465:CLK 0
28 *4466:D *4465:CLK 4.57538e-05
29 *174:14 *4577:CLK 5.33433e-05
30 *174:14 *471:23 0.000128154
31 *174:27 *4576:CLK 0.000169405
32 *174:27 *471:23 3.51442e-05
33 *468:25 *4465:CLK 0
34 *468:25 *471:51 0
35 *468:37 *471:51 0
*RES
1 *4624:X *471:6 11.4786 
2 *471:6 *471:12 14.5 
3 *471:12 *4577:CLK 14.7464 
4 *471:12 *471:23 2.55357 
5 *471:23 *4578:CLK 15.9786 
6 *471:23 *4576:CLK 16.05 
7 *471:6 *471:45 7.05357 
8 *471:45 *471:51 8.07143 
9 *471:51 *4465:CLK 17.425 
10 *471:51 *4466:CLK 13.8 
11 *471:45 *4575:CLK 13.8 
*END

*D_NET *472 0.00634409
*CONN
*I *4580:CLK I *D sky130_fd_sc_hd__dfrtp_2
*I *4579:CLK I *D sky130_fd_sc_hd__dfrtp_2
*I *4581:CLK I *D sky130_fd_sc_hd__dfrtp_2
*I *4586:CLK I *D sky130_fd_sc_hd__dfrtp_2
*I *4585:CLK I *D sky130_fd_sc_hd__dfrtp_2
*I *4582:CLK I *D sky130_fd_sc_hd__dfrtp_2
*I *4625:X O *D sky130_fd_sc_hd__clkbuf_16
*CAP
1 *4580:CLK 5.65071e-05
2 *4579:CLK 0.000333859
3 *4581:CLK 0
4 *4586:CLK 0
5 *4585:CLK 6.35045e-05
6 *4582:CLK 0.000135677
7 *4625:X 0.000904837
8 *472:56 0.000574213
9 *472:50 0.00129889
10 *472:41 0.00111755
11 *472:28 0.000948185
12 *4579:CLK *4669:A 3.18676e-05
13 *4579:CLK *647:10 5.33433e-05
14 *4582:CLK *4325:B1 6.74815e-05
15 *4582:CLK *981:10 7.83659e-05
16 *4585:CLK *4585:RESET_B 5.41609e-05
17 *472:28 *3959:A 0.000106542
18 *472:28 *4585:D 0
19 *472:28 *648:41 0
20 *472:41 *3959:A 0.000100457
21 *472:41 *648:41 0
22 *472:41 *978:10 5.80706e-06
23 *472:50 *4580:D 9.195e-06
24 *472:50 *4580:RESET_B 1.92789e-05
25 *472:56 *647:10 0
26 *472:56 *647:14 0
27 *4314:B *472:50 4.72917e-05
28 *4315:A2 *472:50 0.000135028
29 *4319:A2 *4579:CLK 0.000174797
30 *4323:A2 *4582:CLK 2.72449e-05
31 *178:25 *4579:CLK 0
32 *178:25 *472:56 0
*RES
1 *4625:X *4582:CLK 30.1893 
2 *4625:X *472:28 26.7821 
3 *472:28 *4585:CLK 15.1571 
4 *472:28 *472:41 7.05357 
5 *472:41 *4586:CLK 9.3 
6 *472:41 *472:50 11.9464 
7 *472:50 *472:56 7.91071 
8 *472:56 *4581:CLK 13.8 
9 *472:56 *4579:CLK 20.5857 
10 *472:50 *4580:CLK 10.6929 
*END

*D_NET *473 0.00975112
*CONN
*I *4548:CLK I *D sky130_fd_sc_hd__dfrtp_2
*I *4533:CLK I *D sky130_fd_sc_hd__dfrtp_2
*I *4532:CLK I *D sky130_fd_sc_hd__dfrtp_2
*I *4534:CLK I *D sky130_fd_sc_hd__dfrtp_2
*I *4543:CLK I *D sky130_fd_sc_hd__dfrtp_2
*I *4542:CLK I *D sky130_fd_sc_hd__dfrtp_2
*I *4541:CLK I *D sky130_fd_sc_hd__dfrtp_2
*I *4626:X O *D sky130_fd_sc_hd__clkbuf_16
*CAP
1 *4548:CLK 0.000413942
2 *4533:CLK 0
3 *4532:CLK 0.000437761
4 *4534:CLK 2.3671e-05
5 *4543:CLK 9.44459e-05
6 *4542:CLK 5.11891e-05
7 *4541:CLK 0.000111232
8 *4626:X 0
9 *473:26 0.000259744
10 *473:24 0.000609432
11 *473:22 0.000552211
12 *473:20 0.000577797
13 *473:16 0.000712511
14 *473:4 0.00109729
15 *4532:CLK *4158:A1 0.000113868
16 *4532:CLK *653:36 0.000362822
17 *4532:CLK *653:38 0.000141014
18 *4532:CLK *827:10 0.000103041
19 *4532:CLK *827:12 1.31516e-05
20 *4534:CLK *4534:D 5.52302e-05
21 *4541:CLK *828:6 2.59355e-05
22 *4541:CLK *828:17 0.00014852
23 *4548:CLK *4199:B1 0.000116123
24 *4548:CLK *4548:D 0.000139202
25 *4548:CLK *653:96 0.000201229
26 *4548:CLK *655:46 9.60939e-05
27 *473:16 *4157:A1 0.000128161
28 *473:16 *4533:D 7.77652e-05
29 *473:16 *653:96 0.000277908
30 *473:22 *4157:B1 0.000187733
31 *473:22 *4533:D 0
32 *473:22 *653:38 9.25014e-06
33 *473:24 *4157:B1 0.000227736
34 *473:24 *4182:A1 0.000167691
35 *473:24 *4533:D 0
36 *473:24 *4543:D 0
37 *473:24 *652:52 0
38 *473:24 *652:56 0
39 *473:26 *4182:A1 0.000228382
40 *473:26 *828:17 0.000164455
41 *4020:B *4541:CLK 0.000152542
42 *4021:D *4542:CLK 1.4796e-05
43 *4154:A *4532:CLK 0.000148911
44 *4155:A2 *4532:CLK 0.000150625
45 *4156:B *4532:CLK 0
46 *4157:A2 *4532:CLK 0
47 *4157:A2 *473:22 0
48 *4157:A2 *473:24 0
49 *4159:B *473:16 6.75007e-05
50 *4160:A2 *473:16 0.000121733
51 *4160:A2 *473:20 1.92905e-05
52 *4180:B *4541:CLK 8.91963e-06
53 *4182:A3 *473:24 0.00020042
54 *4182:A3 *473:26 0.000216579
55 *4195:A_N *4548:CLK 0.000182313
56 *4195:B *4548:CLK 0.000135761
57 *4196:A2 *4548:CLK 1.10868e-05
58 *4199:A2 *4548:CLK 9.83388e-05
59 *232:16 *473:24 0
60 *234:17 *4542:CLK 5.33005e-05
61 *234:19 *4541:CLK 4.73355e-05
62 *234:47 *4541:CLK 2.22419e-05
63 *234:47 *473:26 0.000172884
*RES
1 *4626:X *473:4 9.3 
2 *473:4 *473:16 20.875 
3 *473:16 *473:20 5.03571 
4 *473:20 *473:22 2.55357 
5 *473:22 *473:24 9.83929 
6 *473:24 *473:26 4.98214 
7 *473:26 *4541:CLK 16.8893 
8 *473:26 *4542:CLK 14.7464 
9 *473:24 *4543:CLK 15.1571 
10 *473:22 *4534:CLK 14.3357 
11 *473:20 *4532:CLK 25.7643 
12 *473:16 *4533:CLK 9.3 
13 *473:4 *4548:CLK 27.175 
*END

*D_NET *474 0.0088483
*CONN
*I *4571:CLK I *D sky130_fd_sc_hd__dfrtp_2
*I *4547:CLK I *D sky130_fd_sc_hd__dfrtp_2
*I *4654:A I *D sky130_fd_sc_hd__clkbuf_4
*I *4546:CLK I *D sky130_fd_sc_hd__dfrtp_2
*I *4544:CLK I *D sky130_fd_sc_hd__dfrtp_2
*I *4545:CLK I *D sky130_fd_sc_hd__dfrtp_2
*I *4549:CLK I *D sky130_fd_sc_hd__dfrtp_2
*I *4627:X O *D sky130_fd_sc_hd__clkbuf_16
*CAP
1 *4571:CLK 0.000620175
2 *4547:CLK 0
3 *4654:A 6.66388e-05
4 *4546:CLK 0
5 *4544:CLK 0
6 *4545:CLK 0.000261886
7 *4549:CLK 0.000482615
8 *4627:X 0.000841647
9 *474:82 0.000915564
10 *474:71 0.000548889
11 *474:31 0.000544597
12 *474:25 0.000772914
13 *474:6 0.0016276
14 *4545:CLK *4187:A1 0.000123352
15 *4545:CLK *4187:B1 3.08734e-05
16 *4545:CLK *4545:D 0.000248255
17 *4549:CLK *4201:A1 3.18747e-05
18 *4549:CLK *4201:B1 9.94037e-05
19 *4549:CLK *564:20 9.57064e-05
20 *4549:CLK *564:26 4.25427e-05
21 *474:25 *4024:A 0
22 *474:25 *4189:B1 0
23 *474:25 *4190:A2 0
24 *474:25 *4546:D 5.38783e-05
25 *474:25 *831:25 0
26 *474:31 *4545:D 0.000150773
27 *474:31 *4546:D 3.67279e-06
28 *474:82 *4196:A1 1.01912e-05
29 *474:82 *4197:A 2.26424e-05
30 *474:82 *4547:D 5.69278e-05
31 *4024:B *474:25 7.83659e-05
32 *4024:C *474:25 0.000199698
33 *4194:B *4571:CLK 0.000202835
34 *4194:B *474:82 0.000189441
35 *4195:B *4571:CLK 0
36 *4195:B *474:82 0
37 *4196:A2 *474:82 0
38 *4200:A2 *474:71 0
39 *4200:A2 *474:82 0
40 *4201:A2 *474:25 7.6644e-05
41 *4202:B *474:25 0
42 *4627:A *474:6 3.00198e-05
43 *239:31 *474:71 9.24395e-05
44 *239:31 *474:82 6.39901e-05
45 *239:46 *474:82 0.000177227
46 *242:12 *4571:CLK 8.50152e-05
*RES
1 *4627:X *474:6 16.4071 
2 *474:6 *4549:CLK 25.8179 
3 *474:6 *474:25 13.4286 
4 *474:25 *474:31 5.64286 
5 *474:31 *4545:CLK 19.6036 
6 *474:31 *4544:CLK 13.8 
7 *474:25 *4546:CLK 13.8 
8 *4627:X *474:71 16.9964 
9 *474:71 *4654:A 14.7464 
10 *474:71 *474:82 7.10714 
11 *474:82 *4547:CLK 13.8 
12 *474:82 *4571:CLK 25.55 
*END

*D_NET *475 0.00518003
*CONN
*I *4414:CLK I *D sky130_fd_sc_hd__dfrtp_2
*I *4401:CLK I *D sky130_fd_sc_hd__dfrtp_2
*I *4655:A I *D sky130_fd_sc_hd__clkbuf_4
*I *4552:CLK I *D sky130_fd_sc_hd__dfrtp_2
*I *4550:CLK I *D sky130_fd_sc_hd__dfrtp_2
*I *4551:CLK I *D sky130_fd_sc_hd__dfrtp_2
*I *4531:CLK I *D sky130_fd_sc_hd__dfrtp_2
*I *4628:X O *D sky130_fd_sc_hd__clkbuf_16
*CAP
1 *4414:CLK 0.000272684
2 *4401:CLK 6.17285e-05
3 *4655:A 0.000151832
4 *4552:CLK 8.7135e-05
5 *4550:CLK 0.000136338
6 *4551:CLK 0.000122049
7 *4531:CLK 0
8 *4628:X 0
9 *475:65 0.000424579
10 *475:43 0.000438176
11 *475:19 0.000636524
12 *475:12 0.000416593
13 *475:8 0.00045053
14 *475:6 0.000303032
15 *4414:CLK *3923:A2 0.00037105
16 *4414:CLK *696:16 0.000103142
17 *4551:CLK *4551:D 0.000204644
18 *4655:A *4531:RESET_B 0
19 *4655:A *4552:RESET_B 0
20 *4655:A *4660:A 4.81157e-05
21 *475:8 *4552:D 5.66157e-05
22 *475:8 *4552:RESET_B 9.47312e-05
23 *475:8 *696:16 0.00023008
24 *475:12 *4552:D 0.000126439
25 *475:12 *4552:RESET_B 0.000128146
26 *475:43 *4552:D 9.76491e-05
27 *475:65 *696:16 9.56968e-05
28 *4401:D *4655:A 1.76135e-05
29 *4401:D *475:8 0
30 *4401:D *475:65 0
31 *4617:A *475:19 5.03772e-05
32 *449:222 *4414:CLK 0
33 *449:222 *475:65 0
34 *464:10 *4550:CLK 5.45307e-05
*RES
1 *4628:X *475:6 13.8 
2 *475:6 *475:8 6.19643 
3 *475:8 *475:12 6.14286 
4 *475:12 *4531:CLK 9.3 
5 *475:12 *475:19 5.46429 
6 *475:19 *4551:CLK 21.0857 
7 *475:19 *4550:CLK 11.8893 
8 *475:8 *475:43 7.08929 
9 *475:43 *4552:CLK 10.5679 
10 *475:43 *4655:A 21.1571 
11 *475:6 *475:65 2.25 
12 *475:65 *4401:CLK 14.7464 
13 *475:65 *4414:CLK 20.9071 
*END

*D_NET *476 0.0109902
*CONN
*I *4453:CLK I *D sky130_fd_sc_hd__dfrtp_2
*I *4452:CLK I *D sky130_fd_sc_hd__dfrtp_2
*I *4451:CLK I *D sky130_fd_sc_hd__dfstp_2
*I *4570:CLK I *D sky130_fd_sc_hd__dfrtp_2
*I *4400:CLK I *D sky130_fd_sc_hd__dfrtp_2
*I *4404:CLK I *D sky130_fd_sc_hd__dfrtp_2
*I *4629:X O *D sky130_fd_sc_hd__clkbuf_16
*CAP
1 *4453:CLK 0
2 *4452:CLK 0.000263511
3 *4451:CLK 0.000153256
4 *4570:CLK 0.000741023
5 *4400:CLK 0.000118701
6 *4404:CLK 5.64002e-05
7 *4629:X 8.83657e-05
8 *476:70 0.00105069
9 *476:36 0.000925598
10 *476:34 0.000996364
11 *476:12 0.000567295
12 *476:6 0.000658429
13 *4400:CLK *529:23 1.78447e-05
14 *4404:CLK *3939:A1 3.14193e-05
15 *4451:CLK *4790:A 0.000304387
16 *4452:CLK *3926:B2 2.84026e-05
17 *4452:CLK *3929:A1 0.000109431
18 *4452:CLK *4713:A 4.70078e-05
19 *4452:CLK *713:37 0.000184036
20 *4452:CLK *743:10 7.32173e-05
21 *4570:CLK *4204:A1 0.000184635
22 *4570:CLK *4742:A 0.000177948
23 *4570:CLK *839:8 5.52238e-05
24 *476:12 *529:23 2.97756e-05
25 *476:12 *744:34 0
26 *476:34 *744:34 0.000254572
27 *476:70 *3926:B2 3.00989e-05
28 *476:70 *3929:A1 7.7591e-05
29 *476:70 *4424:RESET_B 4.8736e-05
30 *476:70 *4713:A 0.000175892
31 *476:70 *4790:A 6.87574e-05
32 *3926:A2 *4452:CLK 3.04297e-05
33 *3926:B1 *4452:CLK 4.43613e-05
34 *3941:B *4404:CLK 2.89016e-05
35 *4204:A2 *4570:CLK 6.8646e-06
36 *4358:A1 *4570:CLK 0.000339717
37 *4358:A1 *476:34 0.000315894
38 *4358:A1 *476:36 7.6644e-05
39 *4451:D *476:70 7.8195e-05
40 *4452:D *4452:CLK 0.000390724
41 *4629:A *4570:CLK 0.000719071
42 *4629:A *476:12 4.05411e-05
43 *4629:A *476:34 0.000473627
44 *4629:A *476:36 6.73939e-05
45 *4752:A *4400:CLK 6.65302e-05
46 *4752:A *4404:CLK 3.18676e-05
47 *154:16 *4452:CLK 0.000387432
48 *159:14 *4451:CLK 0.000261228
49 *159:14 *476:70 0.000112222
*RES
1 *4629:X *476:6 10.2464 
2 *476:6 *476:12 10.6429 
3 *476:12 *4404:CLK 15.1571 
4 *476:12 *4400:CLK 16.05 
5 *476:6 *476:34 11.9107 
6 *476:34 *476:36 1.03571 
7 *476:36 *4570:CLK 32.425 
8 *476:36 *4451:CLK 18.175 
9 *476:34 *476:70 24.1964 
10 *476:70 *4452:CLK 28.05 
11 *476:70 *4453:CLK 9.3 
*END

*D_NET *477 0.00653631
*CONN
*I *4521:CLK I *D sky130_fd_sc_hd__dfrtp_2
*I *4651:A I *D sky130_fd_sc_hd__clkbuf_4
*I *4520:CLK I *D sky130_fd_sc_hd__dfrtp_2
*I *4519:CLK I *D sky130_fd_sc_hd__dfrtp_2
*I *4513:CLK I *D sky130_fd_sc_hd__dfrtp_2
*I *4515:CLK I *D sky130_fd_sc_hd__dfrtp_2
*I *4514:CLK I *D sky130_fd_sc_hd__dfrtp_2
*I *4630:X O *D sky130_fd_sc_hd__clkbuf_16
*CAP
1 *4521:CLK 0
2 *4651:A 0.000274179
3 *4520:CLK 2.89611e-05
4 *4519:CLK 0
5 *4513:CLK 0
6 *4515:CLK 0.000205941
7 *4514:CLK 7.15047e-05
8 *4630:X 0.00053951
9 *477:69 0.000274179
10 *477:26 0.00037087
11 *477:24 0.000541657
12 *477:20 0.000729041
13 *477:12 0.000398331
14 *477:10 0.000628072
15 *4514:CLK *4221:B1 5.74242e-05
16 *4514:CLK *661:22 0.000162196
17 *4515:CLK *4219:A1 6.96806e-05
18 *4515:CLK *4220:A 0.000119969
19 *4515:CLK *4513:D 0.000137639
20 *4520:CLK *4233:A 7.77751e-05
21 *4520:CLK *4240:B1 5.71472e-05
22 *4520:CLK *4521:D 4.59075e-05
23 *4651:A *4232:A1 9.90367e-05
24 *4651:A *4662:A 1.58163e-05
25 *4651:A *575:8 5.75147e-05
26 *477:10 *4235:B1 7.32272e-05
27 *477:10 *4240:B1 7.92975e-05
28 *477:12 *4240:B1 9.99989e-05
29 *477:12 *661:12 0
30 *477:20 *4519:D 4.83933e-05
31 *477:20 *575:14 0
32 *477:20 *661:12 0
33 *477:24 *575:14 7.12756e-05
34 *477:24 *575:16 0
35 *477:24 *575:18 0
36 *477:24 *661:22 0.000228775
37 *477:24 *661:59 0.000117903
38 *477:26 *661:22 0.0001709
39 *4219:A2 *4514:CLK 0.000195257
40 *4234:A *477:24 3.51442e-05
41 *4235:A2 *477:24 2.49484e-05
42 *218:25 *477:20 6.62983e-05
43 *220:38 *477:10 0.000143804
44 *220:38 *477:12 0.000209483
45 *220:38 *477:20 9.25014e-06
*RES
1 *4630:X *477:10 22.8536 
2 *477:10 *477:12 2.85714 
3 *477:12 *477:20 9.46429 
4 *477:20 *477:24 14.3393 
5 *477:24 *477:26 2.25 
6 *477:26 *4514:CLK 16.6571 
7 *477:26 *4515:CLK 18.05 
8 *477:24 *4513:CLK 13.8 
9 *477:20 *4519:CLK 9.3 
10 *477:12 *4520:CLK 15.1571 
11 *477:10 *477:69 4.5 
12 *477:69 *4651:A 13.9607 
13 *477:69 *4521:CLK 9.3 
*END

*D_NET *478 0.00546203
*CONN
*I *4573:CLK I *D sky130_fd_sc_hd__dfrtp_2
*I *4574:CLK I *D sky130_fd_sc_hd__dfrtp_2
*I *4553:CLK I *D sky130_fd_sc_hd__dfrtp_2
*I *4554:CLK I *D sky130_fd_sc_hd__dfrtp_2
*I *4556:CLK I *D sky130_fd_sc_hd__dfrtp_2
*I *4555:CLK I *D sky130_fd_sc_hd__dfrtp_2
*I *4631:X O *D sky130_fd_sc_hd__clkbuf_16
*CAP
1 *4573:CLK 0.000215199
2 *4574:CLK 0
3 *4553:CLK 0
4 *4554:CLK 0
5 *4556:CLK 0
6 *4555:CLK 0.000290572
7 *4631:X 0.000422131
8 *478:54 0.000291255
9 *478:16 0.000731993
10 *478:12 0.000696701
11 *478:10 0.000460363
12 *478:8 0.00070327
13 *4555:CLK *4103:B1 6.56086e-05
14 *4555:CLK *4555:D 0.00015078
15 *4555:CLK *4556:D 0.000139331
16 *4573:CLK *4150:B1_N 9.10488e-05
17 *4573:CLK *4678:A 4.32309e-05
18 *4573:CLK *660:14 0.000172375
19 *478:8 *4150:A1 8.18783e-05
20 *478:10 *4150:B1_N 1.78447e-05
21 *478:10 *4574:D 5.80706e-06
22 *478:10 *697:18 0
23 *478:12 *4095:A1 0
24 *478:12 *4095:A2 0
25 *478:12 *697:18 0
26 *478:12 *697:20 0
27 *478:12 *711:23 8.15843e-05
28 *478:16 *4103:B1 0.00021796
29 *478:16 *711:23 9.97744e-05
30 *478:16 *711:27 0.000204299
31 *478:54 *4150:B1_N 1.00375e-05
32 *478:54 *4574:D 4.75812e-05
33 *4103:A2 *478:16 0
34 *4631:A *4573:CLK 0
35 *4631:A *478:8 0.0002214
36 *4631:A *478:10 0
37 *4631:A *478:54 0
38 *451:8 *4573:CLK 0
*RES
1 *4631:X *478:8 19.675 
2 *478:8 *478:10 3.46429 
3 *478:10 *478:12 4.98214 
4 *478:12 *478:16 14.3393 
5 *478:16 *4555:CLK 24.2107 
6 *478:16 *4556:CLK 9.3 
7 *478:12 *4554:CLK 13.8 
8 *478:10 *4553:CLK 13.8 
9 *478:8 *478:54 1.64286 
10 *478:54 *4574:CLK 13.8 
11 *478:54 *4573:CLK 18.7821 
*END

*D_NET *479 0.00596624
*CONN
*I *4561:CLK I *D sky130_fd_sc_hd__dfrtp_2
*I *4560:CLK I *D sky130_fd_sc_hd__dfrtp_2
*I *4559:CLK I *D sky130_fd_sc_hd__dfrtp_2
*I *4558:CLK I *D sky130_fd_sc_hd__dfrtp_2
*I *4557:CLK I *D sky130_fd_sc_hd__dfrtp_2
*I *4562:CLK I *D sky130_fd_sc_hd__dfrtp_2
*I *4632:X O *D sky130_fd_sc_hd__clkbuf_16
*CAP
1 *4561:CLK 3.2426e-05
2 *4560:CLK 0
3 *4559:CLK 0.000352582
4 *4558:CLK 0
5 *4557:CLK 0.000312928
6 *4562:CLK 0.000369821
7 *4632:X 0
8 *479:35 0.000433429
9 *479:33 0.000967431
10 *479:27 0.000602987
11 *479:23 0.000393551
12 *479:4 0.000622308
13 *4557:CLK *4106:B1 9.86588e-05
14 *4557:CLK *4108:A1 6.14702e-06
15 *4557:CLK *4557:D 0.000112543
16 *4557:CLK *4557:RESET_B 0.000102659
17 *4559:CLK *4108:B1 0.000216664
18 *4559:CLK *657:55 9.71197e-05
19 *4562:CLK *4114:A1 0.00017078
20 *4562:CLK *4560:D 4.16899e-05
21 *4562:CLK *4562:D 4.01768e-05
22 *4562:CLK *658:36 1.57523e-05
23 *479:23 *4114:B1 9.24491e-05
24 *479:23 *795:10 9.90367e-05
25 *479:23 *795:19 5.33005e-05
26 *479:27 *4043:A 0
27 *479:33 *4111:A1 0
28 *479:33 *4111:B1 6.75007e-05
29 *479:33 *4114:B1 0
30 *479:33 *657:10 0
31 *479:33 *657:92 0
32 *479:35 *4106:B1 0.000108729
33 *479:35 *4111:B1 1.08359e-05
34 *4043:B *479:23 0.000176234
35 *4106:A2 *4557:CLK 6.35274e-05
36 *4114:A2 *4562:CLK 7.77652e-05
37 *4114:A2 *479:27 0.0001098
38 *4114:A2 *479:33 0.00010816
39 *256:8 *479:23 9.25014e-06
*RES
1 *4632:X *479:4 9.3 
2 *479:4 *4562:CLK 16.0321 
3 *479:4 *479:23 14.25 
4 *479:23 *479:27 7.05357 
5 *479:27 *479:33 10.1964 
6 *479:33 *479:35 2.85714 
7 *479:35 *4557:CLK 20.55 
8 *479:35 *4558:CLK 13.8 
9 *479:33 *4559:CLK 20.1036 
10 *479:27 *4560:CLK 13.8 
11 *479:23 *4561:CLK 9.83571 
*END

*D_NET *480 0.00609467
*CONN
*I *4476:CLK I *D sky130_fd_sc_hd__dfrtp_2
*I *4568:CLK I *D sky130_fd_sc_hd__dfrtp_2
*I *4567:CLK I *D sky130_fd_sc_hd__dfrtp_2
*I *4424:CLK I *D sky130_fd_sc_hd__dfrtp_2
*I *4569:CLK I *D sky130_fd_sc_hd__dfrtp_2
*I *4566:CLK I *D sky130_fd_sc_hd__dfrtp_2
*I *4633:X O *D sky130_fd_sc_hd__clkbuf_16
*CAP
1 *4476:CLK 0.000521986
2 *4568:CLK 0.000833358
3 *4567:CLK 0
4 *4424:CLK 0
5 *4569:CLK 0.000191954
6 *4566:CLK 0.000263166
7 *4633:X 0
8 *480:31 0.000554419
9 *480:25 0.000657775
10 *480:10 0.000595925
11 *480:8 0.000918991
12 *480:6 0.000570169
13 *4476:CLK *4680:A 0
14 *4476:CLK *659:21 0.000145574
15 *4476:CLK *713:37 0
16 *4566:CLK *659:21 9.34004e-05
17 *4566:CLK *702:6 0.000114577
18 *4566:CLK *713:37 0
19 *4568:CLK *4133:A1 9.71197e-05
20 *4568:CLK *4133:B1 1.56216e-05
21 *4568:CLK *4477:RESET_B 0.000264678
22 *4568:CLK *787:8 2.39999e-05
23 *4569:CLK *4569:D 0
24 *480:8 *659:21 3.92854e-05
25 *480:8 *713:37 0
26 *480:10 *659:21 4.35131e-05
27 *480:10 *713:37 0
28 *480:31 *4569:D 0
29 *480:31 *695:8 1.92905e-05
30 *480:31 *695:14 0
31 *4134:B *4568:CLK 9.41642e-05
32 *4358:A1 *4569:CLK 0
33 *4358:A1 *480:31 0
34 *4424:D *4569:CLK 3.5707e-05
*RES
1 *4633:X *480:6 13.8 
2 *480:6 *480:8 1.03571 
3 *480:8 *480:10 1.03571 
4 *480:10 *4566:CLK 19.05 
5 *480:10 *480:25 9.14286 
6 *480:25 *480:31 10.4643 
7 *480:31 *4569:CLK 17.1214 
8 *480:31 *4424:CLK 13.8 
9 *480:25 *4567:CLK 9.3 
10 *480:8 *4568:CLK 24.1036 
11 *480:6 *4476:CLK 23.5857 
*END

*D_NET *481 0.00799407
*CONN
*I *4565:CLK I *D sky130_fd_sc_hd__dfrtp_2
*I *4479:CLK I *D sky130_fd_sc_hd__dfrtp_2
*I *4477:CLK I *D sky130_fd_sc_hd__dfrtp_2
*I *4564:CLK I *D sky130_fd_sc_hd__dfrtp_2
*I *4563:CLK I *D sky130_fd_sc_hd__dfrtp_2
*I *4572:CLK I *D sky130_fd_sc_hd__dfrtp_2
*I *4634:X O *D sky130_fd_sc_hd__clkbuf_16
*CAP
1 *4565:CLK 0
2 *4479:CLK 0.000393908
3 *4477:CLK 4.22033e-05
4 *4564:CLK 2.91597e-05
5 *4563:CLK 0
6 *4572:CLK 0.000275306
7 *4634:X 0.000211675
8 *481:53 0.000920284
9 *481:24 0.000392844
10 *481:20 0.000388581
11 *481:18 0.00112865
12 *481:12 0.000614267
13 *4477:CLK *4477:RESET_B 0.000140933
14 *4477:CLK *4718:A 5.52302e-05
15 *4479:CLK *4076:A 5.52238e-05
16 *4479:CLK *4479:D 2.27416e-05
17 *4479:CLK *4770:A 7.45454e-05
18 *4572:CLK *4563:RESET_B 0.00049041
19 *4572:CLK *702:27 0.000366682
20 *481:12 *4564:RESET_B 2.19684e-05
21 *481:12 *4565:D 4.94268e-05
22 *481:12 *701:37 3.2534e-05
23 *481:18 *4565:RESET_B 5.41609e-05
24 *481:20 *4563:D 2.6949e-05
25 *481:24 *4124:B1 0
26 *481:24 *4563:D 6.58195e-05
27 *481:53 *4038:A 0
28 *481:53 *4568:D 0.0003335
29 *4126:B *481:18 1.15172e-05
30 *4127:A2 *481:18 0.00010096
31 *4134:A *4479:CLK 0.000105603
32 *4134:A *481:53 1.37292e-05
33 *4134:B *4479:CLK 6.05161e-06
34 *4135:A2 *4479:CLK 0.000115474
35 *4135:A2 *481:53 0.000576172
36 *4633:A *4477:CLK 2.14658e-05
37 *4633:A *481:53 0.000203607
38 *252:10 *481:53 0
39 *253:52 *4572:CLK 0.000306637
40 *253:52 *481:24 0
41 *253:56 *4572:CLK 5.83233e-05
42 *452:14 *4564:CLK 1.92905e-05
43 *452:14 *481:20 0.00014759
44 *452:14 *481:53 0.000120655
*RES
1 *4634:X *481:12 21.6036 
2 *481:12 *481:18 11.2143 
3 *481:18 *481:20 4.67857 
4 *481:20 *481:24 7.05357 
5 *481:24 *4572:CLK 27.6214 
6 *481:24 *4563:CLK 9.3 
7 *481:20 *4564:CLK 14.3357 
8 *481:18 *481:53 12.875 
9 *481:53 *4477:CLK 15.1571 
10 *481:53 *4479:CLK 21.6393 
11 *481:12 *4565:CLK 9.3 
*END

*D_NET *482 0.00811004
*CONN
*I *4427:CLK I *D sky130_fd_sc_hd__dfrtp_2
*I *4426:CLK I *D sky130_fd_sc_hd__dfrtp_2
*I *4411:CLK I *D sky130_fd_sc_hd__dfrtp_2
*I *4403:CLK I *D sky130_fd_sc_hd__dfrtp_2
*I *4407:CLK I *D sky130_fd_sc_hd__dfrtp_2
*I *4415:CLK I *D sky130_fd_sc_hd__dfrtp_2
*I *4410:CLK I *D sky130_fd_sc_hd__dfrtp_2
*I *4635:X O *D sky130_fd_sc_hd__clkbuf_16
*CAP
1 *4427:CLK 0.000249612
2 *4426:CLK 9.92403e-05
3 *4411:CLK 0.000127026
4 *4403:CLK 0
5 *4407:CLK 0
6 *4415:CLK 0.000347445
7 *4410:CLK 0.000262142
8 *4635:X 0.000133146
9 *482:69 0.000493369
10 *482:58 0.000370798
11 *482:27 0.000634636
12 *482:12 0.000641206
13 *482:10 0.000262326
14 *482:8 0.000402853
15 *4410:CLK *4072:A1 9.91086e-05
16 *4410:CLK *4407:RESET_B 0
17 *4410:CLK *4751:A 0.000366252
18 *4410:CLK *742:26 0.000200413
19 *4411:CLK *541:10 0.000103491
20 *4415:CLK *4410:RESET_B 0.000112152
21 *4415:CLK *527:8 2.89016e-05
22 *4426:CLK *742:12 4.41588e-05
23 *4427:CLK *4365:A1 2.24804e-05
24 *4427:CLK *4365:B2 1.28809e-05
25 *482:8 *3867:B 0.000139344
26 *482:8 *4349:B2 6.95595e-05
27 *482:8 *4361:A0 0.000224575
28 *482:8 *526:14 0.000169569
29 *482:10 *3867:B 0
30 *482:10 *4407:RESET_B 0
31 *482:10 *742:18 3.41599e-05
32 *482:10 *742:26 0.000142797
33 *482:12 *4407:RESET_B 0
34 *482:12 *742:26 0.000194299
35 *482:27 *4751:A 1.58163e-05
36 *482:69 *742:12 1.78393e-05
37 *482:69 *742:18 8.91963e-06
38 *3938:A2 *4415:CLK 6.58289e-05
39 *3941:A *4410:CLK 0.000143557
40 *4363:B1 *482:10 0.000174842
41 *4363:B1 *482:58 0.000160667
42 *4363:B1 *482:69 0.000162196
43 *4365:A2 *4427:CLK 7.63435e-05
44 *4365:B1 *4427:CLK 5.33005e-05
45 *4365:C1 *4427:CLK 0.000270123
46 *4403:D *482:10 7.80968e-05
47 *4407:D *482:27 5.06983e-05
48 *4411:D *4411:CLK 9.55226e-05
49 *4411:D *4427:CLK 0.000171355
50 *4411:D *482:69 0.000331429
51 *4426:D *482:69 9.96553e-05
52 *4427:D *4427:CLK 4.37451e-05
53 *20:6 *482:27 3.69047e-06
54 *428:8 *482:8 9.84729e-05
55 *449:13 *4410:CLK 0
56 *449:13 *482:10 0
*RES
1 *4635:X *482:8 18.4429 
2 *482:8 *482:10 5.28571 
3 *482:10 *482:12 2.55357 
4 *482:12 *4410:CLK 21.3714 
5 *482:12 *482:27 9.14286 
6 *482:27 *4415:CLK 25.3357 
7 *482:27 *4407:CLK 9.3 
8 *482:10 *4403:CLK 13.8 
9 *482:8 *482:58 2.25 
10 *482:58 *4411:CLK 16.8 
11 *482:58 *482:69 4.98214 
12 *482:69 *4426:CLK 15.5679 
13 *482:69 *4427:CLK 20.2821 
*END

*D_NET *483 0.00932885
*CONN
*I *4656:A I *D sky130_fd_sc_hd__clkbuf_4
*I *4405:CLK I *D sky130_fd_sc_hd__dfrtp_2
*I *4408:CLK I *D sky130_fd_sc_hd__dfrtp_2
*I *4446:CLK I *D sky130_fd_sc_hd__dfrtp_2
*I *4412:CLK I *D sky130_fd_sc_hd__dfrtp_2
*I *4413:CLK I *D sky130_fd_sc_hd__dfrtp_2
*I *4402:CLK I *D sky130_fd_sc_hd__dfrtp_2
*I *4636:X O *D sky130_fd_sc_hd__clkbuf_16
*CAP
1 *4656:A 0.000355518
2 *4405:CLK 4.06461e-05
3 *4408:CLK 0
4 *4446:CLK 0
5 *4412:CLK 9.69906e-05
6 *4413:CLK 2.53826e-05
7 *4402:CLK 0.000578578
8 *4636:X 0.000543082
9 *483:57 0.000515267
10 *483:34 0.000956422
11 *483:23 0.000884814
12 *483:21 0.000296377
13 *483:8 0.00129893
14 *4402:CLK *3853:A 7.6997e-05
15 *4402:CLK *3855:A 6.33334e-05
16 *4402:CLK *3868:A1 0
17 *4402:CLK *4400:RESET_B 0.000312775
18 *4405:CLK *4405:D 6.05161e-06
19 *4412:CLK *4446:RESET_B 4.88537e-05
20 *4412:CLK *707:37 1.6806e-05
21 *4413:CLK *4408:RESET_B 5.33005e-05
22 *4656:A *4405:D 4.6355e-05
23 *483:8 *3853:B 2.12647e-05
24 *483:8 *528:47 0.000641052
25 *483:21 *3853:A 0.000146071
26 *483:21 *4405:D 0.000123352
27 *483:34 *4408:RESET_B 0.000141635
28 *483:34 *4446:RESET_B 3.2033e-05
29 *483:34 *4813:A 0.000141941
30 *483:34 *522:14 3.2033e-05
31 *483:57 *4405:D 0.000187935
32 *3865:B *4402:CLK 5.7119e-05
33 *3887:A2 *4412:CLK 0.000101804
34 *3929:A2 *4402:CLK 0.00014338
35 *3929:A3 *4402:CLK 0.000123068
36 *4408:D *4402:CLK 9.97242e-06
37 *4408:D *483:21 4.26914e-05
38 *99:12 *4402:CLK 5.0198e-05
39 *100:14 *4402:CLK 0.000855771
40 *103:10 *4402:CLK 0.000261044
*RES
1 *4636:X *483:8 20.9071 
2 *483:8 *4402:CLK 29.9786 
3 *483:8 *483:21 4.07143 
4 *483:21 *483:23 4.5 
5 *483:23 *4413:CLK 9.83571 
6 *483:23 *483:34 14.9286 
7 *483:34 *4412:CLK 20.8536 
8 *483:34 *4446:CLK 9.3 
9 *483:23 *4408:CLK 9.3 
10 *483:21 *483:57 2.55357 
11 *483:57 *4405:CLK 14.3357 
12 *483:57 *4656:A 19.4607 
*END

*D_NET *484 0.00687465
*CONN
*I *4590:CLK I *D sky130_fd_sc_hd__dfrtp_2
*I *4440:CLK I *D sky130_fd_sc_hd__dfrtp_2
*I *4589:CLK I *D sky130_fd_sc_hd__dfrtp_2
*I *4588:CLK I *D sky130_fd_sc_hd__dfrtp_2
*I *4593:CLK I *D sky130_fd_sc_hd__dfrtp_2
*I *4592:CLK I *D sky130_fd_sc_hd__dfrtp_2
*I *4637:X O *D sky130_fd_sc_hd__clkbuf_16
*CAP
1 *4590:CLK 0
2 *4440:CLK 0.0006091
3 *4589:CLK 0
4 *4588:CLK 0.000130471
5 *4593:CLK 0.000129836
6 *4592:CLK 0.000114482
7 *4637:X 0.000229285
8 *484:56 0.0006091
9 *484:42 0.000357429
10 *484:36 0.000473249
11 *484:12 0.00106405
12 *484:6 0.0012953
13 *4440:CLK *4440:RESET_B 0.000391449
14 *4440:CLK *4590:D 8.07313e-05
15 *4588:CLK *4589:D 6.05161e-06
16 *4593:CLK *4341:A 5.33433e-05
17 *4593:CLK *4592:D 0.000168698
18 *4593:CLK *4593:D 0
19 *484:6 *3969:A 5.52238e-05
20 *484:6 *3969:B 0.00014183
21 *484:6 *3971:A 0.000186662
22 *484:12 *3964:A 0
23 *484:12 *3965:B 0.000195849
24 *484:12 *4328:A 0
25 *484:12 *4592:D 5.83233e-05
26 *484:12 *4593:D 0
27 *484:12 *939:27 0
28 *484:12 *963:10 0
29 *484:36 *3969:A 0
30 *484:36 *3971:A 0
31 *484:36 *4590:D 0
32 *484:42 *4589:D 7.17235e-05
33 *3966:B *484:42 0
34 *3966:C *484:36 7.48356e-05
35 *3966:C *484:42 4.46186e-06
36 *3970:C *484:12 3.80277e-05
37 *3970:D *484:6 1.02936e-05
38 *3970:D *484:12 5.75147e-05
39 *4337:A2 *484:36 0
40 *4337:A2 *484:42 0
41 *4338:B *484:36 3.34295e-05
42 *181:40 *484:12 0
43 *183:10 *484:12 0
44 *183:12 *484:36 5.08577e-05
45 *188:10 *484:36 0.000150625
46 *189:10 *484:6 3.24201e-05
*RES
1 *4637:X *484:6 13.9429 
2 *484:6 *484:12 19.4643 
3 *484:12 *4592:CLK 15.5679 
4 *484:12 *4593:CLK 16.9964 
5 *484:6 *484:36 9.78571 
6 *484:36 *484:42 8.41071 
7 *484:42 *4588:CLK 11.4786 
8 *484:42 *4589:CLK 9.3 
9 *484:36 *484:56 4.5 
10 *484:56 *4440:CLK 20.675 
11 *484:56 *4590:CLK 9.3 
*END

*D_NET *485 0.00669517
*CONN
*I *4441:CLK I *D sky130_fd_sc_hd__dfrtp_2
*I *4595:CLK I *D sky130_fd_sc_hd__dfrtp_2
*I *4594:CLK I *D sky130_fd_sc_hd__dfrtp_2
*I *4591:CLK I *D sky130_fd_sc_hd__dfrtp_2
*I *4442:CLK I *D sky130_fd_sc_hd__dfrtp_2
*I *4443:CLK I *D sky130_fd_sc_hd__dfrtp_2
*I *4638:X O *D sky130_fd_sc_hd__clkbuf_16
*CAP
1 *4441:CLK 0
2 *4595:CLK 0.00026897
3 *4594:CLK 1.92386e-05
4 *4591:CLK 0
5 *4442:CLK 0.000166522
6 *4443:CLK 0.000291107
7 *4638:X 0.000239603
8 *485:51 0.000511841
9 *485:42 0.000648975
10 *485:36 0.000801319
11 *485:12 0.000651627
12 *485:10 0.000809579
13 *4442:CLK *4729:A 0.000258007
14 *4594:CLK *4594:D 2.80437e-05
15 *4594:CLK *939:46 1.83136e-05
16 *4595:CLK *649:14 0.000139864
17 *485:10 *4596:RESET_B 1.40415e-05
18 *485:42 *4596:RESET_B 0.000230201
19 *485:42 *4670:A 5.38886e-05
20 *485:51 *4594:D 0.000103253
21 *485:51 *4670:A 5.85135e-05
22 *485:51 *649:14 2.11419e-05
23 *4345:B *4595:CLK 4.13573e-05
24 *4345:B *485:51 3.79726e-05
25 *4392:B1 *4443:CLK 8.6332e-05
26 *4392:B1 *485:12 5.93614e-05
27 *4394:A2 *485:10 0.000101566
28 *4394:A2 *485:12 0.000129237
29 *4394:B1 *485:10 0.000187935
30 *4394:B1 *485:12 0.000172679
31 *4397:A *4443:CLK 5.76121e-05
32 *4397:B *4443:CLK 0.000102207
33 *4442:D *4442:CLK 0.000106698
34 *4442:D *4443:CLK 0.000257375
35 *4638:A *485:10 0
36 *4671:A *4595:CLK 2.07878e-05
37 *189:10 *485:51 0
38 *454:8 *4443:CLK 0
39 *454:8 *485:12 0
*RES
1 *4638:X *485:10 18.8179 
2 *485:10 *485:12 4.98214 
3 *485:12 *4443:CLK 20.55 
4 *485:12 *4442:CLK 18.4429 
5 *485:10 *485:36 10.375 
6 *485:36 *485:42 13.7857 
7 *485:42 *4591:CLK 13.8 
8 *485:42 *485:51 4.98214 
9 *485:51 *4594:CLK 14.3357 
10 *485:51 *4595:CLK 19.2464 
11 *485:36 *4441:CLK 9.3 
*END

*D_NET *486 0.00739074
*CONN
*I *4445:CLK I *D sky130_fd_sc_hd__dfrtp_2
*I *4447:CLK I *D sky130_fd_sc_hd__dfrtp_2
*I *4444:CLK I *D sky130_fd_sc_hd__dfstp_2
*I *4485:CLK I *D sky130_fd_sc_hd__dfstp_2
*I *4484:CLK I *D sky130_fd_sc_hd__dfstp_2
*I *4482:CLK I *D sky130_fd_sc_hd__dfstp_2
*I *4639:X O *D sky130_fd_sc_hd__clkbuf_16
*CAP
1 *4445:CLK 0.000437724
2 *4447:CLK 0.000187003
3 *4444:CLK 0
4 *4485:CLK 0.000167164
5 *4484:CLK 3.7022e-05
6 *4482:CLK 0.000818169
7 *4639:X 0.000176147
8 *486:60 0.0010558
9 *486:49 0.000824328
10 *486:12 0.000979632
11 *486:10 0.000460913
12 *486:8 0.000738715
13 *4445:CLK *3886:A 0
14 *4445:CLK *712:10 0
15 *4447:CLK *712:10 0
16 *4447:CLK *712:23 9.71197e-05
17 *486:8 *3871:B1 0.000267821
18 *486:8 *3891:A1 0
19 *486:10 *3891:A1 0
20 *486:10 *4727:A 1.01912e-05
21 *486:10 *710:12 0
22 *486:49 *4368:A1 0.000160653
23 *486:49 *4444:SET_B 2.51837e-05
24 *486:49 *710:26 9.92409e-05
25 *486:49 *1022:6 0.000253554
26 *486:60 *4368:A1 5.71472e-05
27 *3887:B1 *4445:CLK 0
28 *3887:B1 *4447:CLK 0
29 *4086:A2 *4482:CLK 0.000104896
30 *4086:B1 *4482:CLK 0.000220219
31 *4087:A2 *4482:CLK 3.4689e-05
32 *4445:D *4445:CLK 0
33 *121:10 *4485:CLK 4.01768e-05
34 *121:10 *486:10 0
35 *121:19 *486:8 0
36 *121:19 *486:10 0
37 *121:32 *486:8 0
38 *125:10 *4445:CLK 0
39 *125:12 *4445:CLK 0
40 *270:23 *4482:CLK 0
41 *270:23 *486:10 0
42 *270:23 *486:12 0
43 *271:43 *4482:CLK 0
44 *271:56 *4482:CLK 0
45 *271:56 *486:10 0
46 *271:56 *486:12 0
47 *449:181 *486:60 5.03772e-05
48 *449:192 *4447:CLK 8.68569e-05
*RES
1 *4639:X *486:8 17.8714 
2 *486:8 *486:10 2.85714 
3 *486:10 *486:12 2.25 
4 *486:12 *4482:CLK 29.3536 
5 *486:12 *4484:CLK 14.3357 
6 *486:10 *4485:CLK 16.8 
7 *486:8 *486:49 12.8393 
8 *486:49 *4444:CLK 9.3 
9 *486:49 *486:60 11.2143 
10 *486:60 *4447:CLK 17.6036 
11 *486:60 *4445:CLK 21.1393 
*END

*D_NET *487 0.00784545
*CONN
*I *4657:A I *D sky130_fd_sc_hd__clkbuf_4
*I *4481:CLK I *D sky130_fd_sc_hd__dfstp_2
*I *4428:CLK I *D sky130_fd_sc_hd__dfrtp_2
*I *4483:CLK I *D sky130_fd_sc_hd__dfrtp_2
*I *4478:CLK I *D sky130_fd_sc_hd__dfstp_2
*I *4429:CLK I *D sky130_fd_sc_hd__dfrtp_2
*I *4480:CLK I *D sky130_fd_sc_hd__dfrtp_2
*I *4640:X O *D sky130_fd_sc_hd__clkbuf_16
*CAP
1 *4657:A 0.000315677
2 *4481:CLK 0
3 *4428:CLK 0.00142552
4 *4483:CLK 0
5 *4478:CLK 0
6 *4429:CLK 0.000139223
7 *4480:CLK 0.000165288
8 *4640:X 0
9 *487:73 0.000472206
10 *487:33 0.000418569
11 *487:16 0.000691877
12 *487:10 0.000277843
13 *487:8 0.00152299
14 *487:6 0.000223394
15 *4428:CLK *4428:RESET_B 0.000261742
16 *4428:CLK *4795:A 1.05901e-05
17 *4428:CLK *985:8 7.60137e-05
18 *4429:CLK *4478:SET_B 0.000227322
19 *4480:CLK *4077:A2 5.66157e-05
20 *4480:CLK *999:12 4.8813e-05
21 *4657:A *4085:A1_N 0.000233965
22 *487:16 *4077:A2 0.000193592
23 *487:33 *4478:SET_B 0.000187309
24 *487:33 *999:6 2.59355e-05
25 *487:33 *999:12 5.03772e-05
26 *487:73 *4085:A1_N 5.52238e-05
27 *4077:B1 *487:8 3.5707e-05
28 *4077:B1 *487:10 2.19684e-05
29 *4077:B1 *487:16 9.55806e-05
30 *4077:B1 *487:73 9.10431e-06
31 *4080:A1 *4480:CLK 5.83233e-05
32 *4081:B *4480:CLK 0.000128154
33 *4085:A2_N *4657:A 5.50052e-05
34 *4085:B2 *4657:A 7.50473e-05
35 *89:8 *4428:CLK 0
36 *118:14 *487:73 0
37 *271:19 *487:73 0.000223442
38 *272:12 *4480:CLK 0
39 *272:12 *487:16 0
40 *272:20 *4480:CLK 6.30405e-05
*RES
1 *4640:X *487:6 13.8 
2 *487:6 *487:8 1.33929 
3 *487:8 *487:10 0.732143 
4 *487:10 *487:16 5.94643 
5 *487:16 *4480:CLK 18.4786 
6 *487:16 *487:33 10.5179 
7 *487:33 *4429:CLK 13.1214 
8 *487:33 *4478:CLK 9.3 
9 *487:10 *4483:CLK 13.8 
10 *487:8 *4428:CLK 31.7464 
11 *487:6 *487:73 8.19643 
12 *487:73 *4481:CLK 9.3 
13 *487:73 *4657:A 15.6036 
*END

*D_NET *488 0.00702105
*CONN
*I *4522:CLK I *D sky130_fd_sc_hd__dfrtp_2
*I *4523:CLK I *D sky130_fd_sc_hd__dfrtp_2
*I *4492:CLK I *D sky130_fd_sc_hd__dfrtp_2
*I *4491:CLK I *D sky130_fd_sc_hd__dfrtp_2
*I *4494:CLK I *D sky130_fd_sc_hd__dfrtp_2
*I *4493:CLK I *D sky130_fd_sc_hd__dfrtp_2
*I *4641:X O *D sky130_fd_sc_hd__clkbuf_16
*CAP
1 *4522:CLK 0
2 *4523:CLK 9.96459e-05
3 *4492:CLK 5.82875e-05
4 *4491:CLK 0.00044623
5 *4494:CLK 0.000113427
6 *4493:CLK 6.35045e-05
7 *4641:X 0.000614467
8 *488:67 0.000665523
9 *488:32 0.00119627
10 *488:10 0.000356642
11 *488:6 0.000920049
12 *4493:CLK *619:25 5.41609e-05
13 *4494:CLK *4276:B1 0
14 *4494:CLK *619:10 0
15 *4523:CLK *4244:A 1.00375e-05
16 *4523:CLK *4245:A1 0.000117421
17 *488:6 *4492:RESET_B 5.52238e-05
18 *488:6 *675:36 5.52302e-05
19 *488:10 *4276:B1 0
20 *488:10 *4491:RESET_B 0.000171375
21 *488:10 *4493:D 0
22 *488:32 *4492:RESET_B 8.26494e-05
23 *488:32 *934:8 4.66989e-07
24 *488:67 *3982:B 0.000295844
25 *488:67 *4245:A1 0.000154762
26 *488:67 *4522:D 1.00375e-05
27 *488:67 *675:36 5.33334e-05
28 *488:67 *677:14 0.000143044
29 *4242:A *488:67 0
30 *4242:B *4523:CLK 0.000371533
31 *4242:B *488:67 0.000384455
32 *4243:A2 *488:67 6.97972e-05
33 *4244:B *4523:CLK 0.000177234
34 *4271:B *4494:CLK 9.74588e-05
35 *4271:B *488:10 5.80706e-06
36 *4272:A1 *4491:CLK 0
37 *195:47 *488:10 0.000177141
38 *457:10 *488:67 0
*RES
1 *4641:X *488:6 10.2464 
2 *488:6 *488:10 8.875 
3 *488:10 *4493:CLK 15.1571 
4 *488:10 *4494:CLK 16.3536 
5 *488:6 *488:32 7.94643 
6 *488:32 *4491:CLK 23.7643 
7 *488:32 *4492:CLK 10.6929 
8 *4641:X *488:67 26.3536 
9 *488:67 *4523:CLK 18.4786 
10 *488:67 *4522:CLK 13.8 
*END

*D_NET *489 0.00602383
*CONN
*I *4438:CLK I *D sky130_fd_sc_hd__dfrtp_2
*I *4436:CLK I *D sky130_fd_sc_hd__dfrtp_2
*I *4435:CLK I *D sky130_fd_sc_hd__dfrtp_2
*I *4437:CLK I *D sky130_fd_sc_hd__dfrtp_2
*I *4596:CLK I *D sky130_fd_sc_hd__dfrtp_2
*I *4439:CLK I *D sky130_fd_sc_hd__dfrtp_2
*I *4642:X O *D sky130_fd_sc_hd__clkbuf_16
*CAP
1 *4438:CLK 0.000204514
2 *4436:CLK 0.000272475
3 *4435:CLK 0.000197759
4 *4437:CLK 0.000117772
5 *4596:CLK 0.000243
6 *4439:CLK 0
7 *4642:X 0.000159876
8 *489:55 0.000581813
9 *489:42 0.000342206
10 *489:27 0.000905119
11 *489:21 0.000883766
12 *489:10 0.000289864
13 *4435:CLK *4384:A2 5.52302e-05
14 *4436:CLK *715:89 2.63652e-05
15 *4436:CLK *939:46 0
16 *4437:CLK *4348:A 0
17 *4437:CLK *939:46 0.000268403
18 *4438:CLK *4388:A2 0
19 *4438:CLK *4438:RESET_B 4.08637e-05
20 *4596:CLK *4386:A1 2.27416e-05
21 *4596:CLK *4386:A2 0.000145353
22 *4596:CLK *651:16 7.48301e-06
23 *489:10 *4438:RESET_B 0
24 *489:21 *4438:RESET_B 0.000202835
25 *489:21 *4767:A 0
26 *489:21 *709:69 0
27 *489:27 *4386:A1 5.2509e-05
28 *489:27 *4386:A2 7.80714e-06
29 *489:27 *4438:RESET_B 0.000136182
30 *489:27 *4767:A 0.000103004
31 *489:27 *651:16 1.21955e-05
32 *489:27 *709:69 0
33 *489:27 *1020:6 1.92789e-05
34 *489:42 *4386:A1 9.97648e-05
35 *489:42 *709:69 0
36 *489:42 *709:76 0
37 *489:55 *4386:A1 4.56594e-05
38 *489:55 *715:89 4.48583e-05
39 *489:55 *939:46 0
40 *4384:B1 *4435:CLK 0.000206253
41 *4386:B1 *4596:CLK 3.69047e-06
42 *4388:B1 *489:10 0.00010096
43 *4436:D *4436:CLK 0.000101545
44 *4437:D *4437:CLK 3.28285e-05
45 *4438:D *4438:CLK 5.41494e-05
46 *4439:D *489:10 3.5707e-05
*RES
1 *4642:X *489:10 16.6929 
2 *489:10 *4439:CLK 13.8 
3 *489:10 *489:21 7.66071 
4 *489:21 *489:27 12.2143 
5 *489:27 *4596:CLK 18.5857 
6 *489:27 *489:42 2.55357 
7 *489:42 *4437:CLK 16.8179 
8 *489:42 *489:55 2.25 
9 *489:55 *4435:CLK 18.0321 
10 *489:55 *4436:CLK 17.9429 
11 *489:21 *4438:CLK 12.2107 
*END

*D_NET *490 0.00508241
*CONN
*I *4434:CLK I *D sky130_fd_sc_hd__dfrtp_2
*I *4433:CLK I *D sky130_fd_sc_hd__dfrtp_2
*I *4432:CLK I *D sky130_fd_sc_hd__dfrtp_2
*I *4431:CLK I *D sky130_fd_sc_hd__dfrtp_2
*I *4430:CLK I *D sky130_fd_sc_hd__dfrtp_2
*I *4486:CLK I *D sky130_fd_sc_hd__dfrtp_2
*I *4643:X O *D sky130_fd_sc_hd__clkbuf_16
*CAP
1 *4434:CLK 0.000241568
2 *4433:CLK 0.000287885
3 *4432:CLK 4.1323e-05
4 *4431:CLK 0
5 *4430:CLK 0
6 *4486:CLK 0.00042462
7 *4643:X 0.000183929
8 *490:52 0.000643924
9 *490:39 0.00042486
10 *490:30 0.000526251
11 *490:21 0.000379352
12 *490:8 0.000730716
13 *4433:CLK *4434:RESET_B 8.71192e-05
14 *4434:CLK *4378:A1 5.4763e-05
15 *4434:CLK *4378:A2 2.59355e-05
16 *4434:CLK *4766:A 1.58163e-05
17 *4434:CLK *4856:A 0.00019384
18 *4434:CLK *1015:10 0
19 *4486:CLK *3871:B1 0
20 *4486:CLK *3883:A 1.39841e-05
21 *4486:CLK *4369:A 0
22 *4486:CLK *4486:D 7.43578e-06
23 *490:21 *4369:A 0
24 *490:30 *4369:A 0
25 *490:30 *4372:A1 0
26 *490:30 *4372:A3 0
27 *490:39 *4372:A3 0
28 *490:39 *716:65 4.03318e-05
29 *490:39 *716:89 9.27685e-05
30 *490:52 *4378:A1 4.69464e-05
31 *490:52 *716:89 1.12301e-05
32 *3884:B *4486:CLK 0
33 *4093:C *4486:CLK 9.57064e-05
34 *4372:B1 *490:21 0
35 *4372:B1 *490:30 0
36 *4376:B1 *4432:CLK 0.00010946
37 *4430:D *490:30 3.47737e-05
38 *4431:D *490:39 3.79467e-05
39 *4432:D *4432:CLK 4.21568e-05
40 *121:19 *4486:CLK 3.51442e-05
41 *121:32 *4486:CLK 0.000252623
42 *123:10 *4486:CLK 0
*RES
1 *4643:X *490:8 16.8 
2 *490:8 *4486:CLK 22.8714 
3 *490:8 *490:21 2.25 
4 *490:21 *4430:CLK 13.8 
5 *490:21 *490:30 4.98214 
6 *490:30 *4431:CLK 13.8 
7 *490:30 *490:39 5.58929 
8 *490:39 *4432:CLK 15.175 
9 *490:39 *490:52 2.25 
10 *490:52 *4433:CLK 18.4429 
11 *490:52 *4434:CLK 19.0143 
*END

*D_NET *491 0.00678855
*CONN
*I *4418:CLK I *D sky130_fd_sc_hd__dfrtp_2
*I *4423:CLK I *D sky130_fd_sc_hd__dfrtp_2
*I *4419:CLK I *D sky130_fd_sc_hd__dfrtp_2
*I *4422:CLK I *D sky130_fd_sc_hd__dfrtp_2
*I *4530:CLK I *D sky130_fd_sc_hd__dfrtp_2
*I *4524:CLK I *D sky130_fd_sc_hd__dfrtp_2
*I *4644:X O *D sky130_fd_sc_hd__clkbuf_16
*CAP
1 *4418:CLK 4.15889e-05
2 *4423:CLK 0.000138356
3 *4419:CLK 0
4 *4422:CLK 8.61506e-05
5 *4530:CLK 0.000433308
6 *4524:CLK 0.000313611
7 *4644:X 0.000562233
8 *491:51 0.000307277
9 *491:18 0.00115313
10 *491:16 0.000630029
11 *491:14 0.000860938
12 *491:6 0.00115817
13 *4423:CLK *4418:RESET_B 0
14 *4524:CLK *4008:A 0
15 *4524:CLK *4523:RESET_B 4.46186e-06
16 *4524:CLK *876:16 0.000101545
17 *4530:CLK *4522:RESET_B 0.000362681
18 *4530:CLK *876:16 3.40725e-05
19 *491:6 *4448:CLK 6.62868e-05
20 *491:14 *4418:RESET_B 0.000188002
21 *491:51 *4418:RESET_B 0
22 *4242:A *491:18 0
23 *4418:D *491:6 3.80688e-05
24 *4419:D *4423:CLK 0
25 *4644:A *4418:CLK 3.76337e-05
26 *4644:A *491:6 3.48705e-05
27 *4644:A *491:14 0.000236142
28 *4644:A *491:16 0
29 *449:284 *491:18 0
30 *450:10 *4524:CLK 0
31 *450:10 *491:18 0
32 *457:10 *491:16 0
33 *457:10 *491:18 0
*RES
1 *4644:X *491:6 16.4071 
2 *491:6 *491:14 12.9821 
3 *491:14 *491:16 2.25 
4 *491:16 *491:18 7.10714 
5 *491:18 *4524:CLK 19.0679 
6 *491:18 *4530:CLK 22.9607 
7 *491:16 *4422:CLK 15.1571 
8 *491:14 *491:51 2.85714 
9 *491:51 *4419:CLK 13.8 
10 *491:51 *4423:CLK 16.3536 
11 *491:6 *4418:CLK 10.6929 
*END

*D_NET *492 0.00529694
*CONN
*I *4526:CLK I *D sky130_fd_sc_hd__dfrtp_2
*I *4525:CLK I *D sky130_fd_sc_hd__dfrtp_2
*I *4509:CLK I *D sky130_fd_sc_hd__dfrtp_2
*I *4510:CLK I *D sky130_fd_sc_hd__dfrtp_2
*I *4511:CLK I *D sky130_fd_sc_hd__dfrtp_2
*I *4512:CLK I *D sky130_fd_sc_hd__dfrtp_2
*I *4645:X O *D sky130_fd_sc_hd__clkbuf_16
*CAP
1 *4526:CLK 0.000304417
2 *4525:CLK 3.72704e-05
3 *4509:CLK 0.000112137
4 *4510:CLK 0
5 *4511:CLK 5.82236e-05
6 *4512:CLK 0.000141574
7 *4645:X 0.000193331
8 *492:58 0.000473726
9 *492:18 0.000398025
10 *492:16 0.000310635
11 *492:10 0.000436008
12 *492:8 0.000536833
13 *4511:CLK *4213:A1 1.98839e-05
14 *4511:CLK *4213:B1 5.50052e-05
15 *4511:CLK *4511:D 9.67754e-05
16 *4512:CLK *4216:B1 0.000126278
17 *4512:CLK *662:16 2.28343e-05
18 *4526:CLK *4662:A 0.000234672
19 *4526:CLK *4682:A 0
20 *4526:CLK *597:20 0
21 *492:8 *4252:B1 2.89016e-05
22 *492:8 *597:20 5.52302e-05
23 *492:8 *597:31 5.71472e-05
24 *492:10 *4252:B1 6.39901e-05
25 *492:10 *597:31 0
26 *492:10 *662:14 0.000123912
27 *492:16 *4211:B1 2.48938e-05
28 *492:16 *4509:D 7.15591e-05
29 *492:16 *662:14 0.000206093
30 *492:18 *4211:B1 0.000223907
31 *492:18 *662:14 0.000237583
32 *492:18 *662:16 0.000337339
33 *492:58 *4525:D 0
34 *4213:A2 *492:18 1.12578e-05
35 *4215:A *4512:CLK 0.000124611
36 *4252:A2 *4526:CLK 0
37 *4252:A2 *492:10 0
38 *4252:A2 *492:58 0
39 *216:8 *4512:CLK 3.29297e-05
40 *216:8 *492:18 0.000139954
*RES
1 *4645:X *492:8 17.2107 
2 *492:8 *492:10 4.98214 
3 *492:10 *492:16 3.51786 
4 *492:16 *492:18 7.41071 
5 *492:18 *4512:CLK 17.1214 
6 *492:18 *4511:CLK 15.1571 
7 *492:16 *4510:CLK 13.8 
8 *492:10 *4509:CLK 15.5679 
9 *492:8 *492:58 2.25 
10 *492:58 *4525:CLK 14.3357 
11 *492:58 *4526:CLK 19.7643 
*END

*D_NET *493 0.00426126
*CONN
*I *4535:CLK I *D sky130_fd_sc_hd__dfrtp_2
*I *4536:CLK I *D sky130_fd_sc_hd__dfrtp_2
*I *4537:CLK I *D sky130_fd_sc_hd__dfrtp_2
*I *4539:CLK I *D sky130_fd_sc_hd__dfrtp_2
*I *4538:CLK I *D sky130_fd_sc_hd__dfrtp_2
*I *4540:CLK I *D sky130_fd_sc_hd__dfrtp_2
*I *4646:X O *D sky130_fd_sc_hd__clkbuf_16
*CAP
1 *4535:CLK 0.000170269
2 *4536:CLK 6.71205e-05
3 *4537:CLK 3.5568e-05
4 *4539:CLK 0
5 *4538:CLK 0
6 *4540:CLK 0.000330878
7 *4646:X 9.05099e-05
8 *493:16 0.000505898
9 *493:14 0.000375454
10 *493:12 0.000453277
11 *493:10 0.000372824
12 *493:8 0.000349207
13 *4535:CLK *4165:B1 2.89016e-05
14 *4535:CLK *4166:A1 0.000129166
15 *4535:CLK *4535:RESET_B 9.71197e-05
16 *4537:CLK *4537:D 7.3237e-05
17 *4537:CLK *542:43 0.000139913
18 *4540:CLK *4176:B1 0.00010402
19 *493:10 *4166:A1 7.92879e-05
20 *493:12 *4166:A1 0.000103958
21 *493:12 *4166:A2 0
22 *493:12 *4168:A1 0
23 *493:12 *4537:D 4.57538e-05
24 *493:12 *652:10 7.83462e-05
25 *493:14 *4168:A1 0
26 *493:14 *4539:D 2.58997e-05
27 *493:14 *542:45 0
28 *493:14 *652:10 0.000209574
29 *493:16 *4176:B1 3.02801e-05
30 *493:16 *4539:D 0.000181747
31 *493:16 *652:10 0.000111951
32 *493:16 *652:12 5.71119e-05
33 *4165:A2 *4535:CLK 1.39841e-05
34 *4168:A2 *493:12 0
*RES
1 *4646:X *493:8 14.7464 
2 *493:8 *493:10 1.94643 
3 *493:10 *493:12 4.98214 
4 *493:12 *493:14 4.98214 
5 *493:14 *493:16 4.98214 
6 *493:16 *4540:CLK 19.8357 
7 *493:16 *4538:CLK 13.8 
8 *493:14 *4539:CLK 13.8 
9 *493:12 *4537:CLK 15.1571 
10 *493:10 *4536:CLK 14.7464 
11 *493:8 *4535:CLK 17.9071 
*END

*D_NET *494 0.00867292
*CONN
*I *4528:CLK I *D sky130_fd_sc_hd__dfrtp_2
*I *4527:CLK I *D sky130_fd_sc_hd__dfrtp_2
*I *4470:CLK I *D sky130_fd_sc_hd__dfrtp_2
*I *4469:CLK I *D sky130_fd_sc_hd__dfrtp_2
*I *4450:CLK I *D sky130_fd_sc_hd__dfrtp_2
*I *4448:CLK I *D sky130_fd_sc_hd__dfstp_2
*I *4647:X O *D sky130_fd_sc_hd__clkbuf_16
*CAP
1 *4528:CLK 0
2 *4527:CLK 0.00034442
3 *4470:CLK 6.86331e-05
4 *4469:CLK 0.000104883
5 *4450:CLK 0
6 *4448:CLK 0.000168496
7 *4647:X 1.20577e-05
8 *494:60 0.000694625
9 *494:32 0.000552082
10 *494:23 0.000530787
11 *494:12 0.000522194
12 *494:6 0.000563738
13 *4470:CLK *4470:D 4.25716e-05
14 *4527:CLK *4260:B1 1.41029e-05
15 *4527:CLK *4527:D 2.59355e-05
16 *4527:CLK *4662:A 0.000195562
17 *4527:CLK *597:10 0.00012401
18 *4527:CLK *608:14 0.000120063
19 *4527:CLK *608:16 0.000349137
20 *4527:CLK *663:57 0
21 *4527:CLK *879:25 4.51611e-05
22 *494:6 *4012:A 4.27935e-05
23 *494:12 *3909:B 0.000196269
24 *494:12 *4012:A 9.90367e-05
25 *494:23 *3909:B 0.000128161
26 *494:32 *3954:B 5.85228e-05
27 *494:32 *4450:D 5.29554e-05
28 *494:32 *4469:D 0.000344932
29 *494:32 *4470:D 7.58571e-05
30 *494:60 *4260:B1 3.90513e-05
31 *494:60 *4663:A 0.000236203
32 *494:60 *608:14 0.000183674
33 *494:60 *884:10 3.92757e-05
34 *3911:A *4469:CLK 0
35 *3913:B2 *4470:CLK 7.38652e-05
36 *3913:B2 *494:32 0.000282811
37 *4011:D *4527:CLK 0.000364974
38 *4256:A *4527:CLK 6.97972e-05
39 *4257:A2 *4527:CLK 7.79781e-06
40 *4261:A1 *494:12 0.000245349
41 *4261:A1 *494:60 0.000226817
42 *4262:B *494:12 0
43 *4262:B *494:60 6.82922e-05
44 *86:21 *4469:CLK 0.000181803
45 *107:47 *494:12 8.89289e-05
46 *107:47 *494:23 0.000303963
47 *111:18 *4448:CLK 0.000178459
48 *111:18 *494:23 2.18733e-05
49 *111:28 *494:23 0.000106542
50 *111:28 *494:32 0.00023777
51 *138:25 *494:23 0
52 *138:25 *494:32 0
53 *148:12 *4470:CLK 0
54 *148:12 *494:32 0
55 *224:49 *4527:CLK 9.3111e-05
56 *227:10 *494:60 0
57 *449:266 *494:6 2.89114e-05
58 *449:266 *494:12 5.03772e-05
59 *491:6 *4448:CLK 6.62868e-05
*RES
1 *4647:X *494:6 9.83571 
2 *494:6 *494:12 10.7321 
3 *494:12 *4448:CLK 18.0321 
4 *494:12 *494:23 4.98214 
5 *494:23 *4450:CLK 13.8 
6 *494:23 *494:32 12.5714 
7 *494:32 *4469:CLK 15.9964 
8 *494:32 *4470:CLK 15.7464 
9 *494:6 *494:60 15 
10 *494:60 *4527:CLK 25.1036 
11 *494:60 *4528:CLK 13.8 
*END

*D_NET *495 0.00918458
*CONN
*I *4406:CLK I *D sky130_fd_sc_hd__dfrtp_2
*I *4449:CLK I *D sky130_fd_sc_hd__dfrtp_2
*I *4425:CLK I *D sky130_fd_sc_hd__dfrtp_2
*I *4409:CLK I *D sky130_fd_sc_hd__dfrtp_2
*I *4529:CLK I *D sky130_fd_sc_hd__dfrtp_2
*I *4471:CLK I *D sky130_fd_sc_hd__dfrtp_2
*I *4652:A I *D sky130_fd_sc_hd__clkbuf_4
*I *4648:X O *D sky130_fd_sc_hd__clkbuf_16
*CAP
1 *4406:CLK 0.000380127
2 *4449:CLK 0.000440397
3 *4425:CLK 0
4 *4409:CLK 0.000125428
5 *4529:CLK 0.000657832
6 *4471:CLK 0.00021165
7 *4652:A 1.99379e-05
8 *4648:X 0
9 *495:44 0.00078326
10 *495:33 0.000445929
11 *495:23 0.000388346
12 *495:15 0.000594464
13 *495:6 0.000440734
14 *495:4 0.000800923
15 *4406:CLK *3851:A1 0
16 *4406:CLK *3915:A0 0
17 *4406:CLK *3930:A2 0
18 *4406:CLK *501:14 0
19 *4406:CLK *518:14 0
20 *4406:CLK *519:38 0.000151333
21 *4406:CLK *752:19 0
22 *4409:CLK *3849:A2 0.0003377
23 *4409:CLK *3870:A1 4.96691e-05
24 *4409:CLK *3870:A2 2.18495e-05
25 *4409:CLK *3870:C1 2.59355e-05
26 *4449:CLK *3846:B 0.000125724
27 *4449:CLK *3847:B1 0.000171375
28 *4449:CLK *518:46 0
29 *4449:CLK *751:10 0.000106552
30 *4471:CLK *3870:C1 0.000125717
31 *4471:CLK *4360:A1 0.00013146
32 *4471:CLK *4471:D 0
33 *4471:CLK *747:55 3.17148e-05
34 *4529:CLK *3849:A2 5.33005e-05
35 *4529:CLK *3870:C1 6.05161e-06
36 *4529:CLK *4528:RESET_B 2.51343e-06
37 *4652:A *669:50 9.90367e-05
38 *495:6 *669:50 0.00065196
39 *495:23 *4425:RESET_B 9.90367e-05
40 *495:33 *3851:A2 5.41794e-05
41 *495:33 *3870:C1 5.66157e-05
42 *495:33 *4425:RESET_B 2.14757e-05
43 *495:33 *747:55 0.000164554
44 *3851:A3 *4449:CLK 0
45 *3869:B *495:23 0
46 *3869:B *495:33 3.34366e-05
47 *3870:B1 *4409:CLK 1.56e-05
48 *3870:B1 *4529:CLK 2.77143e-05
49 *3870:B1 *495:33 0.00015886
50 *4349:A3 *4449:CLK 4.06782e-05
51 *4359:B *4449:CLK 0.000129015
52 *4359:B *495:23 7.2754e-05
53 *4359:B *495:33 0
54 *4360:B1 *4471:CLK 0
55 *4409:D *4409:CLK 1.92905e-05
56 *4425:D *495:33 0.000182726
57 *4648:A *4652:A 5.33334e-05
58 *4648:A *495:6 8.70693e-05
59 *4677:A *4471:CLK 0
60 *96:12 *4449:CLK 0.000183674
61 *98:16 *4449:CLK 0.000191403
62 *111:10 *4449:CLK 5.90416e-05
63 *111:61 *4449:CLK 7.04538e-05
64 *160:27 *4449:CLK 4.98055e-06
65 *449:241 *4529:CLK 7.77652e-05
*RES
1 *4648:X *495:4 9.3 
2 *495:4 *495:6 8.75 
3 *495:6 *4652:A 10.2464 
4 *495:6 *495:15 4.5 
5 *495:15 *495:23 7.82143 
6 *495:23 *495:33 11.2857 
7 *495:33 *4471:CLK 18.175 
8 *495:33 *495:44 4.5 
9 *495:44 *4529:CLK 19.7107 
10 *495:44 *4409:CLK 13.1393 
11 *495:23 *4425:CLK 9.3 
12 *495:15 *4449:CLK 26.0679 
13 *495:4 *4406:CLK 25.05 
*END

*D_NET *496 0.00843095
*CONN
*I *4473:CLK I *D sky130_fd_sc_hd__dfrtp_2
*I *4472:CLK I *D sky130_fd_sc_hd__dfrtp_2
*I *4499:CLK I *D sky130_fd_sc_hd__dfrtp_2
*I *4498:CLK I *D sky130_fd_sc_hd__dfrtp_2
*I *4497:CLK I *D sky130_fd_sc_hd__dfrtp_2
*I *4496:CLK I *D sky130_fd_sc_hd__dfrtp_2
*I *4495:CLK I *D sky130_fd_sc_hd__dfrtp_2
*I *4649:X O *D sky130_fd_sc_hd__clkbuf_16
*CAP
1 *4473:CLK 0
2 *4472:CLK 0.000186471
3 *4499:CLK 0.000266361
4 *4498:CLK 2.22847e-05
5 *4497:CLK 0.000216314
6 *4496:CLK 0.000229095
7 *4495:CLK 7.86152e-05
8 *4649:X 0.00051481
9 *496:88 0.000593746
10 *496:46 0.00027527
11 *496:24 0.000571025
12 *496:22 0.000856412
13 *496:8 0.000930324
14 *4472:CLK *714:20 0.000366682
15 *4495:CLK *4281:A 0.000170438
16 *4495:CLK *4282:B1 5.83157e-05
17 *4495:CLK *4496:D 7.98318e-05
18 *4496:CLK *4496:D 0.000110118
19 *4497:CLK *4283:A 0.000251598
20 *4499:CLK *4285:A 5.56241e-05
21 *4499:CLK *4287:A 7.74068e-05
22 *4499:CLK *4499:D 1.0033e-05
23 *4499:CLK *683:38 0.00049981
24 *496:22 *4497:D 5.72546e-05
25 *496:22 *4827:A 7.70035e-05
26 *496:24 *4281:A 0.000114972
27 *496:24 *4282:B1 1.30594e-05
28 *496:24 *4496:D 0.000147725
29 *496:88 *714:20 0.00015304
30 *4283:B *4497:CLK 5.49544e-05
31 *4283:B *496:22 3.12359e-05
32 *4283:B *496:24 0.000261758
33 *4283:B *496:46 9.58126e-05
34 *4284:A1 *496:22 2.18902e-05
35 *4284:A2 *4497:CLK 2.37144e-05
36 *4284:A2 *496:22 0.000276864
37 *4284:A2 *496:24 0.000104198
38 *4284:A2 *496:46 8.9719e-06
39 *4286:A2 *4499:CLK 0.000216291
40 *4473:D *4472:CLK 0
41 *203:21 *496:24 0.000149966
42 *204:16 *496:8 9.41642e-05
43 *204:16 *496:22 9.41642e-05
44 *205:10 *4499:CLK 1.33248e-05
*RES
1 *4649:X *496:8 11.0857 
2 *496:8 *496:22 14.125 
3 *496:22 *496:24 7.71429 
4 *496:24 *4495:CLK 16.3536 
5 *496:24 *4496:CLK 18.0321 
6 *496:22 *496:46 5.44643 
7 *496:46 *4497:CLK 22.8357 
8 *496:46 *4498:CLK 9.72857 
9 *496:8 *4499:CLK 26.0143 
10 *4649:X *496:88 19.5679 
11 *496:88 *4472:CLK 18.4786 
12 *496:88 *4473:CLK 13.8 
*END

*D_NET *497 0.00715696
*CONN
*I *4417:CLK I *D sky130_fd_sc_hd__dfrtp_2
*I *4421:CLK I *D sky130_fd_sc_hd__dfrtp_2
*I *4464:CLK I *D sky130_fd_sc_hd__dfrtp_2
*I *4468:CLK I *D sky130_fd_sc_hd__dfrtp_2
*I *4467:CLK I *D sky130_fd_sc_hd__dfrtp_2
*I *4463:CLK I *D sky130_fd_sc_hd__dfrtp_2
*I *4653:A I *D sky130_fd_sc_hd__clkbuf_4
*I *4650:X O *D sky130_fd_sc_hd__clkbuf_16
*CAP
1 *4417:CLK 0
2 *4421:CLK 0.000212731
3 *4464:CLK 0
4 *4468:CLK 0.000210889
5 *4467:CLK 0.000202078
6 *4463:CLK 0
7 *4653:A 3.16258e-05
8 *4650:X 0.000292861
9 *497:77 0.000647829
10 *497:44 0.000503337
11 *497:35 0.000342852
12 *497:29 0.000516151
13 *497:27 0.00112997
14 *497:10 0.000755691
15 *4421:CLK *4417:RESET_B 0
16 *4421:CLK *642:28 0.000138015
17 *4468:CLK *4702:A 1.24368e-05
18 *4468:CLK *714:20 0.00011503
19 *4653:A *672:55 3.02801e-05
20 *497:10 *672:55 4.27842e-06
21 *497:10 *672:89 4.45753e-05
22 *497:27 *3908:C 9.84673e-05
23 *497:35 *714:20 0.000120654
24 *497:44 *714:20 8.44646e-05
25 *497:77 *3898:C 8.95863e-05
26 *497:77 *3899:A 0
27 *497:77 *4417:RESET_B 0
28 *497:77 *4472:RESET_B 0.000384267
29 *497:77 *4746:A 4.38511e-05
30 *497:77 *4747:A 0
31 *497:77 *503:10 0
32 *497:77 *642:28 8.63888e-05
33 *497:77 *684:46 5.74242e-05
34 *497:77 *684:48 0.000366861
35 *3908:A *497:27 6.48098e-05
36 *4054:A1 *4467:CLK 9.84729e-05
37 *4417:D *497:77 0
38 *4421:D *4421:CLK 9.25014e-06
39 *4464:D *4467:CLK 9.84673e-05
40 *4467:D *4467:CLK 7.86899e-05
41 *4467:D *4468:CLK 4.96177e-05
42 *142:14 *497:10 9.15842e-06
43 *261:41 *497:27 0.000137206
44 *261:41 *497:29 8.86895e-05
*RES
1 *4650:X *497:10 17.7286 
2 *497:10 *4653:A 14.5321 
3 *497:10 *497:27 12.5714 
4 *497:27 *497:29 4.64286 
5 *497:29 *497:35 9.71429 
6 *497:35 *4463:CLK 13.8 
7 *497:35 *497:44 2.25 
8 *497:44 *4467:CLK 18.175 
9 *497:44 *4468:CLK 18.425 
10 *497:29 *4464:CLK 9.3 
11 *497:27 *497:77 16.7679 
12 *497:77 *4421:CLK 18.3357 
13 *497:77 *4417:CLK 13.8 
*END

*D_NET *498 0.00736882
*CONN
*I *4744:A I *D sky130_fd_sc_hd__dlygate4sd3_1
*I *4349:B2 I *D sky130_fd_sc_hd__o32a_2
*I *4415:Q O *D sky130_fd_sc_hd__dfrtp_2
*CAP
1 *4744:A 0.000183636
2 *4349:B2 0.00192219
3 *4415:Q 0.000876893
4 *498:14 0.00298272
5 *4349:B2 *3910:B 0.000106882
6 *4349:B2 *3910:C 9.0573e-05
7 *4349:B2 *3910:D 1.58163e-05
8 *4349:B2 *4068:B 1.21258e-05
9 *4349:B2 *4361:A0 4.88546e-05
10 *4349:B2 *4361:S 0.000239702
11 *4349:B2 *732:10 5.83304e-05
12 *4744:A *3950:A1 5.12583e-05
13 *4744:A *4361:A0 7.89303e-05
14 *4744:A *4403:RESET_B 0
15 *498:14 *3952:B1 6.87831e-06
16 *498:14 *4361:S 0.000161878
17 *498:14 *4415:RESET_B 9.42205e-05
18 *498:14 *713:12 0.000270236
19 *4068:C *4349:B2 2.89114e-05
20 *4349:A3 *4349:B2 9.25014e-06
21 *165:6 *4744:A 2.85321e-05
22 *261:69 *4349:B2 1.18358e-05
23 *428:8 *4349:B2 1.96125e-05
24 *482:8 *4349:B2 6.95595e-05
*RES
1 *4415:Q *498:14 30.6393 
2 *498:14 *4349:B2 42.675 
3 *498:14 *4744:A 21.9964 
*END

*D_NET *499 0.00354752
*CONN
*I *4751:A I *D sky130_fd_sc_hd__dlygate4sd3_1
*I *4353:B2 I *D sky130_fd_sc_hd__o32a_2
*I *4407:Q O *D sky130_fd_sc_hd__dfrtp_2
*CAP
1 *4751:A 0.000585415
2 *4353:B2 0.000655943
3 *4407:Q 0
4 *499:4 0.00124136
5 *4353:B2 *4071:A1 0.000315165
6 *4353:B2 *668:10 0.000113359
7 *4751:A *4072:A1 7.43578e-06
8 *3941:A *4751:A 1.21289e-05
9 *4349:A3 *4353:B2 8.16036e-05
10 *4410:CLK *4751:A 0.000366252
11 *264:8 *4353:B2 0.000153047
12 *449:13 *4751:A 0
13 *482:27 *4751:A 1.58163e-05
*RES
1 *4407:Q *499:4 9.3 
2 *499:4 *4353:B2 31.0679 
3 *499:4 *4751:A 27.4429 
*END

*D_NET *500 0.00471917
*CONN
*I *3944:B1 I *D sky130_fd_sc_hd__a21o_2
*I *3915:A1 I *D sky130_fd_sc_hd__mux2_1
*I *4799:A I *D sky130_fd_sc_hd__dlygate4sd3_1
*I *4409:Q O *D sky130_fd_sc_hd__dfrtp_2
*CAP
1 *3944:B1 0.000632102
2 *3915:A1 0.000966722
3 *4799:A 4.03052e-05
4 *4409:Q 0.000415183
5 *500:10 0.000790108
6 *3915:A1 *3850:A_N 2.14757e-05
7 *3915:A1 *3915:A0 5.52238e-05
8 *3915:A1 *3915:S 5.33005e-05
9 *3915:A1 *4360:B2 9.25014e-06
10 *3915:A1 *4409:RESET_B 0.000143455
11 *3915:A1 *4688:A 6.52407e-05
12 *3915:A1 *669:46 0.000367577
13 *3915:A1 *669:76 0.000139653
14 *3944:B1 *3850:A_N 5.33005e-05
15 *3944:B1 *3915:A0 0.000284106
16 *3944:B1 *3944:A1 6.32838e-05
17 *3944:B1 *4836:A 1.21258e-05
18 *4799:A *3851:A1 1.96726e-05
19 *500:10 *4360:B2 0.00012401
20 *500:10 *4409:RESET_B 0.00017473
21 *3933:A2 *3915:A1 1.08359e-05
22 *3945:B2 *3944:B1 5.52238e-05
23 *107:92 *3915:A1 0
24 *107:111 *500:10 0.000186488
25 *162:16 *3915:A1 0
26 *449:226 *4799:A 3.5801e-05
*RES
1 *4409:Q *500:10 20.4964 
2 *500:10 *4799:A 14.8893 
3 *500:10 *3915:A1 22.8179 
4 *3915:A1 *3944:B1 27.2607 
*END

*D_NET *501 0.0022753
*CONN
*I *3915:A0 I *D sky130_fd_sc_hd__mux2_1
*I *4772:A I *D sky130_fd_sc_hd__dlygate4sd3_1
*I *3933:B1 I *D sky130_fd_sc_hd__a21o_2
*I *4401:Q O *D sky130_fd_sc_hd__dfrtp_2
*CAP
1 *3915:A0 0.000252878
2 *4772:A 0.000105874
3 *3933:B1 3.18784e-05
4 *4401:Q 9.05099e-05
5 *501:14 0.000304827
6 *501:8 0.000510462
7 *3915:A0 *3850:A_N 9.60875e-05
8 *3915:A0 *3915:S 1.98839e-05
9 *3915:A0 *4836:A 9.90367e-05
10 *3915:A0 *518:14 3.17148e-05
11 *3915:A0 *519:38 0.000111451
12 *501:14 *519:26 0
13 *501:14 *519:38 0
14 *3915:A1 *3915:A0 5.52238e-05
15 *3934:B2 *3915:A0 6.07232e-05
16 *3934:B2 *4772:A 9.90431e-05
17 *3934:B2 *501:14 0.000121606
18 *3944:B1 *3915:A0 0.000284106
19 *4406:CLK *3915:A0 0
20 *4406:CLK *501:14 0
*RES
1 *4401:Q *501:8 14.7464 
2 *501:8 *501:14 8.19643 
3 *501:14 *3933:B1 9.83571 
4 *501:14 *4772:A 11.4786 
5 *501:8 *3915:A0 21.6214 
*END

*D_NET *502 0.00181842
*CONN
*I *4773:A I *D sky130_fd_sc_hd__dlygate4sd3_1
*I *3897:A1 I *D sky130_fd_sc_hd__o21a_2
*I *4461:Q O *D sky130_fd_sc_hd__dfrtp_2
*CAP
1 *4773:A 0.000253341
2 *3897:A1 0.0004302
3 *4461:Q 0
4 *502:6 0.000683541
5 *3897:A1 *541:10 0.0003094
6 *3897:A1 *668:23 0.000141935
*RES
1 *4461:Q *502:6 13.8 
2 *502:6 *3897:A1 23.6393 
3 *502:6 *4773:A 18.3179 
*END

*D_NET *503 0.00133194
*CONN
*I *4747:A I *D sky130_fd_sc_hd__dlygate4sd3_1
*I *3898:B I *D sky130_fd_sc_hd__or3_2
*I *4472:Q O *D sky130_fd_sc_hd__dfrtp_2
*CAP
1 *4747:A 4.04495e-05
2 *3898:B 0.000310767
3 *4472:Q 0.000155196
4 *503:10 0.000506412
5 *3898:B *3898:A 0.000130012
6 *3898:B *4066:A 0.000183713
7 *4417:D *503:10 5.39629e-06
8 *497:77 *4747:A 0
9 *497:77 *503:10 0
*RES
1 *4472:Q *503:10 15.7821 
2 *503:10 *3898:B 18.0321 
3 *503:10 *4747:A 14.5321 
*END

*D_NET *504 0.00159206
*CONN
*I *4746:A I *D sky130_fd_sc_hd__dlygate4sd3_1
*I *3898:C I *D sky130_fd_sc_hd__or3_2
*I *4473:Q O *D sky130_fd_sc_hd__dfrtp_2
*CAP
1 *4746:A 3.99691e-05
2 *3898:C 0.000168958
3 *4473:Q 0
4 *504:6 0.000208927
5 *3898:C *3898:A 0.000354996
6 *3900:C *3898:C 0.000202835
7 *3900:C *4746:A 0.000129868
8 *266:10 *3898:C 0.000353073
9 *497:77 *3898:C 8.95863e-05
10 *497:77 *4746:A 4.38511e-05
*RES
1 *4473:Q *504:6 13.8 
2 *504:6 *3898:C 20.3714 
3 *504:6 *4746:A 15.4429 
*END

*D_NET *505 0.00277494
*CONN
*I *4738:A I *D sky130_fd_sc_hd__dlygate4sd3_1
*I *3901:B I *D sky130_fd_sc_hd__or3_2
*I *4457:Q O *D sky130_fd_sc_hd__dfrtp_2
*CAP
1 *4738:A 0.000208984
2 *3901:B 0.000521365
3 *4457:Q 0.000730349
4 *3901:B *4064:A2 0.000183518
5 *3901:B *668:31 1.62025e-05
6 *3904:B *4738:A 0.000102004
7 *3905:A1 *3901:B 2.29112e-05
8 *3905:A1 *4738:A 4.27842e-06
9 *3905:A3 *3901:B 0.00014852
10 *4064:A3 *3901:B 5.60178e-05
11 *4458:D *3901:B 0.000481218
12 *4458:D *4738:A 0.000126416
13 *86:71 *4738:A 5.50052e-05
14 *259:38 *4738:A 6.57675e-05
15 *449:57 *4738:A 5.23822e-05
*RES
1 *4457:Q *3901:B 36.5286 
2 *4457:Q *4738:A 33.1536 
*END

*D_NET *506 0.00171249
*CONN
*I *4848:A I *D sky130_fd_sc_hd__dlygate4sd3_1
*I *3901:C I *D sky130_fd_sc_hd__or3_2
*I *4458:Q O *D sky130_fd_sc_hd__dfrtp_2
*CAP
1 *4848:A 7.21478e-05
2 *3901:C 0.000339894
3 *4458:Q 0.000114959
4 *506:8 0.000527001
5 *3901:C *3837:A 0.000149113
6 *3901:C *4063:A1 6.45351e-05
7 *3901:C *666:58 4.27842e-06
8 *4848:A *4063:A1 0.000131845
9 *4848:A *4063:A2 0.000175281
10 *506:8 *4063:A2 3.32737e-05
11 *3905:A2 *3901:C 3.17215e-05
12 *4457:D *3901:C 3.54498e-05
13 *4457:D *4848:A 3.29901e-05
*RES
1 *4458:Q *506:8 15.1571 
2 *506:8 *3901:C 20.6036 
3 *506:8 *4848:A 16.9607 
*END

*D_NET *507 0.00247127
*CONN
*I *4759:A I *D sky130_fd_sc_hd__dlygate4sd3_1
*I *3893:A2 I *D sky130_fd_sc_hd__o311a_2
*I *4459:Q O *D sky130_fd_sc_hd__dfrtp_2
*CAP
1 *4759:A 0.000217395
2 *3893:A2 0.000271217
3 *4459:Q 0
4 *507:6 0.000488612
5 *3893:A2 *3893:A3 0.000630967
6 *3893:A2 *3893:C1 9.21524e-05
7 *4759:A *3893:A3 0.000204278
8 *4759:A *4753:A 5.81001e-05
9 *4056:A *4759:A 8.6229e-06
10 *4056:B *4759:A 9.75679e-05
11 *4058:A3 *3893:A2 4.70947e-05
12 *4058:A3 *4759:A 0.000211651
13 *4623:A *4759:A 0.000139338
14 *264:8 *3893:A2 4.27842e-06
*RES
1 *4459:Q *507:6 13.8 
2 *507:6 *3893:A2 21.2107 
3 *507:6 *4759:A 21.4071 
*END

*D_NET *508 0.00252408
*CONN
*I *4753:A I *D sky130_fd_sc_hd__dlygate4sd3_1
*I *3893:A3 I *D sky130_fd_sc_hd__o311a_2
*I *4460:Q O *D sky130_fd_sc_hd__dfrtp_2
*CAP
1 *4753:A 0.000171041
2 *3893:A3 0.000384614
3 *4460:Q 0
4 *508:6 0.000555656
5 *4753:A *714:69 2.89114e-05
6 *3893:A2 *3893:A3 0.000630967
7 *4055:B *4753:A 0.000116014
8 *4056:A *4753:A 6.69778e-05
9 *4759:A *3893:A3 0.000204278
10 *4759:A *4753:A 5.81001e-05
11 *261:69 *3893:A3 0.000257265
12 *261:69 *4753:A 4.41092e-05
13 *264:8 *3893:A3 6.14702e-06
*RES
1 *4460:Q *508:6 13.8 
2 *508:6 *3893:A3 24.6393 
3 *508:6 *4753:A 18.4071 
*END

*D_NET *509 0.00183307
*CONN
*I *3842:A I *D sky130_fd_sc_hd__inv_2
*I *3897:A2 I *D sky130_fd_sc_hd__o21a_2
*I *4462:Q O *D sky130_fd_sc_hd__dfrtp_2
*CAP
1 *3842:A 0
2 *3897:A2 0.000116749
3 *4462:Q 0.000415138
4 *509:10 0.000531887
5 *3897:A2 *4058:B1 3.45899e-05
6 *3897:A2 *541:10 0.00015078
7 *3897:A2 *668:23 5.50052e-05
8 *509:10 *4058:B1 0.000351883
9 *470:18 *509:10 0.000177044
*RES
1 *4462:Q *509:10 22.7107 
2 *509:10 *3897:A2 16.5857 
3 *509:10 *3842:A 13.8 
*END

*D_NET *510 0.00246665
*CONN
*I *4843:A I *D sky130_fd_sc_hd__dlygate4sd3_1
*I *3899:A I *D sky130_fd_sc_hd__or3b_2
*I *4463:Q O *D sky130_fd_sc_hd__dfrtp_2
*CAP
1 *4843:A 0.000164538
2 *3899:A 0.000197602
3 *4463:Q 6.89266e-05
4 *510:8 0.000431067
5 *3899:A *3899:B 0.000386048
6 *3899:A *4735:A 8.956e-05
7 *510:8 *4735:A 0.000172884
8 *3900:C *3899:A 6.58195e-05
9 *3900:D *3899:A 2.72449e-05
10 *4613:A *4843:A 5.82558e-05
11 *4649:A *3899:A 0.000154562
12 *4649:A *510:8 1.25366e-05
13 *4650:A *4843:A 2.85234e-05
14 *142:20 *4843:A 0.000525347
15 *449:94 *4843:A 5.19535e-05
16 *449:94 *510:8 3.17866e-05
17 *497:77 *3899:A 0
*RES
1 *4463:Q *510:8 16.05 
2 *510:8 *3899:A 20.6036 
3 *510:8 *4843:A 19.2821 
*END

*D_NET *511 0.0028461
*CONN
*I *4735:A I *D sky130_fd_sc_hd__dlygate4sd3_1
*I *3899:B I *D sky130_fd_sc_hd__or3b_2
*I *4464:Q O *D sky130_fd_sc_hd__dfrtp_2
*CAP
1 *4735:A 0.000439042
2 *3899:B 0.000213195
3 *4464:Q 0
4 *511:6 0.000652237
5 *4735:A *4049:A 2.59355e-05
6 *4735:A *4467:RESET_B 0.00015244
7 *4735:A *684:8 0.000175243
8 *3899:A *3899:B 0.000386048
9 *3899:A *4735:A 8.956e-05
10 *3900:D *3899:B 0.000150348
11 *3908:D *3899:B 4.28167e-05
12 *3908:D *4735:A 3.75868e-05
13 *449:94 *4735:A 1.00689e-05
14 *461:20 *4735:A 0.000298692
15 *510:8 *4735:A 0.000172884
*RES
1 *4464:Q *511:6 13.8 
2 *511:6 *3899:B 19.3179 
3 *511:6 *4735:A 25.8179 
*END

*D_NET *512 0.00101986
*CONN
*I *4840:A I *D sky130_fd_sc_hd__dlygate4sd3_1
*I *3902:A I *D sky130_fd_sc_hd__or3b_2
*I *4465:Q O *D sky130_fd_sc_hd__dfrtp_2
*CAP
1 *4840:A 3.75798e-05
2 *3902:A 0.000107358
3 *4465:Q 0.000196071
4 *512:6 0.000341009
5 *3902:A *691:19 6.35892e-05
6 *3902:A *691:32 9.80173e-05
7 *463:8 *3902:A 0.000176234
*RES
1 *4465:Q *512:6 12.3 
2 *512:6 *3902:A 21.4964 
3 *512:6 *4840:A 9.83571 
*END

*D_NET *513 0.0019723
*CONN
*I *4841:A I *D sky130_fd_sc_hd__dlygate4sd3_1
*I *3902:B I *D sky130_fd_sc_hd__or3b_2
*I *4466:Q O *D sky130_fd_sc_hd__dfrtp_2
*CAP
1 *4841:A 0.000316202
2 *3902:B 0.000138163
3 *4466:Q 0.000275833
4 *513:8 0.000730198
5 *4841:A *4583:D 0
6 *3962:B *4841:A 0
7 *4583:CLK *3902:B 0
8 *4583:CLK *4841:A 0
9 *463:8 *3902:B 0.000270236
10 *463:8 *4841:A 0.000241665
*RES
1 *4466:Q *513:8 16.8 
2 *513:8 *3902:B 17.2643 
3 *513:8 *4841:A 19.9607 
*END

*D_NET *514 0.00240482
*CONN
*I *4754:A I *D sky130_fd_sc_hd__dlygate4sd3_1
*I *3908:B I *D sky130_fd_sc_hd__or4_2
*I *4467:Q O *D sky130_fd_sc_hd__dfrtp_2
*CAP
1 *4754:A 0.000241309
2 *3908:B 0.000196602
3 *4467:Q 0.000127206
4 *514:8 0.000565118
5 *3908:B *3908:C 0.000455457
6 *4754:A *3908:C 0.000319207
7 *4754:A *4748:A 0.000117189
8 *4754:A *714:61 0.000122091
9 *3908:D *3908:B 2.29031e-05
10 *461:20 *3908:B 8.36517e-05
11 *461:20 *4754:A 0.000154081
*RES
1 *4467:Q *514:8 15.1571 
2 *514:8 *3908:B 19.6929 
3 *514:8 *4754:A 21.5679 
*END

*D_NET *515 0.00267725
*CONN
*I *4748:A I *D sky130_fd_sc_hd__dlygate4sd3_1
*I *3908:C I *D sky130_fd_sc_hd__or4_2
*I *4468:Q O *D sky130_fd_sc_hd__dfrtp_2
*CAP
1 *4748:A 0.000214033
2 *3908:C 0.000357307
3 *4468:Q 0.000108503
4 *515:8 0.000679843
5 *3908:A *3908:C 3.11088e-05
6 *3908:B *3908:C 0.000455457
7 *4047:A *3908:C 4.79282e-05
8 *4457:CLK *3908:C 0
9 *4457:CLK *4748:A 0
10 *4754:A *3908:C 0.000319207
11 *4754:A *4748:A 0.000117189
12 *142:14 *3908:C 0.000145482
13 *260:14 *515:8 9.90367e-05
14 *261:41 *3908:C 3.69047e-06
15 *461:20 *4748:A 0
16 *497:27 *3908:C 9.84673e-05
*RES
1 *4468:Q *515:8 15.1571 
2 *515:8 *3908:C 25.1929 
3 *515:8 *4748:A 17.8714 
*END

*D_NET *516 0.000460825
*CONN
*I *3894:A I *D sky130_fd_sc_hd__nor2_2
*I *4761:A I *D sky130_fd_sc_hd__dlygate4sd3_1
*I *4474:Q O *D sky130_fd_sc_hd__dfrtp_2
*CAP
1 *3894:A 5.97402e-05
2 *4761:A 9.35213e-05
3 *4474:Q 0
4 *516:4 0.000153261
5 *4761:A *3894:B 0
6 *4761:A *4475:RESET_B 9.80029e-05
7 *3895:D *3894:A 5.62995e-05
*RES
1 *4474:Q *516:4 9.3 
2 *516:4 *4761:A 20.55 
3 *516:4 *3894:A 10.675 
*END

*D_NET *517 0.00141164
*CONN
*I *3894:B I *D sky130_fd_sc_hd__nor2_2
*I *4800:A I *D sky130_fd_sc_hd__dlygate4sd3_1
*I *4475:Q O *D sky130_fd_sc_hd__dfrtp_2
*CAP
1 *3894:B 0.000268383
2 *4800:A 0.000176054
3 *4475:Q 0.000444437
4 *3894:B *4475:RESET_B 0
5 *3894:B *742:26 0.000184626
6 *4800:A *4072:A1 2.59355e-05
7 *4800:A *742:26 0.000312209
8 *4761:A *3894:B 0
*RES
1 *4475:Q *4800:A 22.4214 
2 *4475:Q *3894:B 33.3321 
*END

*D_NET *518 0.00765649
*CONN
*I *3930:A1 I *D sky130_fd_sc_hd__a21bo_2
*I *3847:A1 I *D sky130_fd_sc_hd__o21ai_2
*I *3942:B I *D sky130_fd_sc_hd__and4b_2
*I *3846:A I *D sky130_fd_sc_hd__nor2_2
*I *3870:A1 I *D sky130_fd_sc_hd__o211a_2
*I *3944:A1 I *D sky130_fd_sc_hd__a21o_2
*I *4836:A I *D sky130_fd_sc_hd__dlygate4sd3_1
*I *4414:Q O *D sky130_fd_sc_hd__dfrtp_2
*CAP
1 *3930:A1 1.99857e-05
2 *3847:A1 7.86477e-05
3 *3942:B 0.0002424
4 *3846:A 3.35242e-05
5 *3870:A1 0.000469509
6 *3944:A1 0.000172671
7 *4836:A 6.56202e-05
8 *4414:Q 0.000183199
9 *518:48 0.000563081
10 *518:46 0.000424295
11 *518:42 0.000299518
12 *518:38 0.000744931
13 *518:14 0.000379149
14 *518:10 0.00094998
15 *3847:A1 *3847:A2 0.000150625
16 *3870:A1 *3870:A2 4.76296e-05
17 *3870:A1 *4471:D 0.000123295
18 *3942:B *3846:B 1.98839e-05
19 *3942:B *3847:B1 1.40034e-05
20 *518:38 *3930:A2 0.000149942
21 *518:42 *3846:B 2.15532e-05
22 *518:42 *519:53 1.34989e-05
23 *518:46 *3846:B 7.79781e-06
24 *518:46 *3847:A2 1.40849e-05
25 *518:46 *519:49 1.37292e-05
26 *3851:A3 *3942:B 9.71197e-05
27 *3851:B1 *3870:A1 4.53834e-05
28 *3915:A0 *4836:A 9.90367e-05
29 *3915:A0 *518:14 3.17148e-05
30 *3934:B2 *518:10 7.6644e-05
31 *3934:B2 *518:14 0.000268536
32 *3943:A *3944:A1 1.97695e-05
33 *3944:B1 *3944:A1 6.32838e-05
34 *3944:B1 *4836:A 1.21258e-05
35 *3945:B2 *3944:A1 3.18676e-05
36 *4359:B *3870:A1 0.000594167
37 *4359:B *518:46 1.08359e-05
38 *4359:B *518:48 5.74562e-05
39 *4406:CLK *518:14 0
40 *4406:D *518:38 5.33334e-05
41 *4409:CLK *3870:A1 4.96691e-05
42 *4425:D *3870:A1 0
43 *4449:CLK *518:46 0
44 *98:16 *3846:A 0.000136951
45 *111:65 *518:10 1.15339e-05
46 *150:18 *3846:A 0.000139907
47 *160:10 *3847:A1 0
48 *160:10 *518:46 4.46186e-06
49 *160:27 *3847:A1 4.1331e-06
50 *162:16 *3870:A1 0.000286694
51 *162:16 *518:46 4.46186e-06
52 *162:16 *518:48 6.19181e-05
53 *167:35 *3942:B 9.71197e-05
54 *167:35 *518:38 0.000145342
55 *167:35 *518:42 5.04705e-05
*RES
1 *4414:Q *518:10 16.1929 
2 *518:10 *518:14 7.96429 
3 *518:14 *4836:A 10.6571 
4 *518:14 *3944:A1 12.7286 
5 *518:10 *518:38 13.3929 
6 *518:38 *518:42 6.26786 
7 *518:42 *518:46 2.28571 
8 *518:46 *518:48 1.64286 
9 *518:48 *3870:A1 25.7062 
10 *518:48 *3846:A 15.1571 
11 *518:46 *3942:B 16.8 
12 *518:42 *3847:A1 15.7464 
13 *518:38 *3930:A1 9.72857 
*END

*D_NET *519 0.00777693
*CONN
*I *3863:A1 I *D sky130_fd_sc_hd__o21ba_2
*I *3849:A1 I *D sky130_fd_sc_hd__a21oi_2
*I *3933:A1 I *D sky130_fd_sc_hd__a21o_2
*I *3847:A2 I *D sky130_fd_sc_hd__o21ai_2
*I *3930:B1_N I *D sky130_fd_sc_hd__a21bo_2
*I *3846:B I *D sky130_fd_sc_hd__nor2_2
*I *3850:B I *D sky130_fd_sc_hd__nand2b_2
*I *4406:Q O *D sky130_fd_sc_hd__dfrtp_2
*CAP
1 *3863:A1 0
2 *3849:A1 0
3 *3933:A1 0
4 *3847:A2 0.000157391
5 *3930:B1_N 0
6 *3846:B 0.000253503
7 *3850:B 2.01984e-05
8 *4406:Q 0.000370857
9 *519:53 0.000261963
10 *519:49 0.000289132
11 *519:38 0.000885683
12 *519:26 0.000920405
13 *519:20 0.000436259
14 *519:14 0.000628914
15 *3846:B *3847:B1 6.05161e-06
16 *3846:B *3862:C 0
17 *3847:A2 *4688:A 0
18 *519:14 *4531:RESET_B 0.000369825
19 *519:14 *694:14 0.000366675
20 *519:26 *3849:A2 2.8266e-06
21 *519:26 *3851:A1 0
22 *519:38 *3850:A_N 6.9276e-05
23 *519:38 *3851:A1 0
24 *519:38 *3915:S 8.17274e-05
25 *519:38 *4688:A 0.000183713
26 *519:49 *4688:A 0
27 *3847:A1 *3847:A2 0.000150625
28 *3851:B1 *519:26 2.28378e-05
29 *3915:A0 *519:38 0.000111451
30 *3919:A2 *3846:B 3.57366e-05
31 *3934:B1 *519:26 0
32 *3942:B *3846:B 1.98839e-05
33 *4359:B *3846:B 0.000100831
34 *4401:D *519:14 6.87574e-05
35 *4401:D *519:20 0.000232399
36 *4406:CLK *519:38 0.000151333
37 *4449:CLK *3846:B 0.000125724
38 *4681:A *519:14 2.21972e-05
39 *107:92 *3850:B 2.89114e-05
40 *107:92 *519:38 4.58976e-05
41 *111:65 *3847:A2 5.33334e-05
42 *150:18 *3846:B 0.000147419
43 *150:18 *3850:B 2.59355e-05
44 *150:18 *519:38 4.59075e-05
45 *160:10 *3846:B 5.33334e-05
46 *160:27 *3847:A2 0
47 *161:10 *3847:A2 3.14048e-05
48 *162:16 *519:49 0.000148911
49 *167:35 *3846:B 0.000210514
50 *167:35 *519:53 1.51018e-05
51 *449:222 *519:14 0.000240533
52 *449:226 *519:14 7.32173e-05
53 *449:226 *519:20 0.000210756
54 *449:226 *519:26 2.89114e-05
55 *501:14 *519:26 0
56 *501:14 *519:38 0
57 *518:42 *3846:B 2.15532e-05
58 *518:42 *519:53 1.34989e-05
59 *518:46 *3846:B 7.79781e-06
60 *518:46 *3847:A2 1.40849e-05
61 *518:46 *519:49 1.37292e-05
*RES
1 *4406:Q *519:14 29.8357 
2 *519:14 *519:20 6.32143 
3 *519:20 *519:26 7.89286 
4 *519:26 *519:38 17.0714 
5 *519:38 *3850:B 9.83571 
6 *519:38 *519:49 7.05357 
7 *519:49 *519:53 4.77679 
8 *519:53 *3846:B 24.4696 
9 *519:53 *3930:B1_N 9.3 
10 *519:49 *3847:A2 17.6036 
11 *519:26 *3933:A1 13.8 
12 *519:20 *3849:A1 9.3 
13 *519:14 *3863:A1 9.3 
*END

*D_NET *520 0.00373392
*CONN
*I *4774:A I *D sky130_fd_sc_hd__dlygate4sd3_1
*I *3854:A I *D sky130_fd_sc_hd__or3_2
*I *3853:A I *D sky130_fd_sc_hd__nor3_2
*I *3948:C I *D sky130_fd_sc_hd__and3b_2
*I *4413:Q O *D sky130_fd_sc_hd__dfrtp_2
*CAP
1 *4774:A 7.33839e-05
2 *3854:A 0.000170843
3 *3853:A 9.66687e-05
4 *3948:C 0
5 *4413:Q 0.000243143
6 *520:36 0.000378957
7 *520:23 0.000622218
8 *520:12 0.000633963
9 *520:12 *4415:RESET_B 7.89362e-05
10 *520:12 *984:36 6.33026e-05
11 *520:23 *3948:A_N 2.84109e-05
12 *520:23 *984:36 7.10311e-05
13 *3948:B *520:23 0.000197117
14 *3948:B *520:36 0.000131235
15 *3951:B *4774:A 6.3629e-05
16 *3951:B *520:36 6.05161e-06
17 *3952:A2 *3854:A 0.000197131
18 *4402:CLK *3853:A 7.6997e-05
19 *4408:D *3853:A 0.000105957
20 *4818:A *520:23 1.34548e-05
21 *101:8 *3854:A 0.000159792
22 *171:10 *520:12 9.82112e-05
23 *453:8 *520:12 7.74135e-05
24 *483:21 *3853:A 0.000146071
*RES
1 *4413:Q *520:12 22.2955 
2 *520:12 *3948:C 9.3 
3 *520:12 *520:23 6.77232 
4 *520:23 *3853:A 21.1571 
5 *520:23 *520:36 2.58929 
6 *520:36 *3854:A 23.2821 
7 *520:36 *4774:A 10.6571 
*END

*D_NET *521 0.00944378
*CONN
*I *4363:A1 I *D sky130_fd_sc_hd__a221o_2
*I *4365:A1 I *D sky130_fd_sc_hd__a221o_2
*I *3860:B1 I *D sky130_fd_sc_hd__o21a_2
*I *3938:B2 I *D sky130_fd_sc_hd__a22o_2
*I *3852:A I *D sky130_fd_sc_hd__nor3_2
*I *3856:A1 I *D sky130_fd_sc_hd__o31ai_2
*I *4405:Q O *D sky130_fd_sc_hd__dfrtp_2
*CAP
1 *4363:A1 2.3104e-05
2 *4365:A1 0.00029055
3 *3860:B1 0
4 *3938:B2 0.000400055
5 *3852:A 0
6 *3856:A1 9.95405e-05
7 *4405:Q 0.000171913
8 *521:66 0.00105353
9 *521:32 0.000759504
10 *521:22 0.00122862
11 *521:18 0.000372176
12 *521:10 0.00111536
13 *3856:A1 *3852:B 5.62346e-05
14 *3938:B2 *3867:C 0.00053128
15 *3938:B2 *3938:A1 5.62995e-05
16 *4363:A1 *4363:B2 3.51552e-06
17 *521:10 *4415:RESET_B 0.000101915
18 *521:10 *984:8 0.000259608
19 *521:18 *3860:A1 2.16573e-05
20 *521:18 *3937:A 0.000146254
21 *521:18 *4415:RESET_B 0.000283949
22 *521:18 *713:12 8.91963e-06
23 *521:18 *984:8 7.80059e-05
24 *521:22 *4415:RESET_B 0.000376277
25 *521:32 *3852:B 2.83284e-06
26 *521:32 *4415:RESET_B 0.000150618
27 *521:32 *665:32 0
28 *521:32 *713:12 0
29 *521:66 *4363:B2 0.000221538
30 *521:66 *4365:B2 6.04068e-06
31 *521:66 *4720:A 0.000441008
32 *3860:A2 *521:18 9.41642e-05
33 *3860:A2 *521:22 0
34 *3860:A2 *521:32 0
35 *3939:A3 *3856:A1 0.000115466
36 *3939:A3 *521:32 4.99283e-06
37 *4363:A2 *4365:A1 1.6607e-05
38 *4363:B1 *4363:A1 1.37693e-05
39 *4363:B1 *4365:A1 1.79572e-05
40 *4363:B1 *521:66 2.18321e-05
41 *4365:B1 *4365:A1 0.000346262
42 *4411:D *4365:A1 1.70057e-05
43 *4427:CLK *4365:A1 2.24804e-05
44 *4635:A *521:22 0.00012325
45 *17:10 *3938:B2 1.98839e-05
46 *171:10 *521:66 0.000101027
47 *449:13 *4365:A1 0.000191033
48 *453:8 *521:10 5.49088e-05
49 *453:8 *521:22 2.28343e-05
*RES
1 *4405:Q *521:10 18.2107 
2 *521:10 *521:18 9.64286 
3 *521:18 *521:22 9.48214 
4 *521:22 *521:32 10.1789 
5 *521:32 *3856:A1 16.6571 
6 *521:32 *3852:A 13.8 
7 *521:22 *3938:B2 22.1393 
8 *521:18 *3860:B1 9.3 
9 *521:10 *521:66 14.4821 
10 *521:66 *4365:A1 25.1929 
11 *521:66 *4363:A1 9.86696 
*END

*D_NET *522 0.00467685
*CONN
*I *4784:A I *D sky130_fd_sc_hd__dlygate4sd3_1
*I *3854:B I *D sky130_fd_sc_hd__or3_2
*I *3853:B I *D sky130_fd_sc_hd__nor3_2
*I *3872:A1 I *D sky130_fd_sc_hd__mux2_1
*I *3947:A1 I *D sky130_fd_sc_hd__a32o_2
*I *4408:Q O *D sky130_fd_sc_hd__dfrtp_2
*CAP
1 *4784:A 0
2 *3854:B 0.000249565
3 *3853:B 0.000314927
4 *3872:A1 0.000312916
5 *3947:A1 0
6 *4408:Q 0
7 *522:49 0.000493854
8 *522:18 0.000432303
9 *522:14 0.000730726
10 *522:4 0.0005407
11 *3853:B *3853:C 5.38444e-06
12 *3853:B *528:47 0.000728652
13 *3854:B *3854:C 0.000137276
14 *3872:A1 *3872:A0 9.41642e-05
15 *3872:A1 *3947:B2 7.62237e-05
16 *3872:A1 *665:16 1.02821e-05
17 *3872:A1 *665:22 8.4523e-05
18 *522:14 *3854:C 7.18999e-05
19 *522:14 *528:47 0.000220494
20 *4636:A *3853:B 0.000119662
21 *483:8 *3853:B 2.12647e-05
22 *483:34 *522:14 3.2033e-05
*RES
1 *4408:Q *522:4 9.3 
2 *522:4 *522:14 10.1786 
3 *522:14 *522:18 6.44643 
4 *522:18 *3947:A1 9.3 
5 *522:18 *3872:A1 13.5321 
6 *522:14 *3853:B 21.7464 
7 *522:4 *522:49 13.1071 
8 *522:49 *3854:B 13.5679 
9 *522:49 *4784:A 9.3 
*END

*D_NET *523 0.00638692
*CONN
*I *3872:A0 I *D sky130_fd_sc_hd__mux2_1
*I *3936:A1 I *D sky130_fd_sc_hd__a31o_2
*I *3940:B1 I *D sky130_fd_sc_hd__o21ai_2
*I *3852:B I *D sky130_fd_sc_hd__nor3_2
*I *3856:A2 I *D sky130_fd_sc_hd__o31ai_2
*I *4400:Q O *D sky130_fd_sc_hd__dfrtp_2
*CAP
1 *3872:A0 0.000194228
2 *3936:A1 0.000384028
3 *3940:B1 0
4 *3852:B 7.46982e-05
5 *3856:A2 3.3034e-05
6 *4400:Q 9.76056e-05
7 *523:47 0.000703464
8 *523:22 0.00053686
9 *523:16 0.000767328
10 *523:10 0.000561013
11 *3852:B *3852:C 0.000149966
12 *3856:A2 *3856:A3 1.17091e-05
13 *3872:A0 *3873:A1 0.00026976
14 *3872:A0 *3873:S 0.00015724
15 *3872:A0 *3947:B2 3.29297e-05
16 *3872:A0 *665:14 6.86792e-05
17 *3872:A0 *665:16 6.05161e-06
18 *523:10 *987:14 3.69697e-05
19 *523:16 *3873:A0 0.000230475
20 *523:22 *3852:C 9.58181e-05
21 *523:22 *529:27 0.000355747
22 *523:22 *744:34 2.95726e-05
23 *523:47 *3873:A0 0
24 *523:47 *3873:A1 0.000245342
25 *523:47 *3873:S 0.000125908
26 *523:47 *3935:A1 8.2958e-06
27 *523:47 *987:14 2.84494e-05
28 *3856:A1 *3852:B 5.62346e-05
29 *3857:A *523:22 1.59373e-05
30 *3872:A1 *3872:A0 9.41642e-05
31 *3936:A2 *3936:A1 5.52238e-05
32 *3941:B *523:16 2.44318e-05
33 *3941:B *523:22 0.000142856
34 *4686:A *3872:A0 7.84584e-05
35 *89:8 *3936:A1 0.000181803
36 *89:10 *3936:A1 0.000359997
37 *90:10 *523:10 2.27416e-05
38 *102:34 *523:47 0
39 *103:10 *3852:B 8.46259e-06
40 *103:10 *523:22 0.000138606
41 *521:32 *3852:B 2.83284e-06
*RES
1 *4400:Q *523:10 15.3714 
2 *523:10 *523:16 9.16071 
3 *523:16 *523:22 8.67857 
4 *523:22 *3856:A2 10.0321 
5 *523:22 *3852:B 20.55 
6 *523:16 *3940:B1 9.3 
7 *523:10 *523:47 4.07143 
8 *523:47 *3936:A1 19.2643 
9 *523:47 *3872:A0 19.8357 
*END

*D_NET *524 0.00273406
*CONN
*I *4782:A I *D sky130_fd_sc_hd__dlygate4sd3_1
*I *3921:A2 I *D sky130_fd_sc_hd__a31oi_2
*I *4410:Q O *D sky130_fd_sc_hd__dfrtp_2
*CAP
1 *4782:A 0.000212664
2 *3921:A2 0.000186531
3 *4410:Q 7.70325e-05
4 *524:8 0.000476227
5 *3921:A2 *3920:A 4.80729e-05
6 *3921:A2 *3921:A1 0.000123288
7 *3921:A2 *3945:A2 0
8 *3921:A2 *664:33 7.83587e-05
9 *3921:A2 *664:43 0.000206298
10 *3921:A2 *741:14 0.000218486
11 *4782:A *3945:A2 0
12 *4782:A *3950:A1 0.000127446
13 *4782:A *583:10 0
14 *4782:A *664:27 0.000190155
15 *4782:A *664:33 0.00024292
16 *524:8 *703:90 9.41642e-05
17 *3921:B1 *3921:A2 1.81805e-05
18 *3950:B1 *3921:A2 0.000104974
19 *3950:B1 *4782:A 0.000235099
20 *104:16 *4782:A 9.41642e-05
*RES
1 *4410:Q *524:8 14.7464 
2 *524:8 *3921:A2 20.3 
3 *524:8 *4782:A 20.3357 
*END

*D_NET *525 0.00314902
*CONN
*I *4783:A I *D sky130_fd_sc_hd__dlygate4sd3_1
*I *3925:A2 I *D sky130_fd_sc_hd__a31oi_2
*I *4402:Q O *D sky130_fd_sc_hd__dfrtp_2
*CAP
1 *4783:A 0.000144127
2 *3925:A2 0.000625814
3 *4402:Q 0.000769941
4 *3925:A2 *3859:A 2.51343e-06
5 *3925:A2 *3945:A1 5.80706e-06
6 *3925:A2 *3945:A2 0.000703757
7 *3925:A2 *4410:RESET_B 1.91418e-05
8 *3925:A2 *741:31 6.09476e-05
9 *4783:A *713:12 0.000125724
10 *3921:B1 *4783:A 0.000125724
11 *3925:B1 *3925:A2 0
12 *3950:A2 *3925:A2 0.000135028
13 *3950:B1 *3925:A2 3.34161e-05
14 *4410:D *3925:A2 0.000125731
15 *104:16 *4783:A 0.000271345
16 *449:222 *3925:A2 0
*RES
1 *4402:Q *3925:A2 40.35 
2 *4402:Q *4783:A 31.8321 
*END

*D_NET *526 0.00326646
*CONN
*I *4757:A I *D sky130_fd_sc_hd__dlygate4sd3_1
*I *4361:A1 I *D sky130_fd_sc_hd__mux2_1
*I *3867:B I *D sky130_fd_sc_hd__and3_2
*I *4411:Q O *D sky130_fd_sc_hd__dfrtp_2
*CAP
1 *4757:A 0.00039394
2 *4361:A1 0
3 *3867:B 0.000324545
4 *4411:Q 3.92662e-05
5 *526:14 0.000618816
6 *526:8 0.000727478
7 *3867:B *3867:C 2.47724e-05
8 *4757:A *3866:A 8.59435e-05
9 *4757:A *4363:B2 9.8126e-05
10 *4757:A *4427:RESET_B 5.54817e-06
11 *4757:A *703:8 3.41848e-05
12 *4757:A *703:25 0.000118563
13 *4757:A *742:6 2.85321e-05
14 *4757:A *742:12 2.59355e-05
15 *526:14 *3952:B1 7.58841e-05
16 *526:14 *4361:A0 4.63305e-05
17 *526:14 *4403:RESET_B 4.58402e-05
18 *526:14 *703:8 5.40835e-05
19 *4403:D *3867:B 5.52302e-05
20 *165:6 *526:8 5.49995e-05
21 *449:13 *3867:B 9.95314e-05
22 *482:8 *3867:B 0.000139344
23 *482:8 *526:14 0.000169569
24 *482:10 *3867:B 0
*RES
1 *4411:Q *526:8 14.3357 
2 *526:8 *526:14 9.64286 
3 *526:14 *3867:B 23.5679 
4 *526:14 *4361:A1 9.3 
5 *526:8 *4757:A 22.1036 
*END

*D_NET *527 0.00269551
*CONN
*I *4361:A0 I *D sky130_fd_sc_hd__mux2_1
*I *4763:A I *D sky130_fd_sc_hd__dlygate4sd3_1
*I *3859:B I *D sky130_fd_sc_hd__and3_2
*I *4403:Q O *D sky130_fd_sc_hd__dfrtp_2
*CAP
1 *4361:A0 0.000230352
2 *4763:A 0
3 *3859:B 0.000276487
4 *4403:Q 4.16687e-05
5 *527:21 0.000326901
6 *527:8 0.000414704
7 *3859:B *3950:A1 0.000104236
8 *3859:B *4403:RESET_B 0
9 *3859:B *4410:RESET_B 0
10 *4361:A0 *3950:A1 0.000102961
11 *4361:A0 *3952:B1 0.000143808
12 *4361:A0 *4361:S 0.000484511
13 *4361:A0 *4403:RESET_B 0
14 *527:21 *3950:A1 7.17932e-05
15 *527:21 *4403:RESET_B 0
16 *4349:B2 *4361:A0 4.88546e-05
17 *4415:CLK *527:8 2.89016e-05
18 *4744:A *4361:A0 7.89303e-05
19 *104:16 *3859:B 7.05014e-05
20 *482:8 *4361:A0 0.000224575
21 *526:14 *4361:A0 4.63305e-05
*RES
1 *4403:Q *527:8 14.3357 
2 *527:8 *3859:B 18.5321 
3 *527:8 *527:21 1.94643 
4 *527:21 *4763:A 13.8 
5 *527:21 *4361:A0 22.2286 
*END

*D_NET *528 0.010793
*CONN
*I *3854:C I *D sky130_fd_sc_hd__or3_2
*I *3853:C I *D sky130_fd_sc_hd__nor3_2
*I *3950:A1 I *D sky130_fd_sc_hd__a32o_2
*I *4813:A I *D sky130_fd_sc_hd__dlygate4sd3_1
*I *3873:A1 I *D sky130_fd_sc_hd__mux2_1
*I *4412:Q O *D sky130_fd_sc_hd__dfrtp_2
*CAP
1 *3854:C 0.00031034
2 *3853:C 2.04856e-05
3 *3950:A1 0.00105045
4 *4813:A 0.000194528
5 *3873:A1 0.000490457
6 *4412:Q 0.000424017
7 *528:47 0.00138119
8 *528:41 0.000673471
9 *528:8 0.00105612
10 *3873:A1 *3935:A1 0.000200413
11 *3873:A1 *3947:B2 4.51556e-05
12 *3873:A1 *707:10 0
13 *3873:A1 *707:37 0
14 *3950:A1 *3859:A 0
15 *3950:A1 *3937:A 6.82998e-05
16 *3950:A1 *4410:RESET_B 0
17 *3950:A1 *4413:D 5.65955e-05
18 *3950:A1 *583:10 0
19 *3950:A1 *664:23 3.51224e-05
20 *3950:A1 *664:25 0.000208316
21 *3950:A1 *664:27 0.000192912
22 *4813:A *3947:B2 6.4934e-05
23 *3853:B *3853:C 5.38444e-06
24 *3853:B *528:47 0.000728652
25 *3854:B *3854:C 0.000137276
26 *3859:B *3950:A1 0.000104236
27 *3860:A2 *3950:A1 0.000420666
28 *3872:A0 *3873:A1 0.00026976
29 *3951:A *528:47 3.34634e-05
30 *3951:B *3854:C 0.000167639
31 *3951:B *528:47 5.72374e-05
32 *4361:A0 *3950:A1 0.000102961
33 *4636:A *3950:A1 0.000106436
34 *4636:A *528:47 2.70242e-05
35 *4686:A *3873:A1 0.000216291
36 *4744:A *3950:A1 5.12583e-05
37 *4782:A *3950:A1 0.000127446
38 *4818:A *3950:A1 0.000316986
39 *90:45 *3873:A1 0
40 *165:6 *3950:A1 5.50052e-05
41 *483:8 *528:47 0.000641052
42 *483:34 *4813:A 0.000141941
43 *522:14 *3854:C 7.18999e-05
44 *522:14 *528:47 0.000220494
45 *523:47 *3873:A1 0.000245342
46 *527:21 *3950:A1 7.17932e-05
*RES
1 *4412:Q *528:8 18.0321 
2 *528:8 *3873:A1 25.8179 
3 *528:8 *4813:A 18.3179 
4 *4412:Q *528:41 14.3357 
5 *528:41 *528:47 15.2857 
6 *528:47 *3950:A1 41.925 
7 *528:47 *3853:C 9.72857 
8 *528:41 *3854:C 20.7643 
*END

*D_NET *529 0.00792551
*CONN
*I *3873:A0 I *D sky130_fd_sc_hd__mux2_1
*I *3935:B1 I *D sky130_fd_sc_hd__o21a_2
*I *3856:A3 I *D sky130_fd_sc_hd__o31ai_2
*I *3852:C I *D sky130_fd_sc_hd__nor3_2
*I *3939:A1 I *D sky130_fd_sc_hd__a32o_2
*I *4404:Q O *D sky130_fd_sc_hd__dfrtp_2
*CAP
1 *3873:A0 0.000271857
2 *3935:B1 2.23854e-05
3 *3856:A3 1.72491e-05
4 *3852:C 9.65111e-05
5 *3939:A1 0.000556239
6 *4404:Q 0.000640067
7 *529:57 0.000594867
8 *529:27 0.000219343
9 *529:23 0.000607993
10 *529:6 0.00139809
11 *3873:A0 *3873:S 9.45142e-05
12 *3873:A0 *3940:A1 7.47252e-05
13 *3873:A0 *4786:A 1.24368e-05
14 *529:6 *4404:RESET_B 4.85567e-05
15 *529:23 *744:34 0.000208322
16 *529:27 *744:34 0.000119125
17 *3852:B *3852:C 0.000149966
18 *3856:A2 *3856:A3 1.17091e-05
19 *3857:A *3852:C 5.07619e-05
20 *3935:A2 *3873:A0 0.000172924
21 *3935:A2 *529:57 6.05161e-06
22 *3936:A2 *529:57 5.62995e-05
23 *3936:A3 *529:57 2.89114e-05
24 *3936:B1 *529:57 0.000144773
25 *3941:A *3939:A1 0.000540731
26 *3941:B *3939:A1 5.52238e-05
27 *3941:B *529:6 0.000183726
28 *4400:CLK *529:23 1.78447e-05
29 *4404:CLK *3939:A1 3.14193e-05
30 *4404:D *3873:A0 0
31 *4404:D *529:23 1.69115e-05
32 *4404:D *529:57 0.000149415
33 *4752:A *529:23 0.00031275
34 *89:10 *3873:A0 2.89016e-05
35 *89:10 *529:57 6.58597e-05
36 *99:12 *3852:C 0.000172091
37 *100:14 *529:23 0
38 *100:14 *529:57 0
39 *102:34 *3873:A0 3.51442e-05
40 *476:12 *529:23 2.97756e-05
41 *523:16 *3873:A0 0.000230475
42 *523:22 *3852:C 9.58181e-05
43 *523:22 *529:27 0.000355747
44 *523:47 *3873:A0 0
*RES
1 *4404:Q *529:6 17.2286 
2 *529:6 *3939:A1 18.2107 
3 *529:6 *529:23 10.3929 
4 *529:23 *529:27 7.91071 
5 *529:27 *3852:C 21.4964 
6 *529:27 *3856:A3 9.72857 
7 *529:23 *529:57 11.6429 
8 *529:57 *3935:B1 9.72857 
9 *529:57 *3873:A0 25.1214 
*END

*D_NET *530 0.00201635
*CONN
*I *4456:RESET_B I *D sky130_fd_sc_hd__dfrtp_2
*I *4454:RESET_B I *D sky130_fd_sc_hd__dfrtp_2
*I *4851:X O *D sky130_fd_sc_hd__clkdlybuf4s25_1
*CAP
1 *4456:RESET_B 6.90829e-05
2 *4454:RESET_B 0.000151162
3 *4851:X 0.000521663
4 *530:18 0.000741908
5 *4454:RESET_B *4456:D 2.49666e-05
6 *4454:RESET_B *630:50 5.54819e-05
7 *4456:RESET_B *4501:D 9.17414e-05
8 *530:18 *4298:B1 5.33005e-05
9 *530:18 *4456:D 8.877e-05
10 *530:18 *630:44 0.000124083
11 *4298:A2 *530:18 6.96796e-05
12 *208:24 *4456:RESET_B 2.45096e-05
13 *208:24 *530:18 0
*RES
1 *4851:X *530:18 22.4518 
2 *530:18 *4454:RESET_B 7.8125 
3 *530:18 *4456:RESET_B 6.19643 
*END

*D_NET *531 0.0102328
*CONN
*I *4116:A1 I *D sky130_fd_sc_hd__o21ai_2
*I *4119:A1 I *D sky130_fd_sc_hd__o21ai_2
*I *4114:A1 I *D sky130_fd_sc_hd__o21ai_2
*I *4734:A I *D sky130_fd_sc_hd__clkdlybuf4s25_1
*I *4139:A1 I *D sky130_fd_sc_hd__o21ai_2
*I *4141:A1 I *D sky130_fd_sc_hd__o21ai_2
*I *4728:A I *D sky130_fd_sc_hd__clkdlybuf4s25_1
*I *4658:X O *D sky130_fd_sc_hd__clkdlybuf4s25_1
*CAP
1 *4116:A1 0.000103295
2 *4119:A1 0
3 *4114:A1 0.00032791
4 *4734:A 0
5 *4139:A1 0.000693265
6 *4141:A1 0
7 *4728:A 0.000228708
8 *4658:X 0.00076367
9 *531:95 0.000251348
10 *531:46 0.00157418
11 *531:32 0.00158537
12 *531:22 0.00141927
13 *4114:A1 *4560:D 2.89114e-05
14 *4114:A1 *658:36 0.000193372
15 *4139:A1 *4139:B1 5.52238e-05
16 *4139:A1 *4567:D 5.26091e-05
17 *4139:A1 *660:12 0
18 *4139:A1 *660:51 0
19 *4139:A1 *713:37 5.52238e-05
20 *4728:A *4095:A1 3.18676e-05
21 *531:22 *4678:A 0.000686321
22 *531:22 *697:12 0
23 *531:22 *697:18 0
24 *531:22 *697:20 0
25 *531:22 *782:10 0
26 *531:32 *4042:B 0
27 *531:32 *4124:A1 6.05161e-06
28 *531:32 *4147:B1 0
29 *531:32 *4572:D 0.000150618
30 *531:32 *4572:RESET_B 0
31 *531:32 *4715:A 2.21972e-05
32 *531:32 *697:10 0
33 *531:32 *697:12 0
34 *531:32 *702:27 0.000320298
35 *531:32 *720:26 3.30309e-05
36 *531:46 *4570:D 0
37 *531:46 *4570:RESET_B 0.000170955
38 *531:46 *4571:RESET_B 0.000137983
39 *531:46 *660:12 0
40 *531:46 *660:14 0
41 *531:95 *3845:A 0
42 *531:95 *4560:D 6.8646e-06
43 *531:95 *4561:D 0
44 *4114:A2 *531:95 1.76039e-05
45 *4116:A2 *4116:A1 7.80968e-05
46 *4116:A2 *531:95 4.1331e-06
47 *4139:A2 *4139:A1 0.000194836
48 *4140:B *4139:A1 0.000128146
49 *4141:A2 *4139:A1 9.74684e-05
50 *4141:A2 *531:46 5.80706e-06
51 *4143:B *531:46 0
52 *4562:CLK *4114:A1 0.00017078
53 *4681:A *4139:A1 8.51263e-05
54 *253:56 *531:32 7.80714e-06
55 *254:8 *531:46 0
56 *256:8 *4114:A1 0
57 *256:8 *4116:A1 0
58 *256:8 *531:22 0
59 *256:8 *531:32 0
60 *256:25 *4114:A1 0.000228558
61 *451:8 *531:32 0
62 *451:8 *531:46 0.000315887
*RES
1 *4658:X *4728:A 22.4214 
2 *4658:X *531:22 24.9518 
3 *531:22 *531:32 17.8482 
4 *531:32 *531:46 27.9643 
5 *531:46 *4141:A1 13.8 
6 *531:46 *4139:A1 29.0321 
7 *531:32 *4734:A 9.3 
8 *531:22 *4114:A1 19.3982 
9 *4114:A1 *531:95 16.3536 
10 *531:95 *4119:A1 13.8 
11 *531:95 *4116:A1 16.3536 
*END

*D_NET *532 0.00149761
*CONN
*I *4054:B1 I *D sky130_fd_sc_hd__o21a_2
*I *4735:X O *D sky130_fd_sc_hd__dlygate4sd3_1
*CAP
1 *4054:B1 0.00030533
2 *4735:X 0.00030533
3 *4054:B1 *642:28 0
4 *4054:B1 *714:61 1.39841e-05
5 *4049:B *4054:B1 0.000360894
6 *4054:A1 *4054:B1 1.00887e-05
7 *4467:D *4054:B1 0.000315317
8 *4468:D *4054:B1 0.000186668
*RES
1 *4735:X *4054:B1 35.7964 
*END

*D_NET *533 0.000382879
*CONN
*I *4349:B1 I *D sky130_fd_sc_hd__o32a_2
*I *4736:X O *D sky130_fd_sc_hd__dlygate4sd3_1
*CAP
1 *4349:B1 7.84447e-05
2 *4736:X 7.84447e-05
3 *4349:B1 *4736:A 0.000112995
4 *4068:C *4349:B1 0.000112995
*RES
1 *4736:X *4349:B1 20.7786 
*END

*D_NET *534 0.000343289
*CONN
*I *4416:D I *D sky130_fd_sc_hd__dfrtp_2
*I *4737:X O *D sky130_fd_sc_hd__dlygate4sd3_1
*CAP
1 *4416:D 6.83653e-05
2 *4737:X 6.83653e-05
3 *4416:D *671:16 0.000100831
4 *3895:D *4416:D 5.33005e-05
5 *469:10 *4416:D 5.24274e-05
*RES
1 *4737:X *4416:D 29.475 
*END

*D_NET *535 0.000831764
*CONN
*I *4063:B1 I *D sky130_fd_sc_hd__o31a_2
*I *4738:X O *D sky130_fd_sc_hd__dlygate4sd3_1
*CAP
1 *4063:B1 0.000187827
2 *4738:X 0.000187827
3 *4063:B1 *4063:A1 5.90435e-05
4 *4063:B1 *686:10 0.000222735
5 *259:44 *4063:B1 5.83304e-05
6 *449:57 *4063:B1 2.38501e-05
7 *449:67 *4063:B1 9.21499e-05
*RES
1 *4738:X *4063:B1 32.6357 
*END

*D_NET *536 0.00135704
*CONN
*I *4352:B1 I *D sky130_fd_sc_hd__o21a_2
*I *4739:X O *D sky130_fd_sc_hd__dlygate4sd3_1
*CAP
1 *4352:B1 0.000361334
2 *4739:X 0.000361334
3 *4352:B1 *4356:B1 4.88515e-05
4 *3912:C1 *4352:B1 0.000197977
5 *4352:A2 *4352:B1 0.000225609
6 *111:28 *4352:B1 0.000161937
7 *138:25 *4352:B1 0
*RES
1 *4739:X *4352:B1 36.0286 
*END

*D_NET *537 0.000175399
*CONN
*I *4353:B1 I *D sky130_fd_sc_hd__o32a_2
*I *4740:X O *D sky130_fd_sc_hd__dlygate4sd3_1
*CAP
1 *4353:B1 7.44888e-05
2 *4740:X 7.44888e-05
3 *4353:B1 *4740:A 1.39841e-05
4 *4475:CLK *4353:B1 1.24368e-05
*RES
1 *4740:X *4353:B1 19.9929 
*END

*D_NET *538 0.000221827
*CONN
*I *4420:D I *D sky130_fd_sc_hd__dfrtp_2
*I *4741:X O *D sky130_fd_sc_hd__dlygate4sd3_1
*CAP
1 *4420:D 5.96411e-05
2 *4741:X 5.96411e-05
3 *4420:D *671:16 0.000102545
4 *4420:D *673:23 0
*RES
1 *4741:X *4420:D 28.9393 
*END

*D_NET *539 0.000735764
*CONN
*I *4204:B1 I *D sky130_fd_sc_hd__o21ai_2
*I *4742:X O *D sky130_fd_sc_hd__dlygate4sd3_1
*CAP
1 *4204:B1 0.000109933
2 *4742:X 0.000109933
3 *4204:B1 *695:26 0.000220448
4 *4204:A2 *4204:B1 0.000199363
5 *4629:A *4204:B1 9.60875e-05
*RES
1 *4742:X *4204:B1 31.4036 
*END

*D_NET *540 0.00220306
*CONN
*I *4205:C1 I *D sky130_fd_sc_hd__o211ai_2
*I *4743:X O *D sky130_fd_sc_hd__dlygate4sd3_1
*CAP
1 *4205:C1 0.000891202
2 *4743:X 0.000891202
3 *4205:C1 *4205:B1 1.17091e-05
4 *4205:C1 *4550:RESET_B 8.08277e-05
5 *4205:C1 *695:26 4.03049e-05
6 *4743:A *4205:C1 4.13122e-06
7 *242:12 *4205:C1 0.000140102
8 *449:335 *4205:C1 0.000110553
9 *449:340 *4205:C1 3.30326e-05
*RES
1 *4743:X *4205:C1 42.6179 
*END

*D_NET *541 0.00817565
*CONN
*I *3952:B1 I *D sky130_fd_sc_hd__a21o_2
*I *4058:B1 I *D sky130_fd_sc_hd__a31o_2
*I *4059:C1 I *D sky130_fd_sc_hd__a211oi_2
*I *4744:X O *D sky130_fd_sc_hd__dlygate4sd3_1
*CAP
1 *3952:B1 0.00114604
2 *4058:B1 0.00033406
3 *4059:C1 0
4 *4744:X 0
5 *541:10 0.00167688
6 *541:4 0.00248886
7 *3952:B1 *3868:B1 0.000322407
8 *3952:B1 *4361:S 8.87178e-05
9 *4058:B1 *687:10 8.90105e-05
10 *4058:B1 *714:69 5.52302e-05
11 *541:10 *4411:RESET_B 8.92486e-05
12 *541:10 *668:23 1.35553e-05
13 *3897:A1 *541:10 0.0003094
14 *3897:A2 *4058:B1 3.45899e-05
15 *3897:A2 *541:10 0.00015078
16 *4059:B1 *4058:B1 0.000396642
17 *4361:A0 *3952:B1 0.000143808
18 *4363:A2 *541:10 1.60665e-05
19 *4408:D *3952:B1 9.99853e-05
20 *4411:CLK *541:10 0.000103491
21 *4411:D *541:10 3.89621e-06
22 *4635:A *3952:B1 0.000136727
23 *165:6 *541:10 2.81855e-05
24 *165:8 *541:10 1.34278e-05
25 *470:64 *4058:B1 0
26 *498:14 *3952:B1 6.87831e-06
27 *509:10 *4058:B1 0.000351883
28 *526:14 *3952:B1 7.58841e-05
*RES
1 *4744:X *541:4 9.3 
2 *541:4 *541:10 22.9821 
3 *541:10 *4059:C1 13.8 
4 *541:10 *4058:B1 24.4786 
5 *541:4 *3952:B1 35.7643 
*END

*D_NET *542 0.00944326
*CONN
*I *4179:A1 I *D sky130_fd_sc_hd__o21ai_2
*I *4184:A1 I *D sky130_fd_sc_hd__o21ai_2
*I *4168:A1 I *D sky130_fd_sc_hd__o21ai_2
*I *4171:A1 I *D sky130_fd_sc_hd__o21ai_2
*I *4176:A1 I *D sky130_fd_sc_hd__o21ai_2
*I *4173:A1 I *D sky130_fd_sc_hd__o21ai_2
*I *4029:A I *D sky130_fd_sc_hd__inv_2
*I *4181:A1 I *D sky130_fd_sc_hd__o21ai_2
*I *4659:X O *D sky130_fd_sc_hd__clkdlybuf4s25_1
*CAP
1 *4179:A1 0
2 *4184:A1 0
3 *4168:A1 0.000159754
4 *4171:A1 0
5 *4176:A1 0.000193274
6 *4173:A1 0.000172087
7 *4029:A 0
8 *4181:A1 0.000240445
9 *4659:X 7.05661e-05
10 *542:62 0.000615652
11 *542:45 0.000940023
12 *542:43 0.00185371
13 *542:35 0.0019833
14 *542:29 0.000664697
15 *542:10 0.000281218
16 *4168:A1 *4537:D 0
17 *4173:A1 *4539:D 0
18 *4173:A1 *883:34 0
19 *4176:A1 *4176:B1 0.000110999
20 *4176:A1 *4538:D 0.000125679
21 *4176:A1 *652:10 1.34741e-05
22 *4181:A1 *4187:B1 0.000215563
23 *542:10 *4598:A 7.89362e-05
24 *542:10 *4853:A 1.5864e-05
25 *542:29 *4181:B1 0.000100165
26 *542:29 *652:67 0.0001871
27 *542:35 *4182:A2 0
28 *542:35 *4542:D 0.000107067
29 *542:35 *652:56 0.000603098
30 *542:35 *693:16 0
31 *542:43 *4537:D 0.000118887
32 *542:43 *4543:D 4.87953e-05
33 *542:45 *4539:D 0
34 *542:62 *652:10 3.23641e-05
35 *4018:B *542:62 0.000223677
36 *4168:A2 *4168:A1 3.51442e-05
37 *4171:A2 *4176:A1 3.67279e-06
38 *4171:A2 *542:62 2.3421e-05
39 *4179:A2 *4181:A1 5.4959e-05
40 *4179:A2 *542:29 2.97578e-05
41 *4210:B *4173:A1 0
42 *4210:B *542:45 0
43 *4537:CLK *542:43 0.000139913
44 *4645:A *4168:A1 0
45 *493:12 *4168:A1 0
46 *493:14 *4168:A1 0
47 *493:14 *542:45 0
*RES
1 *4659:X *542:10 19.9429 
2 *542:10 *4181:A1 14.7643 
3 *542:10 *4029:A 9.3 
4 *4181:A1 *542:29 11.0679 
5 *542:29 *542:35 23.6964 
6 *542:35 *542:43 27.3571 
7 *542:43 *542:45 6.19643 
8 *542:45 *4173:A1 16.9607 
9 *542:45 *542:62 14.6786 
10 *542:62 *4176:A1 18.4786 
11 *542:62 *4171:A1 13.8 
12 *542:43 *4168:A1 16.9607 
13 *542:35 *4184:A1 9.3 
14 *542:29 *4179:A1 9.3 
*END

*D_NET *543 0.000705474
*CONN
*I *4462:D I *D sky130_fd_sc_hd__dfrtp_2
*I *4745:X O *D sky130_fd_sc_hd__dlygate4sd3_1
*CAP
1 *4462:D 0.00018808
2 *4745:X 0.00018808
3 *4462:D *687:10 7.58841e-05
4 *4462:D *687:24 0.000139344
5 *4462:CLK *4462:D 1.29975e-05
6 *4623:A *4462:D 3.06035e-05
7 *470:12 *4462:D 4.58402e-05
8 *470:18 *4462:D 2.46444e-05
*RES
1 *4745:X *4462:D 31.2429 
*END

*D_NET *544 0.00163658
*CONN
*I *4067:A I *D sky130_fd_sc_hd__and2_2
*I *4746:X O *D sky130_fd_sc_hd__dlygate4sd3_1
*CAP
1 *4067:A 0.000574276
2 *4746:X 0.000574276
3 *4067:A *642:28 0
4 *4067:A *714:20 0.000123419
5 *4067:B *4067:A 0.000182694
6 *4472:D *4067:A 5.03772e-05
7 *4649:A *4067:A 0.000110076
8 *266:10 *4067:A 2.14658e-05
*RES
1 *4746:X *4067:A 37.975 
*END

*D_NET *545 0.000847042
*CONN
*I *4066:A I *D sky130_fd_sc_hd__and2_2
*I *4747:X O *D sky130_fd_sc_hd__dlygate4sd3_1
*CAP
1 *4066:A 0.000174313
2 *4747:X 0.000174313
3 *4066:A *3898:A 0.000227526
4 *3898:B *4066:A 0.000183713
5 *266:10 *4066:A 8.71761e-05
*RES
1 *4747:X *4066:A 23.2607 
*END

*D_NET *546 0.00162134
*CONN
*I *4049:A I *D sky130_fd_sc_hd__and2_2
*I *4748:X O *D sky130_fd_sc_hd__dlygate4sd3_1
*CAP
1 *4049:A 0.000171024
2 *4748:X 0.000171024
3 *4049:A *684:8 0.000123295
4 *4049:A *714:61 0.000569201
5 *4049:B *4049:A 0.000358971
6 *4735:A *4049:A 2.59355e-05
7 *260:14 *4049:A 0.000140933
8 *461:20 *4049:A 6.09572e-05
*RES
1 *4748:X *4049:A 34.7071 
*END

*D_NET *547 0.000911387
*CONN
*I *4399:A1 I *D sky130_fd_sc_hd__a21o_2
*I *4749:X O *D sky130_fd_sc_hd__dlygate4sd3_1
*CAP
1 *4399:A1 0.000273137
2 *4749:X 0.000273137
3 *4399:A1 *4443:RESET_B 0.00010326
4 *4399:A1 *709:6 5.52238e-05
5 *4399:A1 *709:21 5.52302e-05
6 *4399:A1 *712:10 0
7 *4397:B *4399:A1 3.92854e-05
8 *4399:A2 *4399:A1 5.71472e-05
9 *4399:B1 *4399:A1 0
10 *449:177 *4399:A1 5.49655e-05
*RES
1 *4749:X *4399:A1 32.8321 
*END

*D_NET *548 0.0010655
*CONN
*I *4083:A I *D sky130_fd_sc_hd__nand2_2
*I *4750:X O *D sky130_fd_sc_hd__dlygate4sd3_1
*CAP
1 *4083:A 0.000372381
2 *4750:X 0.000372381
3 *4083:A *3879:A 0
4 *4083:A *3880:C 0.000192585
5 *4083:A *4087:B1 0
6 *4083:A *4483:RESET_B 0
7 *4083:A *1004:10 0.000128154
*RES
1 *4750:X *4083:A 34.6357 
*END

*D_NET *549 0.00118935
*CONN
*I *3839:A I *D sky130_fd_sc_hd__inv_2
*I *4071:B1 I *D sky130_fd_sc_hd__a31o_2
*I *4751:X O *D sky130_fd_sc_hd__dlygate4sd3_1
*CAP
1 *3839:A 2.23854e-05
2 *4071:B1 0.000232582
3 *4751:X 2.1198e-05
4 *549:6 0.000276166
5 *4071:B1 *4072:A1 7.67584e-05
6 *549:6 *4072:A1 2.27416e-05
7 *4071:A2 *4071:B1 0.000268396
8 *4072:C1 *4071:B1 0.000232399
9 *4475:D *4071:B1 3.67257e-05
*RES
1 *4751:X *549:6 9.83571 
2 *549:6 *4071:B1 15.175 
3 *549:6 *3839:A 9.72857 
*END

*D_NET *550 0.000918199
*CONN
*I *4400:D I *D sky130_fd_sc_hd__dfrtp_2
*I *4752:X O *D sky130_fd_sc_hd__dlygate4sd3_1
*CAP
1 *4400:D 0.00034045
2 *4752:X 0.00034045
3 *3941:B *4400:D 0.000100018
4 *90:10 *4400:D 0.00013728
5 *102:34 *4400:D 0
*RES
1 *4752:X *4400:D 32.8009 
*END

*D_NET *551 0.000303717
*CONN
*I *4062:A I *D sky130_fd_sc_hd__and2_2
*I *4753:X O *D sky130_fd_sc_hd__dlygate4sd3_1
*CAP
1 *4062:A 8.70609e-05
2 *4753:X 8.70609e-05
3 *4062:A *714:69 0.000129595
*RES
1 *4753:X *4062:A 20.7786 
*END

*D_NET *552 0.00217912
*CONN
*I *4048:A I *D sky130_fd_sc_hd__and2_2
*I *4754:X O *D sky130_fd_sc_hd__dlygate4sd3_1
*CAP
1 *4048:A 0.000657744
2 *4754:X 0.000657744
3 *4048:A *642:28 0.000164008
4 *4048:A *714:10 0
5 *4048:A *714:61 0.00069962
6 *4467:D *4048:A 0
*RES
1 *4754:X *4048:A 38.3679 
*END

*D_NET *553 0.0136229
*CONN
*I *4152:A2 I *D sky130_fd_sc_hd__o21ai_2
*I *4196:A1 I *D sky130_fd_sc_hd__o21ai_2
*I *4199:A1 I *D sky130_fd_sc_hd__o21ai_2
*I *4163:A1 I *D sky130_fd_sc_hd__o21ai_2
*I *4165:A1 I *D sky130_fd_sc_hd__o21ai_2
*I *4160:A1 I *D sky130_fd_sc_hd__o21ai_2
*I *4157:A1 I *D sky130_fd_sc_hd__o21ai_2
*I *4155:A1 I *D sky130_fd_sc_hd__o21ai_2
*I *4660:X O *D sky130_fd_sc_hd__clkdlybuf4s25_1
*CAP
1 *4152:A2 0
2 *4196:A1 0.000795509
3 *4199:A1 0.000543726
4 *4163:A1 3.82418e-05
5 *4165:A1 0.000427309
6 *4160:A1 0.000133273
7 *4157:A1 0.000184381
8 *4155:A1 0
9 *4660:X 0.0004363
10 *553:81 0.002527
11 *553:59 0.00141294
12 *553:42 0.00148053
13 *553:38 0.00158764
14 *553:27 0.000396981
15 *553:16 0.000389611
16 *553:10 0.000613311
17 *4160:A1 *4017:A 0
18 *4160:A1 *4157:B1 1.52978e-05
19 *4160:A1 *4160:B1 5.52238e-05
20 *4160:A1 *653:36 5.58875e-06
21 *4160:A1 *653:38 7.50767e-05
22 *4165:A1 *4163:B1 2.14757e-05
23 *4165:A1 *4166:A1 4.25622e-05
24 *4165:A1 *4535:D 9.60875e-05
25 *4196:A1 *4547:D 2.11419e-05
26 *553:10 *4531:D 0
27 *553:10 *4531:RESET_B 9.56872e-05
28 *553:10 *4532:D 0
29 *553:10 *4660:A 0
30 *553:10 *827:10 0
31 *553:16 *4152:B1 0
32 *553:16 *4532:D 0
33 *553:27 *4155:B1 5.52238e-05
34 *553:27 *653:70 0.000388647
35 *553:59 *4017:A 4.18895e-05
36 *553:59 *653:36 8.51167e-05
37 *553:59 *843:14 0.000393949
38 *4154:A *553:16 2.89114e-05
39 *4154:A *553:27 2.89016e-05
40 *4156:B *553:16 2.94103e-05
41 *4156:B *553:27 0.000195462
42 *4157:A2 *4157:A1 0.00054619
43 *4157:A2 *553:27 1.04707e-05
44 *4159:B *4157:A1 0.000152779
45 *4159:B *553:27 2.95746e-06
46 *4195:A_N *4199:A1 0
47 *4199:A2 *4199:A1 0
48 *3:14 *4165:A1 0
49 *229:6 *553:27 1.5424e-05
50 *230:27 *553:59 0.000114311
51 *473:16 *4157:A1 0.000128161
52 *474:82 *4196:A1 1.01912e-05
*RES
1 *4660:X *553:10 21.55 
2 *553:10 *553:16 7.58929 
3 *553:16 *4155:A1 9.3 
4 *553:16 *553:27 10.9911 
5 *553:27 *4157:A1 20.7554 
6 *553:27 *553:38 3.41 
7 *553:38 *553:42 4.46593 
8 *553:42 *4160:A1 16.7375 
9 *553:42 *553:59 17.8125 
10 *553:59 *4165:A1 23.7643 
11 *553:59 *4163:A1 10.0321 
12 *553:38 *553:81 2.24503 
13 *553:81 *4199:A1 18.5283 
14 *553:81 *4196:A1 18.9391 
15 *553:10 *4152:A2 13.8 
*END

*D_NET *554 0.000588857
*CONN
*I *4380:A2 I *D sky130_fd_sc_hd__a31o_2
*I *4755:X O *D sky130_fd_sc_hd__dlygate4sd3_1
*CAP
1 *4380:A2 0.000163978
2 *4755:X 0.000163978
3 *4380:A2 *4380:A1 1.02504e-05
4 *4380:A2 *4601:A 3.67257e-05
5 *4377:B *4380:A2 0.000202128
6 *4380:A3 *4380:A2 1.17968e-05
7 *4433:D *4380:A2 0
*RES
1 *4755:X *4380:A2 31.1 
*END

*D_NET *555 0.000874551
*CONN
*I *4434:D I *D sky130_fd_sc_hd__dfrtp_2
*I *4756:X O *D sky130_fd_sc_hd__dlygate4sd3_1
*CAP
1 *4434:D 0.000415994
2 *4756:X 0.000415994
3 *4434:D *4856:A 4.25622e-05
*RES
1 *4756:X *4434:D 33.0643 
*END

*D_NET *556 0.0014847
*CONN
*I *3949:A1 I *D sky130_fd_sc_hd__a21o_2
*I *4757:X O *D sky130_fd_sc_hd__dlygate4sd3_1
*CAP
1 *3949:A1 0.000488393
2 *4757:X 0.000488393
3 *3949:A1 *3866:A 8.39228e-05
4 *3949:A2 *3949:A1 0.000400145
5 *3949:B1 *3949:A1 2.38501e-05
*RES
1 *4757:X *3949:A1 35.9036 
*END

*D_NET *557 0.000515983
*CONN
*I *4382:A2 I *D sky130_fd_sc_hd__a31o_2
*I *4758:X O *D sky130_fd_sc_hd__dlygate4sd3_1
*CAP
1 *4382:A2 0.000244037
2 *4758:X 0.000244037
3 *4382:A2 *4383:B 2.79092e-05
4 *4756:A *4382:A2 0
*RES
1 *4758:X *4382:A2 30.8143 
*END

*D_NET *558 0.000886614
*CONN
*I *4061:A I *D sky130_fd_sc_hd__and2_2
*I *4759:X O *D sky130_fd_sc_hd__dlygate4sd3_1
*CAP
1 *4061:A 0.000269004
2 *4759:X 0.000269004
3 *4061:A *714:69 2.14658e-05
4 *4055:B *4061:A 0
5 *4062:B *4061:A 0.000188586
6 *4460:D *4061:A 5.33433e-05
7 *4583:CLK *4061:A 0
8 *4622:A *4061:A 2.89114e-05
9 *4623:A *4061:A 5.62995e-05
*RES
1 *4759:X *4061:A 32.7786 
*END

*D_NET *559 0.0015147
*CONN
*I *3926:B2 I *D sky130_fd_sc_hd__a22o_2
*I *4760:X O *D sky130_fd_sc_hd__dlygate4sd3_1
*CAP
1 *3926:B2 0.000423728
2 *4760:X 0.000423728
3 *3926:B2 *3923:B2 0.000267807
4 *3926:B2 *3929:A1 0.000162065
5 *3926:B2 *713:37 3.16805e-05
6 *3927:A_N *3926:B2 6.05161e-06
7 *4452:CLK *3926:B2 2.84026e-05
8 *4453:D *3926:B2 0.000141144
9 *476:70 *3926:B2 3.00989e-05
*RES
1 *4760:X *3926:B2 36.5286 
*END

*D_NET *560 0.00142184
*CONN
*I *4071:A1 I *D sky130_fd_sc_hd__a31o_2
*I *4761:X O *D sky130_fd_sc_hd__dlygate4sd3_1
*CAP
1 *4071:A1 0.000421546
2 *4761:X 0.000421546
3 *4071:A1 *4688:A 0.000140321
4 *4071:A1 *4693:A 0
5 *4071:A3 *4071:A1 1.99099e-05
6 *4353:B2 *4071:A1 0.000315165
7 *4474:D *4071:A1 0.000103353
*RES
1 *4761:X *4071:A1 35.5821 
*END

*D_NET *561 0.000396452
*CONN
*I *4384:A2 I *D sky130_fd_sc_hd__a31o_2
*I *4762:X O *D sky130_fd_sc_hd__dlygate4sd3_1
*CAP
1 *4384:A2 0.000117115
2 *4762:X 0.000117115
3 *4384:B1 *4384:A2 5.52302e-05
4 *4435:CLK *4384:A2 5.52302e-05
5 *4436:D *4384:A2 5.17614e-05
*RES
1 *4762:X *4384:A2 21.1 
*END

*D_NET *562 0.000414266
*CONN
*I *3938:A1 I *D sky130_fd_sc_hd__a22o_2
*I *4763:X O *D sky130_fd_sc_hd__dlygate4sd3_1
*CAP
1 *3938:A1 0.000155479
2 *4763:X 0.000155479
3 *3938:A1 *3867:C 4.70078e-05
4 *3938:B2 *3938:A1 5.62995e-05
*RES
1 *4763:X *3938:A1 21.5107 
*END

*D_NET *563 0.00118062
*CONN
*I *4374:A2 I *D sky130_fd_sc_hd__a31o_2
*I *4764:X O *D sky130_fd_sc_hd__dlygate4sd3_1
*CAP
1 *4374:A2 0.000504164
2 *4764:X 0.000504164
3 *4374:A2 *4375:A 0
4 *4374:A2 *4432:RESET_B 0
5 *4374:A2 *716:69 7.32535e-05
6 *4374:B1 *4374:A2 9.90367e-05
*RES
1 *4764:X *4374:A2 35.7429 
*END

*D_NET *564 0.0125525
*CONN
*I *4660:A I *D sky130_fd_sc_hd__clkdlybuf4s25_1
*I *4203:A1 I *D sky130_fd_sc_hd__o21ai_2
*I *4201:A1 I *D sky130_fd_sc_hd__o21ai_2
*I *4192:A1 I *D sky130_fd_sc_hd__o21ai_2
*I *4189:A1 I *D sky130_fd_sc_hd__o21ai_2
*I *4187:A1 I *D sky130_fd_sc_hd__o21ai_2
*I *4659:A I *D sky130_fd_sc_hd__clkdlybuf4s25_1
*I *4661:X O *D sky130_fd_sc_hd__clkdlybuf4s25_1
*CAP
1 *4660:A 0.00121037
2 *4203:A1 0
3 *4201:A1 0.000147726
4 *4192:A1 0.000165692
5 *4189:A1 4.79544e-05
6 *4187:A1 0.000512434
7 *4659:A 0
8 *4661:X 0.000608209
9 *564:95 0.00131517
10 *564:38 0.000689335
11 *564:30 0.000422154
12 *564:26 0.000827068
13 *564:20 0.00136103
14 *564:14 0.00146224
15 *4187:A1 *4187:B1 0.000132312
16 *4187:A1 *4544:RESET_B 0.000128523
17 *4187:A1 *4545:D 3.39181e-05
18 *4189:A1 *4189:B1 5.20751e-05
19 *4192:A1 *4192:B1 0.000123068
20 *4201:A1 *4201:B1 0.000269807
21 *4660:A *3844:A 0.000174012
22 *4660:A *4153:B 4.58976e-05
23 *4660:A *4203:B1 2.65242e-05
24 *4660:A *4531:D 0.000230475
25 *4660:A *4531:RESET_B 9.81719e-05
26 *4660:A *4552:RESET_B 0
27 *4660:A *4777:A 1.15281e-05
28 *564:14 *4550:D 6.05161e-06
29 *564:20 *4201:B1 0.000192911
30 *564:20 *4676:A 0.0001098
31 *564:20 *655:46 0.000153315
32 *564:26 *4189:B1 5.66157e-05
33 *564:26 *4192:B1 1.98839e-05
34 *564:26 *4201:B1 1.19402e-05
35 *564:26 *655:46 2.59355e-05
36 *564:30 *4189:B1 0.000342464
37 *564:30 *4598:A 1.34741e-05
38 *564:38 *4544:RESET_B 0.000227687
39 *564:38 *4598:A 0.000199045
40 *564:38 *4853:A 0.00015078
41 *564:95 *3844:A 6.59408e-05
42 *564:95 *4676:A 0
43 *4024:B *564:26 0
44 *4195:A_N *564:20 0.00021887
45 *4201:A2 *564:26 0
46 *4203:A2 *4660:A 9.84137e-06
47 *4205:A1 *564:95 0
48 *4545:CLK *4187:A1 0.000123352
49 *4549:CLK *4201:A1 3.18747e-05
50 *4549:CLK *564:20 9.57064e-05
51 *4549:CLK *564:26 4.25427e-05
52 *4626:A *564:20 0
53 *4655:A *4660:A 4.81157e-05
54 *4661:A *564:14 5.20751e-05
55 *236:10 *4189:A1 0.000186765
56 *464:10 *4660:A 0
57 *464:10 *564:14 7.17932e-05
58 *464:10 *564:20 0
59 *553:10 *4660:A 0
*RES
1 *4661:X *564:14 26.6571 
2 *564:14 *564:20 19.9643 
3 *564:20 *564:26 13.1607 
4 *564:26 *564:30 9.48214 
5 *564:30 *564:38 9.76786 
6 *564:38 *4659:A 9.3 
7 *564:38 *4187:A1 27.425 
8 *564:30 *4189:A1 15.5679 
9 *564:26 *4192:A1 12.3 
10 *564:20 *4201:A1 17.2107 
11 *564:14 *564:95 6.14286 
12 *564:95 *4203:A1 13.8 
13 *564:95 *4660:A 41.0321 
*END

*D_NET *565 0.00075178
*CONN
*I *4372:A2 I *D sky130_fd_sc_hd__a31o_2
*I *4765:X O *D sky130_fd_sc_hd__dlygate4sd3_1
*CAP
1 *4372:A2 0.00034774
2 *4765:X 0.00034774
3 *4372:A2 *4373:A 5.62995e-05
*RES
1 *4765:X *4372:A2 24.5286 
*END

*D_NET *566 0.000488239
*CONN
*I *4378:A2 I *D sky130_fd_sc_hd__a31o_2
*I *4766:X O *D sky130_fd_sc_hd__dlygate4sd3_1
*CAP
1 *4378:A2 0.000194573
2 *4766:X 0.000194573
3 *4378:A2 *4378:A1 1.02504e-05
4 *4378:A2 *4434:RESET_B 2.79092e-05
5 *4378:A2 *4766:A 1.34703e-05
6 *4378:A2 *4856:A 2.1527e-05
7 *4434:CLK *4378:A2 2.59355e-05
*RES
1 *4766:X *4378:A2 30.4036 
*END

*D_NET *567 0.000751864
*CONN
*I *4386:A2 I *D sky130_fd_sc_hd__a31o_2
*I *4767:X O *D sky130_fd_sc_hd__dlygate4sd3_1
*CAP
1 *4386:A2 0.000204007
2 *4767:X 0.000204007
3 *4386:A2 *4384:A3 8.25098e-05
4 *4386:A2 *4386:A1 6.15071e-05
5 *4386:A2 *651:16 3.51442e-05
6 *4386:B1 *4386:A2 1.15281e-05
7 *4596:CLK *4386:A2 0.000145353
8 *489:27 *4386:A2 7.80714e-06
*RES
1 *4767:X *4386:A2 30.8768 
*END

*D_NET *568 0.00167746
*CONN
*I *4388:A2 I *D sky130_fd_sc_hd__a31o_2
*I *4389:B2 I *D sky130_fd_sc_hd__a2bb2o_2
*I *4768:X O *D sky130_fd_sc_hd__dlygate4sd3_1
*CAP
1 *4388:A2 0.000105879
2 *4389:B2 0.000283214
3 *4768:X 0.000389093
4 *4388:A2 *4388:A1 0.00014285
5 *4388:A2 *716:65 8.46829e-05
6 *4389:B2 *4380:A1 0.000137814
7 *4389:B2 *4768:A 7.6644e-05
8 *4389:B2 *716:65 2.17375e-05
9 *4388:B1 *4388:A2 0.000142856
10 *4438:CLK *4388:A2 0
11 *433:14 *4389:B2 0.000292693
*RES
1 *4768:X *4389:B2 33.5464 
2 *4768:X *4388:A2 21.6179 
*END

*D_NET *569 0.00134537
*CONN
*I *4376:A2 I *D sky130_fd_sc_hd__a31o_2
*I *4769:X O *D sky130_fd_sc_hd__dlygate4sd3_1
*CAP
1 *4376:A2 0.000368736
2 *4769:X 0.000368736
3 *4376:A2 *4378:A3 0.000267814
4 *4376:A2 *4434:RESET_B 0.000175526
5 *4376:A2 *4856:A 0.000117553
6 *4377:B *4376:A2 4.70078e-05
7 *4380:B1 *4376:A2 0
*RES
1 *4769:X *4376:A2 34.475 
*END

*D_NET *570 0.0010399
*CONN
*I *4076:A I *D sky130_fd_sc_hd__nor2_2
*I *4770:X O *D sky130_fd_sc_hd__dlygate4sd3_1
*CAP
1 *4076:A 0.000321505
2 *4770:X 0.000321505
3 *4076:A *4479:RESET_B 0
4 *4076:A *701:37 0.000227014
5 *4076:B *4076:A 0.000114651
6 *4479:CLK *4076:A 5.52238e-05
*RES
1 *4770:X *4076:A 34.9393 
*END

*D_NET *571 0.00242692
*CONN
*I *4360:B2 I *D sky130_fd_sc_hd__a22o_2
*I *4771:X O *D sky130_fd_sc_hd__dlygate4sd3_1
*CAP
1 *4360:B2 0.000473982
2 *4771:X 0.000473982
3 *4360:B2 *3870:C1 0.000443654
4 *4360:B2 *4360:A1 9.71197e-05
5 *4360:B2 *4409:RESET_B 1.18064e-05
6 *4360:B2 *669:27 0.000415488
7 *4360:B2 *669:46 1.24469e-05
8 *3915:A1 *4360:B2 9.25014e-06
9 *4151:A *4360:B2 9.90367e-05
10 *4360:A2 *4360:B2 0.000246582
11 *4360:B1 *4360:B2 1.95646e-05
12 *107:92 *4360:B2 0
13 *500:10 *4360:B2 0.00012401
*RES
1 *4771:X *4360:B2 40.6357 
*END

*D_NET *572 0.000491734
*CONN
*I *3863:A2 I *D sky130_fd_sc_hd__o21ba_2
*I *4772:X O *D sky130_fd_sc_hd__dlygate4sd3_1
*CAP
1 *3863:A2 0.000226108
2 *4772:X 0.000226108
3 *3863:A2 *4531:RESET_B 0
4 *3934:B1 *3863:A2 3.95175e-05
5 *107:111 *3863:A2 0
*RES
1 *4772:X *3863:A2 30.9036 
*END

*D_NET *573 0.00185735
*CONN
*I *4058:A1 I *D sky130_fd_sc_hd__a31o_2
*I *4773:X O *D sky130_fd_sc_hd__dlygate4sd3_1
*CAP
1 *4058:A1 0.0006183
2 *4773:X 0.0006183
3 *4058:A1 *4706:A 5.41794e-05
4 *4058:A1 *687:24 9.15842e-06
5 *4058:A1 *714:69 0.000534222
6 *449:39 *4058:A1 2.31886e-05
7 *470:64 *4058:A1 0
*RES
1 *4773:X *4058:A1 37.6357 
*END

*D_NET *574 0.00234464
*CONN
*I *3868:B1 I *D sky130_fd_sc_hd__o21a_2
*I *4774:X O *D sky130_fd_sc_hd__dlygate4sd3_1
*CAP
1 *3868:B1 0.000477822
2 *4774:X 0.000477822
3 *3865:A *3868:B1 5.71263e-05
4 *3868:A2 *3868:B1 9.71197e-05
5 *3952:A2 *3868:B1 1.39726e-05
6 *3952:B1 *3868:B1 0.000322407
7 *4408:D *3868:B1 0.00059527
8 *100:14 *3868:B1 6.8646e-06
9 *101:8 *3868:B1 0.000296235
*RES
1 *4774:X *3868:B1 39.9393 
*END

*D_NET *575 0.00985012
*CONN
*I *4227:A1 I *D sky130_fd_sc_hd__o21ai_2
*I *4232:A1 I *D sky130_fd_sc_hd__o21ai_2
*I *4235:A1 I *D sky130_fd_sc_hd__o21ai_2
*I *4237:A1 I *D sky130_fd_sc_hd__o21ai_2
*I *4229:A1 I *D sky130_fd_sc_hd__o21ai_2
*I *4224:A1 I *D sky130_fd_sc_hd__o21ai_2
*I *4219:A1 I *D sky130_fd_sc_hd__o21ai_2
*I *4221:A1 I *D sky130_fd_sc_hd__o21ai_2
*I *4662:X O *D sky130_fd_sc_hd__clkdlybuf4s25_1
*CAP
1 *4227:A1 0.000297986
2 *4232:A1 0.000529265
3 *4235:A1 5.97755e-05
4 *4237:A1 0.000187966
5 *4229:A1 0.000552669
6 *4224:A1 0
7 *4219:A1 0.000487238
8 *4221:A1 0.000152024
9 *4662:X 0.000682319
10 *575:24 0.00059618
11 *575:18 0.000364714
12 *575:16 0.000787858
13 *575:14 0.000624208
14 *575:8 0.000523694
15 *4219:A1 *4513:D 8.43535e-06
16 *4221:A1 *4221:B1 5.16802e-05
17 *4221:A1 *4514:D 0.000124012
18 *4221:A1 *661:22 6.23278e-05
19 *4227:A1 *4227:B1 0.000573809
20 *4227:A1 *4513:D 5.66971e-05
21 *4227:A1 *4516:D 2.36643e-05
22 *4229:A1 *4003:A 2.95944e-05
23 *4229:A1 *4229:B1 5.20669e-05
24 *4229:A1 *661:59 0.000565148
25 *4235:A1 *4240:A1 0.000240958
26 *4235:A1 *4519:D 0.000225314
27 *4237:A1 *4520:D 2.89016e-05
28 *575:14 *4240:A1 0.000128146
29 *575:14 *4519:D 0.000267807
30 *575:14 *661:12 0
31 *575:14 *661:18 0
32 *575:16 *661:18 0
33 *575:18 *4002:C 0
34 *575:18 *661:18 0
35 *575:18 *661:22 1.78353e-05
36 *575:18 *661:59 4.35141e-05
37 *575:24 *4002:C 0
38 *575:24 *4513:D 9.96553e-05
39 *575:24 *661:22 0.000105611
40 *4003:B *4229:A1 0.000163605
41 *4218:A *4221:A1 0.000118715
42 *4218:A *575:24 1.06172e-05
43 *4219:A2 *4219:A1 0.000226274
44 *4219:A2 *4221:A1 8.91963e-06
45 *4223:B *575:18 0
46 *4224:A2 *575:18 0.000127446
47 *4232:A2 *4232:A1 0.000214771
48 *4234:A *575:14 6.57244e-05
49 *4515:CLK *4219:A1 6.96806e-05
50 *4651:A *4232:A1 9.90367e-05
51 *4651:A *575:8 5.75147e-05
52 *217:10 *575:24 5.54312e-05
53 *220:38 *4235:A1 1.00375e-05
54 *477:20 *575:14 0
55 *477:24 *575:14 7.12756e-05
56 *477:24 *575:16 0
57 *477:24 *575:18 0
*RES
1 *4662:X *575:8 15.5679 
2 *575:8 *575:14 7.875 
3 *575:14 *575:16 2.25 
4 *575:16 *575:18 2.85714 
5 *575:18 *575:24 5.64286 
6 *575:24 *4221:A1 18.4786 
7 *575:24 *4219:A1 17.6214 
8 *575:18 *4224:A1 13.8 
9 *575:16 *4229:A1 26.6571 
10 *575:14 *4237:A1 16.8 
11 *575:8 *4235:A1 16.9607 
12 *4662:X *4232:A1 27.7786 
13 *4219:A1 *4227:A1 25.7071 
*END

*D_NET *576 0.00111186
*CONN
*I *4413:D I *D sky130_fd_sc_hd__dfrtp_2
*I *4775:X O *D sky130_fd_sc_hd__dlygate4sd3_1
*CAP
1 *4413:D 0.00041429
2 *4775:X 0.00041429
3 *4413:D *3868:A1 7.17717e-05
4 *4413:D *4408:RESET_B 0.000101859
5 *4413:D *4413:RESET_B 5.30555e-05
6 *3950:A1 *4413:D 5.65955e-05
*RES
1 *4775:X *4413:D 35.6 
*END

*D_NET *577 0.000696992
*CONN
*I *4208:A1 I *D sky130_fd_sc_hd__o21ai_2
*I *4776:X O *D sky130_fd_sc_hd__dlygate4sd3_1
*CAP
1 *4208:A1 0.000252857
2 *4776:X 0.000252857
3 *4208:A1 *4000:A 2.85321e-05
4 *4208:A1 *4214:B1 2.85234e-05
5 *4208:A1 *872:14 8.44266e-05
6 *4215:B *4208:A1 4.97967e-05
*RES
1 *4776:X *4208:A1 23.2429 
*END

*D_NET *578 0.000512359
*CONN
*I *4152:A1 I *D sky130_fd_sc_hd__o21ai_2
*I *4777:X O *D sky130_fd_sc_hd__dlygate4sd3_1
*CAP
1 *4152:A1 4.09405e-05
2 *4777:X 4.09405e-05
3 *4152:A1 *4152:B1 0.00014285
4 *4152:A1 *4153:B 0.000232399
5 *4152:A1 *4777:A 5.52302e-05
*RES
1 *4777:X *4152:A1 20.7786 
*END

*D_NET *579 0.000571845
*CONN
*I *4306:A I *D sky130_fd_sc_hd__and2_2
*I *4305:A0 I *D sky130_fd_sc_hd__mux2_1
*I *4778:X O *D sky130_fd_sc_hd__dlygate4sd3_1
*CAP
1 *4306:A 0
2 *4305:A0 8.0018e-05
3 *4778:X 0.000118868
4 *579:6 0.000198886
5 *4305:A0 *4508:RESET_B 6.07626e-05
6 *4306:B *4305:A0 9.57064e-05
7 *213:12 *4305:A0 1.76039e-05
*RES
1 *4778:X *579:6 11.0679 
2 *579:6 *4305:A0 20.8536 
3 *579:6 *4306:A 9.3 
*END

*D_NET *580 0.00372027
*CONN
*I *3891:A1 I *D sky130_fd_sc_hd__a21o_2
*I *3887:A1 I *D sky130_fd_sc_hd__a22o_2
*I *4779:X O *D sky130_fd_sc_hd__dlygate4sd3_1
*CAP
1 *3891:A1 0.000393278
2 *3887:A1 0.000894921
3 *4779:X 5.54804e-05
4 *580:8 0.00134368
5 *3887:A1 *3887:B2 2.85234e-05
6 *3887:A1 *1024:29 2.29112e-05
7 *3891:A1 *3871:B1 0
8 *3891:A1 *4733:A 1.39841e-05
9 *3891:A1 *710:12 4.89264e-05
10 *3891:A1 *1024:29 6.91533e-05
11 *3891:A1 *1024:44 4.1651e-05
12 *3887:A2 *3887:A1 1.43743e-05
13 *3889:B1 *3891:A1 5.58941e-05
14 *3890:B *3887:A1 4.84159e-05
15 *4368:A2 *3887:A1 6.96806e-05
16 *4389:A2_N *3891:A1 0.000169037
17 *122:8 *3891:A1 5.33005e-05
18 *270:23 *3887:A1 7.58841e-05
19 *270:23 *3891:A1 0.000321176
20 *486:8 *3891:A1 0
21 *486:10 *3891:A1 0
*RES
1 *4779:X *580:8 14.3357 
2 *580:8 *3887:A1 24.8357 
3 *580:8 *3891:A1 23.675 
*END

*D_NET *581 0.00105293
*CONN
*I *4095:A1 I *D sky130_fd_sc_hd__o21ai_2
*I *4780:X O *D sky130_fd_sc_hd__dlygate4sd3_1
*CAP
1 *4095:A1 0.000460212
2 *4780:X 0.000460212
3 *4095:A1 *4095:A2 8.69745e-05
4 *4095:A1 *711:23 1.36635e-05
5 *4728:A *4095:A1 3.18676e-05
6 *478:12 *4095:A1 0
*RES
1 *4780:X *4095:A1 33.8857 
*END

*D_NET *582 0.00359254
*CONN
*I *4347:A0 I *D sky130_fd_sc_hd__mux2_1
*I *4348:A I *D sky130_fd_sc_hd__and2_2
*I *4781:X O *D sky130_fd_sc_hd__dlygate4sd3_1
*CAP
1 *4347:A0 0.000308017
2 *4348:A 0.000180419
3 *4781:X 0.000436736
4 *582:8 0.000925172
5 *4348:A *4595:RESET_B 0.000123295
6 *4348:A *4781:A 0
7 *4348:A *939:46 0.000399841
8 *582:8 *4595:RESET_B 9.51514e-06
9 *582:8 *974:8 1.01277e-05
10 *4347:A1 *4347:A0 0.000227428
11 *4347:S *4347:A0 0.00032134
12 *4348:B *4348:A 0.000357952
13 *4437:CLK *4348:A 0
14 *191:10 *4347:A0 6.81083e-05
15 *191:10 *4348:A 0.000224585
*RES
1 *4781:X *582:8 18.8536 
2 *582:8 *4348:A 20.9071 
3 *582:8 *4347:A0 20.9786 
*END

*D_NET *583 0.00323265
*CONN
*I *3950:B2 I *D sky130_fd_sc_hd__a32o_2
*I *3945:A2 I *D sky130_fd_sc_hd__a32o_2
*I *4782:X O *D sky130_fd_sc_hd__dlygate4sd3_1
*CAP
1 *3950:B2 0
2 *3945:A2 0.000523928
3 *4782:X 0.00010885
4 *583:10 0.000632779
5 *3945:A2 *3945:A1 7.53826e-05
6 *3945:A2 *3945:A3 0.000327636
7 *3945:A2 *4410:RESET_B 0
8 *3945:A2 *4714:A 5.52302e-05
9 *3945:A2 *664:43 0.000150695
10 *3945:A2 *664:45 6.04162e-05
11 *583:10 *3859:A 0.000103267
12 *3858:B *3945:A2 2.8266e-06
13 *3858:B *583:10 4.038e-06
14 *3921:A2 *3945:A2 0
15 *3925:A2 *3945:A2 0.000703757
16 *3950:A1 *583:10 0
17 *3950:B1 *3945:A2 0
18 *4414:D *3945:A2 0.000428613
19 *4782:A *3945:A2 0
20 *4782:A *583:10 0
21 *104:16 *583:10 5.52302e-05
*RES
1 *4782:X *583:10 15.9786 
2 *583:10 *3945:A2 30.3 
3 *583:10 *3950:B2 13.8 
*END

*D_NET *584 0.00516512
*CONN
*I *3939:B2 I *D sky130_fd_sc_hd__a32o_2
*I *3934:A2 I *D sky130_fd_sc_hd__a32o_2
*I *4783:X O *D sky130_fd_sc_hd__dlygate4sd3_1
*CAP
1 *3939:B2 0.000164574
2 *3934:A2 0.000950596
3 *4783:X 0.000508167
4 *584:10 0.00162334
5 *3934:A2 *3934:A1 0.00035013
6 *3934:A2 *4357:A 0.000151333
7 *3934:A2 *713:12 0.000181134
8 *584:10 *713:12 0.000188713
9 *3925:A3 *3934:A2 0.000433787
10 *3934:A3 *3934:A2 4.70078e-05
11 *3941:A *3939:B2 0.000114631
12 *104:6 *584:10 0.000259467
13 *104:16 *584:10 0.000184745
14 *104:38 *3934:A2 0
15 *104:38 *584:10 0
16 *104:40 *3934:A2 0
17 *157:10 *3934:A2 7.49387e-06
*RES
1 *4783:X *584:10 22.7107 
2 *584:10 *3934:A2 29.1571 
3 *584:10 *3939:B2 16.8 
*END

*D_NET *585 0.0023448
*CONN
*I *3952:A1 I *D sky130_fd_sc_hd__a21o_2
*I *4784:X O *D sky130_fd_sc_hd__dlygate4sd3_1
*CAP
1 *3952:A1 0.00052555
2 *4784:X 0.00052555
3 *3951:A *3952:A1 0.000319271
4 *3952:A2 *3952:A1 0.000942909
5 *4408:D *3952:A1 1.39841e-05
6 *4686:A *3952:A1 1.32552e-05
7 *89:23 *3952:A1 4.27842e-06
*RES
1 *4784:X *3952:A1 39.7429 
*END

*D_NET *586 0.00621887
*CONN
*I *4248:A1 I *D sky130_fd_sc_hd__o21ai_2
*I *4240:A1 I *D sky130_fd_sc_hd__o21ai_2
*I *4243:A1 I *D sky130_fd_sc_hd__o21ai_2
*I *4245:A1 I *D sky130_fd_sc_hd__o21ai_2
*I *4663:X O *D sky130_fd_sc_hd__clkdlybuf4s25_1
*CAP
1 *4248:A1 0.00021509
2 *4240:A1 0.000470262
3 *4243:A1 3.12428e-05
4 *4245:A1 0.000485565
5 *4663:X 0.000430513
6 *586:39 0.000739803
7 *586:6 0.000892869
8 *4240:A1 *4007:A 0
9 *4240:A1 *677:14 4.58192e-05
10 *4243:A1 *4243:B1 1.97695e-05
11 *4245:A1 *4244:A 0.000153047
12 *4245:A1 *4522:D 6.74815e-05
13 *4245:A1 *4523:D 0.000128161
14 *4248:A1 *663:16 5.62995e-05
15 *4248:A1 *663:20 2.89114e-05
16 *4248:A1 *677:33 6.94157e-05
17 *586:6 *4243:B1 0.000578042
18 *586:39 *677:14 8.89385e-05
19 *4234:A *4240:A1 0.000262656
20 *4235:A1 *4240:A1 0.000240958
21 *4242:A *4245:A1 7.19848e-05
22 *4244:B *4240:A1 0.000175512
23 *4244:B *586:39 0.000175526
24 *4245:A2 *4245:A1 6.47073e-05
25 *4523:CLK *4245:A1 0.000117421
26 *4619:A *4248:A1 9.60875e-05
27 *4630:A *4240:A1 0
28 *220:38 *4240:A1 0
29 *450:10 *4245:A1 0.000206073
30 *457:10 *4245:A1 4.0342e-06
31 *457:10 *586:6 1.97756e-05
32 *488:67 *4245:A1 0.000154762
33 *575:14 *4240:A1 0.000128146
*RES
1 *4663:X *586:6 15.5857 
2 *586:6 *4245:A1 30.0679 
3 *586:6 *4243:A1 10.0321 
4 *4245:A1 *586:39 16.05 
5 *586:39 *4240:A1 26.0679 
6 *586:39 *4248:A1 18.0321 
*END

*D_NET *587 0.000281347
*CONN
*I *4394:A1 I *D sky130_fd_sc_hd__a21o_2
*I *4785:X O *D sky130_fd_sc_hd__dlygate4sd3_1
*CAP
1 *4394:A1 0.000113062
2 *4785:X 0.000113062
3 *4394:A2 *4394:A1 5.52238e-05
*RES
1 *4785:X *4394:A1 20.3679 
*END

*D_NET *588 0.00100878
*CONN
*I *4367:A1 I *D sky130_fd_sc_hd__o21a_2
*I *4786:X O *D sky130_fd_sc_hd__dlygate4sd3_1
*CAP
1 *4367:A1 0.000259643
2 *4786:X 0.000259643
3 *4367:A1 *4366:A1 0.000489495
4 *4367:A2 *4367:A1 0
*RES
1 *4786:X *4367:A1 33.3321 
*END

*D_NET *589 6.94209e-05
*CONN
*I *4093:A I *D sky130_fd_sc_hd__and3_2
*I *4787:X O *D sky130_fd_sc_hd__dlygate4sd3_1
*CAP
1 *4093:A 3.47105e-05
2 *4787:X 3.47105e-05
*RES
1 *4787:X *4093:A 19.1357 
*END

*D_NET *590 0.00021368
*CONN
*I *4263:A1 I *D sky130_fd_sc_hd__a21bo_2
*I *4788:X O *D sky130_fd_sc_hd__dlygate4sd3_1
*CAP
1 *4263:A1 1.74874e-05
2 *4788:X 1.74874e-05
3 *4263:A1 *4663:A 9.90431e-05
4 *4263:A2 *4263:A1 5.52302e-05
5 *350:12 *4263:A1 2.44318e-05
*RES
1 *4788:X *4263:A1 19.5464 
*END

*D_NET *591 0.00110747
*CONN
*I *4200:A1 I *D sky130_fd_sc_hd__a21boi_2
*I *4789:X O *D sky130_fd_sc_hd__dlygate4sd3_1
*CAP
1 *4200:A1 0.000259953
2 *4789:X 0.000259953
3 *4200:A1 *4024:A 1.46148e-05
4 *4200:A1 *4025:C 0.00016495
5 *4200:A1 *836:6 5.03772e-05
6 *4200:A2 *4200:A1 7.94648e-05
7 *4202:B *4200:A1 9.26164e-05
8 *239:14 *4200:A1 0.000185541
*RES
1 *4789:X *4200:A1 34.3857 
*END

*D_NET *592 0.0021673
*CONN
*I *3923:B2 I *D sky130_fd_sc_hd__a22o_2
*I *4790:X O *D sky130_fd_sc_hd__dlygate4sd3_1
*CAP
1 *3923:B2 0.000575665
2 *4790:X 0.000575665
3 *3923:B2 *3923:A1 0
4 *3926:B2 *3923:B2 0.000267807
5 *3927:A_N *3923:B2 8.6229e-06
6 *4453:D *3923:B2 0.000312253
7 *159:14 *3923:B2 0.000427282
*RES
1 *4790:X *3923:B2 37.5464 
*END

*D_NET *593 0.00133976
*CONN
*I *4206:A1 I *D sky130_fd_sc_hd__a21bo_2
*I *4791:X O *D sky130_fd_sc_hd__dlygate4sd3_1
*CAP
1 *4206:A1 0.000354123
2 *4791:X 0.000354123
3 *4206:A1 *4206:B1_N 9.90431e-05
4 *4206:A1 *4791:A 5.03772e-05
5 *4206:A1 *654:8 0
6 *4206:A1 *654:10 6.2589e-06
7 *4206:A1 *696:16 0.000277105
8 *449:300 *4206:A1 0.000198729
*RES
1 *4791:X *4206:A1 36.6536 
*END

*D_NET *594 0.00203442
*CONN
*I *4150:A1 I *D sky130_fd_sc_hd__a21bo_2
*I *4792:X O *D sky130_fd_sc_hd__dlygate4sd3_1
*CAP
1 *4150:A1 0.000689974
2 *4792:X 0.000689974
3 *4150:A1 *4114:B1 0
4 *4150:A1 *4150:B1_N 1.38106e-05
5 *4150:A1 *4678:A 0.000153054
6 *4043:B *4150:A1 0
7 *4631:A *4150:A1 0.000405733
8 *478:8 *4150:A1 8.18783e-05
*RES
1 *4792:X *4150:A1 41.1714 
*END

*D_NET *595 0.000361232
*CONN
*I *4358:B2 I *D sky130_fd_sc_hd__a22o_2
*I *4793:X O *D sky130_fd_sc_hd__dlygate4sd3_1
*CAP
1 *4358:B2 0.000107956
2 *4793:X 0.000107956
3 *4358:B2 *4760:A 8.6229e-06
4 *4358:B2 *695:26 7.64282e-05
5 *4358:A2 *4358:B2 9.54798e-06
6 *4629:A *4358:B2 5.07202e-05
*RES
1 *4793:X *4358:B2 30.0821 
*END

*D_NET *596 0.000848679
*CONN
*I *4092:A1 I *D sky130_fd_sc_hd__a21o_2
*I *4794:X O *D sky130_fd_sc_hd__dlygate4sd3_1
*CAP
1 *4092:A1 0.000330386
2 *4794:X 0.000330386
3 *4092:A1 *708:10 3.30352e-05
4 *4092:A1 *710:26 1.74352e-05
5 *4092:A2 *4092:A1 0.000137437
*RES
1 *4794:X *4092:A1 24.9036 
*END

*D_NET *597 0.00863966
*CONN
*I *4257:A1 I *D sky130_fd_sc_hd__o21ai_2
*I *4254:A1 I *D sky130_fd_sc_hd__o21ai_2
*I *4208:A2 I *D sky130_fd_sc_hd__o21ai_2
*I *4213:A1 I *D sky130_fd_sc_hd__o21ai_2
*I *4216:A1 I *D sky130_fd_sc_hd__o21ai_2
*I *4211:A1 I *D sky130_fd_sc_hd__o21ai_2
*I *4013:A I *D sky130_fd_sc_hd__inv_2
*I *4252:A1 I *D sky130_fd_sc_hd__o21ai_2
*I *4664:X O *D sky130_fd_sc_hd__clkdlybuf4s25_1
*CAP
1 *4257:A1 0
2 *4254:A1 0
3 *4208:A2 3.95576e-05
4 *4213:A1 0.000196096
5 *4216:A1 0.000280268
6 *4211:A1 0.000199891
7 *4013:A 0.000452935
8 *4252:A1 0
9 *4664:X 0.000178026
10 *597:75 0.00063373
11 *597:73 0.000308617
12 *597:52 0.000447042
13 *597:33 0.000797906
14 *597:31 0.000362035
15 *597:20 0.000497843
16 *597:10 0.000523346
17 *4013:A *4000:B 0.000216769
18 *4013:A *4000:D 5.32913e-05
19 *4013:A *4214:A3 0.000170762
20 *4013:A *679:34 0
21 *4013:A *883:10 0.000149582
22 *4013:A *886:14 6.50098e-05
23 *4208:A2 *662:40 1.24368e-05
24 *4211:A1 *4510:D 8.67547e-05
25 *4213:A1 *4511:D 5.50052e-05
26 *4216:A1 *4216:B1 0.000123979
27 *4216:A1 *4512:D 0.000126851
28 *4216:A1 *662:16 4.62555e-05
29 *597:10 *4527:D 0.000122089
30 *597:10 *4662:A 3.1664e-05
31 *597:20 *4526:D 0
32 *597:20 *4662:A 0.000140028
33 *597:31 *4252:B1 0
34 *597:31 *4526:D 0.000148903
35 *597:31 *662:14 0
36 *597:33 *679:23 0
37 *597:33 *679:25 0
38 *597:33 *679:34 0
39 *597:52 *4510:D 6.05161e-06
40 *597:52 *883:10 2.59355e-05
41 *597:73 *662:14 0.000115096
42 *597:75 *4000:A 0.00015078
43 *597:75 *662:14 5.51649e-05
44 *597:75 *662:16 0.000279179
45 *4210:A *4013:A 0.000165243
46 *4210:A *597:33 0.000222492
47 *4210:A *597:73 5.88671e-05
48 *4211:A2 *4211:A1 1.49188e-05
49 *4212:B *4013:A 2.24804e-05
50 *4215:B *4013:A 2.07809e-05
51 *4215:B *4216:A1 0
52 *4251:A_N *597:20 0
53 *4251:B *597:10 2.15339e-05
54 *4251:B *597:20 0.00017603
55 *4252:A2 *597:20 0.000344917
56 *4254:A2 *597:31 1.3142e-05
57 *4254:A2 *597:33 5.80706e-06
58 *4256:B *597:10 2.59355e-05
59 *4257:A2 *597:10 0.00014148
60 *4511:CLK *4213:A1 1.98839e-05
61 *4526:CLK *597:20 0
62 *4527:CLK *597:10 0.00012401
63 *216:25 *4213:A1 5.08826e-05
64 *492:8 *597:20 5.52302e-05
65 *492:8 *597:31 5.71472e-05
66 *492:10 *597:31 0
*RES
1 *4664:X *597:10 18.4071 
2 *597:10 *597:20 13.4107 
3 *597:20 *4252:A1 9.3 
4 *597:20 *597:31 7.69643 
5 *597:31 *597:33 5.28571 
6 *597:33 *4013:A 24.175 
7 *597:33 *597:52 6.67857 
8 *597:52 *4211:A1 12.8714 
9 *597:52 *597:73 7.71429 
10 *597:73 *597:75 4.375 
11 *597:75 *4216:A1 20.05 
12 *597:75 *4213:A1 17.1214 
13 *597:73 *4208:A2 14.3357 
14 *597:31 *4254:A1 13.8 
15 *597:10 *4257:A1 13.8 
*END

*D_NET *598 0.00131599
*CONN
*I *4366:A1 I *D sky130_fd_sc_hd__o21a_2
*I *4795:X O *D sky130_fd_sc_hd__dlygate4sd3_1
*CAP
1 *4366:A1 0.000219263
2 *4795:X 0.000219263
3 *4366:A1 *4476:RESET_B 0
4 *4366:A2 *4366:A1 0.000324167
5 *4367:A1 *4366:A1 0.000489495
6 *4367:A2 *4366:A1 0
7 *113:8 *4366:A1 6.38036e-05
8 *115:12 *4366:A1 0
*RES
1 *4795:X *4366:A1 34.8679 
*END

*D_NET *599 0.00100691
*CONN
*I *3919:B2 I *D sky130_fd_sc_hd__a221o_2
*I *4796:X O *D sky130_fd_sc_hd__dlygate4sd3_1
*CAP
1 *3919:B2 0.000318741
2 *4796:X 0.000318741
3 *3919:B2 *748:23 0
4 *3918:A *3919:B2 4.17828e-06
5 *3919:B1 *3919:B2 2.51696e-05
6 *3919:C1 *3919:B2 5.56908e-05
7 *4349:A3 *3919:B2 0
8 *4353:A3 *3919:B2 0.000152884
9 *3:14 *3919:B2 0.0001315
*RES
1 *4796:X *3919:B2 34.8902 
*END

*D_NET *600 0.00019498
*CONN
*I *4086:A1 I *D sky130_fd_sc_hd__o21ai_2
*I *4797:X O *D sky130_fd_sc_hd__dlygate4sd3_1
*CAP
1 *4086:A1 8.45224e-05
2 *4797:X 8.45224e-05
3 *4086:B1 *4086:A1 2.59355e-05
*RES
1 *4797:X *4086:A1 19.9571 
*END

*D_NET *601 0.000744007
*CONN
*I *4090:A1 I *D sky130_fd_sc_hd__a21o_2
*I *4798:X O *D sky130_fd_sc_hd__dlygate4sd3_1
*CAP
1 *4090:A1 0.000249837
2 *4798:X 0.000249837
3 *4090:A1 *4481:SET_B 7.74068e-05
4 *4090:A1 *4484:SET_B 5.33005e-05
5 *4090:A1 *1005:17 3.4689e-05
6 *123:10 *4090:A1 7.89362e-05
*RES
1 *4798:X *4090:A1 31.225 
*END

*D_NET *602 0.000802346
*CONN
*I *3870:A2 I *D sky130_fd_sc_hd__o211a_2
*I *4799:X O *D sky130_fd_sc_hd__dlygate4sd3_1
*CAP
1 *3870:A2 0.000254268
2 *4799:X 0.000254268
3 *3870:A1 *3870:A2 4.76296e-05
4 *3870:B1 *3870:A2 3.57366e-05
5 *4409:CLK *3870:A2 2.18495e-05
6 *4409:D *3870:A2 5.52302e-05
7 *107:92 *3870:A2 3.2534e-05
8 *162:16 *3870:A2 0.000100831
*RES
1 *4799:X *3870:A2 32.1 
*END

*D_NET *603 0.00160898
*CONN
*I *4072:A1 I *D sky130_fd_sc_hd__o211a_2
*I *4800:X O *D sky130_fd_sc_hd__dlygate4sd3_1
*CAP
1 *4072:A1 0.000442747
2 *4800:X 0.000442747
3 *3941:A *4072:A1 0.000361914
4 *4071:B1 *4072:A1 7.67584e-05
5 *4072:C1 *4072:A1 0.000129595
6 *4410:CLK *4072:A1 9.91086e-05
7 *4751:A *4072:A1 7.43578e-06
8 *4800:A *4072:A1 2.59355e-05
9 *549:6 *4072:A1 2.27416e-05
*RES
1 *4800:X *4072:A1 37.3187 
*END

*D_NET *604 0.000946429
*CONN
*I *4291:A I *D sky130_fd_sc_hd__nand2_2
*I *4801:X O *D sky130_fd_sc_hd__dlygate4sd3_1
*CAP
1 *4291:A 0.000283528
2 *4801:X 0.000283528
3 *4291:A *4289:B1 5.65955e-05
4 *4289:A2 *4291:A 6.24774e-05
5 *4290:A2 *4291:A 5.49544e-05
6 *4292:A2 *4291:A 0.000103437
7 *4500:CLK *4291:A 0.000101908
*RES
1 *4801:X *4291:A 32.2429 
*END

*D_NET *605 0.000909209
*CONN
*I *4081:A I *D sky130_fd_sc_hd__nand2_2
*I *4802:X O *D sky130_fd_sc_hd__dlygate4sd3_1
*CAP
1 *4081:A 0.000338445
2 *4802:X 0.000338445
3 *4081:A *3878:D 3.18676e-05
4 *4081:A *4480:D 5.52302e-05
5 *4082:A1 *4081:A 5.52302e-05
6 *4082:A2 *4081:A 8.9991e-05
*RES
1 *4802:X *4081:A 24.4929 
*END

*D_NET *606 0.000754497
*CONN
*I *4328:A I *D sky130_fd_sc_hd__xnor2_2
*I *4803:X O *D sky130_fd_sc_hd__dlygate4sd3_1
*CAP
1 *4328:A 0.000273372
2 *4803:X 0.000273372
3 *4328:A *4592:D 0
4 *4328:A *939:27 0.000207753
5 *4328:B *4328:A 0
6 *484:12 *4328:A 0
*RES
1 *4803:X *4328:A 31.9571 
*END

*D_NET *607 0.000460448
*CONN
*I *4312:A I *D sky130_fd_sc_hd__nand2_2
*I *4804:X O *D sky130_fd_sc_hd__dlygate4sd3_1
*CAP
1 *4312:A 0.000224927
2 *4804:X 0.000224927
3 *4312:A *647:10 1.05947e-05
4 *4312:A *976:23 0
5 *4319:A2 *4312:A 0
*RES
1 *4804:X *4312:A 30.6 
*END

*D_NET *608 0.011556
*CONN
*I *4663:A I *D sky130_fd_sc_hd__clkdlybuf4s25_1
*I *4259:A1 I *D sky130_fd_sc_hd__o21ai_2
*I *4664:A I *D sky130_fd_sc_hd__clkdlybuf4s25_1
*I *4662:A I *D sky130_fd_sc_hd__clkdlybuf4s25_1
*I *4665:X O *D sky130_fd_sc_hd__clkdlybuf4s25_1
*CAP
1 *4663:A 0.000609841
2 *4259:A1 0
3 *4664:A 0.000115128
4 *4662:A 0.00188748
5 *4665:X 0.000678467
6 *608:16 0.0022076
7 *608:14 0.000425023
8 *608:8 0.00150835
9 *4662:A *4526:D 2.8266e-06
10 *4662:A *4527:D 0.000122089
11 *4662:A *661:8 0.00027704
12 *4662:A *679:10 0
13 *4662:A *679:12 0
14 *4663:A *4243:B1 7.50473e-05
15 *4663:A *663:6 1.57523e-05
16 *608:8 *4530:RESET_B 0.000350829
17 *608:8 *681:63 0.000299779
18 *608:14 *4528:D 0.000160382
19 *608:16 *4528:D 1.76135e-05
20 *4012:B *4663:A 0.000123673
21 *4252:A2 *4662:A 5.33005e-05
22 *4254:A2 *4662:A 0
23 *4256:B *4664:A 0.000269428
24 *4258:B *608:16 0
25 *4260:A2 *608:16 0
26 *4262:A *608:14 0.000105884
27 *4262:A *608:16 0
28 *4262:B *4663:A 0.000295844
29 *4262:B *608:14 7.6644e-05
30 *4263:A1 *4663:A 9.90431e-05
31 *4263:A2 *4663:A 0.000180111
32 *4263:B1_N *4663:A 1.28809e-05
33 *4526:CLK *4662:A 0.000234672
34 *4527:CLK *4662:A 0.000195562
35 *4527:CLK *608:14 0.000120063
36 *4527:CLK *608:16 0.000349137
37 *4651:A *4662:A 1.58163e-05
38 *224:43 *4662:A 0
39 *224:43 *608:16 0
40 *225:20 *608:16 0
41 *350:12 *4663:A 2.60984e-05
42 *449:226 *608:8 5.30209e-05
43 *494:60 *4663:A 0.000236203
44 *494:60 *608:14 0.000183674
45 *597:10 *4662:A 3.1664e-05
46 *597:20 *4662:A 0.000140028
*RES
1 *4665:X *608:8 22.9607 
2 *608:8 *608:14 7.46429 
3 *608:14 *608:16 4.67857 
4 *608:16 *4662:A 41.3 
5 *608:16 *4664:A 16.3893 
6 *608:14 *4259:A1 13.8 
7 *608:8 *4663:A 27.5679 
*END

*D_NET *609 0.00114659
*CONN
*I *4338:A I *D sky130_fd_sc_hd__nand2_2
*I *4805:X O *D sky130_fd_sc_hd__dlygate4sd3_1
*CAP
1 *4338:A 0.000362788
2 *4805:X 0.000362788
3 *4338:A *3971:A 5.57914e-05
4 *4338:A *4339:B1 0.000271674
5 *4338:A *4805:A 4.01501e-05
6 *4338:A *705:52 5.33978e-05
*RES
1 *4805:X *4338:A 34.5643 
*END

*D_NET *610 0.000739956
*CONN
*I *4277:A I *D sky130_fd_sc_hd__nand2_2
*I *4806:X O *D sky130_fd_sc_hd__dlygate4sd3_1
*CAP
1 *4277:A 0.000224072
2 *4806:X 0.000224072
3 *4277:A *4701:A 5.33005e-05
4 *4277:A *642:45 3.47797e-05
5 *4277:A *642:57 0
6 *4277:A *714:20 1.98839e-05
7 *4277:B *4277:A 0.000128154
8 *4278:A2 *4277:A 5.56943e-05
*RES
1 *4806:X *4277:A 31.4214 
*END

*D_NET *611 0.00118864
*CONN
*I *4281:A I *D sky130_fd_sc_hd__nand2_2
*I *4807:X O *D sky130_fd_sc_hd__dlygate4sd3_1
*CAP
1 *4281:A 0.000403728
2 *4807:X 0.000403728
3 *4281:B *4281:A 4.10796e-05
4 *4282:A1 *4281:A 2.79421e-05
5 *4495:CLK *4281:A 0.000170438
6 *203:10 *4281:A 2.67489e-05
7 *496:24 *4281:A 0.000114972
*RES
1 *4807:X *4281:A 34.5107 
*END

*D_NET *612 0.00107854
*CONN
*I *4324:A I *D sky130_fd_sc_hd__nand2_2
*I *4808:X O *D sky130_fd_sc_hd__dlygate4sd3_1
*CAP
1 *4324:A 0.000243705
2 *4808:X 0.000243705
3 *4324:A *3962:A 0
4 *4324:A *4325:B1 0.000538509
5 *4324:A *982:25 0
6 *4323:A2 *4324:A 5.26184e-05
*RES
1 *4808:X *4324:A 34.4036 
*END

*D_NET *613 0.000940188
*CONN
*I *4269:A I *D sky130_fd_sc_hd__nand2_2
*I *4809:X O *D sky130_fd_sc_hd__dlygate4sd3_1
*CAP
1 *4269:A 0.000265228
2 *4809:X 0.000265228
3 *4269:A *4488:RESET_B 4.78056e-05
4 *4269:A *4489:RESET_B 9.71197e-05
5 *4269:A *917:42 0.000195555
6 *194:10 *4269:A 6.9253e-05
*RES
1 *4809:X *4269:A 32.9214 
*END

*D_NET *614 0.00123211
*CONN
*I *4087:B1 I *D sky130_fd_sc_hd__o21ai_2
*I *4810:X O *D sky130_fd_sc_hd__dlygate4sd3_1
*CAP
1 *4087:B1 0.000466849
2 *4810:X 0.000466849
3 *4087:B1 *3879:A 8.00806e-05
4 *4087:B1 *4750:A 0.000218333
5 *4083:A *4087:B1 0
*RES
1 *4810:X *4087:B1 35.6 
*END

*D_NET *615 0.000695965
*CONN
*I *4285:A I *D sky130_fd_sc_hd__nand2_2
*I *4811:X O *D sky130_fd_sc_hd__dlygate4sd3_1
*CAP
1 *4285:A 0.000234702
2 *4811:X 0.000234702
3 *4285:A *4498:D 1.73875e-05
4 *4285:A *4811:A 3.69047e-06
5 *4286:A2 *4285:A 1.3142e-05
6 *4499:CLK *4285:A 5.56241e-05
7 *204:16 *4285:A 0.00012401
8 *205:10 *4285:A 1.27078e-05
*RES
1 *4811:X *4285:A 31.3143 
*END

*D_NET *616 0.00129028
*CONN
*I *4336:B1 I *D sky130_fd_sc_hd__o21ai_2
*I *4812:X O *D sky130_fd_sc_hd__dlygate4sd3_1
*CAP
1 *4336:B1 0.00042692
2 *4812:X 0.00042692
3 *4336:B1 *4336:A1 7.43578e-06
4 *4336:B1 *705:10 0
5 *4336:B1 *713:12 0.000151333
6 *4336:B1 *713:46 0.000202842
7 *4336:B1 *714:69 7.4826e-05
*RES
1 *4812:X *4336:B1 36.6179 
*END

*D_NET *617 0.0012039
*CONN
*I *3947:B2 I *D sky130_fd_sc_hd__a32o_2
*I *4813:X O *D sky130_fd_sc_hd__dlygate4sd3_1
*CAP
1 *3947:B2 0.000306287
2 *4813:X 0.000306287
3 *3947:B2 *665:16 5.52302e-05
4 *3947:B2 *665:22 9.90367e-05
5 *3872:A0 *3947:B2 3.29297e-05
6 *3872:A1 *3947:B2 7.62237e-05
7 *3873:A1 *3947:B2 4.51556e-05
8 *4686:A *3947:B2 6.93072e-05
9 *4813:A *3947:B2 6.4934e-05
10 *4814:A *3947:B2 0.000148514
*RES
1 *4813:X *3947:B2 35.4571 
*END

*D_NET *618 0.000444112
*CONN
*I *4412:D I *D sky130_fd_sc_hd__dfrtp_2
*I *4814:X O *D sky130_fd_sc_hd__dlygate4sd3_1
*CAP
1 *4412:D 0.00014018
2 *4814:X 0.00014018
3 *4412:D *707:37 0.000126416
4 *4686:A *4412:D 3.73361e-05
*RES
1 *4814:X *4412:D 30.1893 
*END

*D_NET *619 0.011055
*CONN
*I *4274:B1 I *D sky130_fd_sc_hd__a21oi_2
*I *4270:B1 I *D sky130_fd_sc_hd__a21oi_2
*I *4266:B1 I *D sky130_fd_sc_hd__a21oi_2
*I *4268:B1 I *D sky130_fd_sc_hd__a21oi_2
*I *3998:A I *D sky130_fd_sc_hd__inv_2
*I *4264:B I *D sky130_fd_sc_hd__nor2_2
*I *4272:B1 I *D sky130_fd_sc_hd__a21oi_2
*I *4276:B1 I *D sky130_fd_sc_hd__a21oi_2
*I *4666:X O *D sky130_fd_sc_hd__clkdlybuf4s25_1
*CAP
1 *4274:B1 0
2 *4270:B1 0.000152783
3 *4266:B1 0.000371665
4 *4268:B1 0
5 *3998:A 0.000705142
6 *4264:B 7.29319e-05
7 *4272:B1 8.78197e-05
8 *4276:B1 0.000100492
9 *4666:X 0.000442885
10 *619:58 0.000930008
11 *619:56 0.000511659
12 *619:46 0.000984978
13 *619:44 0.00102981
14 *619:29 0.00078145
15 *619:25 0.000849243
16 *619:10 0.00132243
17 *3998:A *4487:D 0.000149966
18 *3998:A *894:12 9.7659e-05
19 *4266:B1 *4489:D 6.36431e-05
20 *4272:B1 *4491:D 9.83388e-05
21 *4276:B1 *4493:D 0.000153054
22 *4276:B1 *675:36 0.000122951
23 *619:10 *4494:D 0
24 *619:10 *4696:A 0.000146533
25 *619:25 *3983:A 7.56452e-06
26 *619:25 *3983:B 2.13481e-06
27 *619:25 *4492:D 1.13883e-05
28 *619:29 *4492:D 9.83442e-05
29 *619:44 *4267:A 4.6176e-05
30 *619:44 *4492:D 0.000342735
31 *619:56 *4265:B 2.30245e-05
32 *619:56 *4489:D 3.19834e-05
33 *619:58 *4265:B 1.6271e-05
34 *3983:D *619:25 9.60939e-05
35 *4268:A2 *619:44 0.000139202
36 *4268:A2 *619:46 0.000475712
37 *4268:A2 *619:56 0.000261317
38 *4270:A1 *4270:B1 1.24368e-05
39 *4272:A1 *619:44 8.31973e-05
40 *4274:A2 *619:25 4.25569e-05
41 *4277:B *4276:B1 0
42 *4277:B *619:10 0
43 *4493:CLK *619:25 5.41609e-05
44 *4494:CLK *4276:B1 0
45 *4494:CLK *619:10 0
46 *466:8 *619:56 8.93791e-05
47 *466:12 *3998:A 0
48 *466:58 *4266:B1 1.00399e-05
49 *466:69 *4266:B1 3.58558e-05
50 *488:10 *4276:B1 0
*RES
1 *4666:X *619:10 21.6214 
2 *619:10 *4276:B1 16.9607 
3 *619:10 *619:25 13.9821 
4 *619:25 *619:29 1.78571 
5 *619:29 *4272:B1 11.0679 
6 *619:29 *619:44 17.2321 
7 *619:44 *619:46 6.19643 
8 *619:46 *619:56 15.2679 
9 *619:56 *619:58 2.25 
10 *619:58 *4264:B 14.7464 
11 *619:58 *3998:A 26.425 
12 *619:56 *4268:B1 13.8 
13 *619:46 *4266:B1 27.7464 
14 *619:44 *4270:B1 15.9964 
15 *619:25 *4274:B1 9.3 
*END

*D_NET *620 0.000358651
*CONN
*I *4297:B1 I *D sky130_fd_sc_hd__o21ai_2
*I *4815:X O *D sky130_fd_sc_hd__dlygate4sd3_1
*CAP
1 *4297:B1 0.000101994
2 *4815:X 0.000101994
3 *4297:B1 *4297:A1 0.000101363
4 *4297:B1 *4502:D 5.33005e-05
*RES
1 *4815:X *4297:B1 29.475 
*END

*D_NET *621 0.000811461
*CONN
*I *4318:B1 I *D sky130_fd_sc_hd__o31ai_2
*I *4816:X O *D sky130_fd_sc_hd__dlygate4sd3_1
*CAP
1 *4318:B1 0.00040573
2 *4816:X 0.00040573
3 *4319:A2 *4318:B1 0
*RES
1 *4816:X *4318:B1 32.85 
*END

*D_NET *622 0.00470512
*CONN
*I *3860:A1 I *D sky130_fd_sc_hd__o21a_2
*I *4365:B2 I *D sky130_fd_sc_hd__a221o_2
*I *4817:X O *D sky130_fd_sc_hd__dlygate4sd3_1
*CAP
1 *3860:A1 8.50936e-05
2 *4365:B2 0.00075773
3 *4817:X 0.000170378
4 *622:6 0.0010132
5 *3860:A1 *3937:A 0.000179018
6 *3860:A1 *713:12 0.000170618
7 *4365:B2 *4363:B2 1.26678e-07
8 *4365:B2 *664:6 0.000141935
9 *4365:B2 *664:23 9.67754e-05
10 *622:6 *984:36 0.00026441
11 *4363:A2 *4365:B2 3.41848e-05
12 *4363:B1 *4365:B2 0.000108338
13 *4365:B1 *4365:B2 0.000380431
14 *4411:D *4365:B2 0.000450939
15 *4427:CLK *4365:B2 1.28809e-05
16 *171:10 *4365:B2 0.000745837
17 *171:10 *622:6 1.98839e-05
18 *171:20 *4365:B2 4.56392e-05
19 *521:18 *3860:A1 2.16573e-05
20 *521:66 *4365:B2 6.04068e-06
*RES
1 *4817:X *622:6 12.3 
2 *622:6 *4365:B2 35.6795 
3 *622:6 *3860:A1 21.0857 
*END

*D_NET *623 0.000947163
*CONN
*I *4405:D I *D sky130_fd_sc_hd__dfrtp_2
*I *4818:X O *D sky130_fd_sc_hd__dlygate4sd3_1
*CAP
1 *4405:D 0.000291735
2 *4818:X 0.000291735
3 *4405:CLK *4405:D 6.05161e-06
4 *4656:A *4405:D 4.6355e-05
5 *483:21 *4405:D 0.000123352
6 *483:57 *4405:D 0.000187935
*RES
1 *4818:X *4405:D 33.6357 
*END

*D_NET *624 0.000133673
*CONN
*I *4330:B1 I *D sky130_fd_sc_hd__o21ai_2
*I *4819:X O *D sky130_fd_sc_hd__dlygate4sd3_1
*CAP
1 *4330:B1 1.16062e-05
2 *4819:X 1.16062e-05
3 *4330:A2 *4330:B1 5.52302e-05
4 *184:14 *4330:B1 5.52302e-05
*RES
1 *4819:X *4330:B1 19.1357 
*END

*D_NET *625 0.000803632
*CONN
*I *4279:A I *D sky130_fd_sc_hd__nand2_2
*I *4820:X O *D sky130_fd_sc_hd__dlygate4sd3_1
*CAP
1 *4279:A 0.00022993
2 *4820:X 0.00022993
3 *4280:A2 *4279:A 3.08664e-05
4 *200:17 *4279:A 0.000184745
5 *200:21 *4279:A 0.000128161
*RES
1 *4820:X *4279:A 32.5643 
*END

*D_NET *626 0.00121412
*CONN
*I *4147:B1 I *D sky130_fd_sc_hd__o31a_2
*I *4821:X O *D sky130_fd_sc_hd__dlygate4sd3_1
*CAP
1 *4147:B1 0.000443504
2 *4821:X 0.000443504
3 *4147:B1 *697:10 7.83659e-05
4 *4147:B1 *794:6 5.62995e-05
5 *4148:A1 *4147:B1 4.25358e-05
6 *451:8 *4147:B1 0.000149911
7 *531:32 *4147:B1 0
*RES
1 *4821:X *4147:B1 34.1893 
*END

*D_NET *627 0.00191064
*CONN
*I *4275:A I *D sky130_fd_sc_hd__nand2_2
*I *4822:X O *D sky130_fd_sc_hd__dlygate4sd3_1
*CAP
1 *4275:A 0.000298269
2 *4822:X 0.000298269
3 *4275:A *677:14 0.000509486
4 *4276:A2 *4275:A 0.000804616
*RES
1 *4822:X *4275:A 37.9214 
*END

*D_NET *628 0.000814537
*CONN
*I *4289:B1 I *D sky130_fd_sc_hd__o21ai_2
*I *4823:X O *D sky130_fd_sc_hd__dlygate4sd3_1
*CAP
1 *4289:B1 0.000179636
2 *4823:X 0.000179636
3 *4289:A2 *4289:B1 0.00022511
4 *4291:A *4289:B1 5.65955e-05
5 *205:49 *4289:B1 0.000173559
*RES
1 *4823:X *4289:B1 22.4214 
*END

*D_NET *629 0.00100801
*CONN
*I *4342:B1 I *D sky130_fd_sc_hd__o21a_2
*I *4824:X O *D sky130_fd_sc_hd__dlygate4sd3_1
*CAP
1 *4342:B1 0.000346573
2 *4824:X 0.000346573
3 *4342:B1 *3955:A 4.57538e-05
4 *4342:B1 *4342:A1 6.40986e-05
5 *4344:B *4342:B1 1.21258e-05
6 *4345:B *4342:B1 2.89114e-05
7 *189:38 *4342:B1 0.000163979
*RES
1 *4824:X *4342:B1 33.85 
*END

*D_NET *630 0.00840121
*CONN
*I *4298:B1 I *D sky130_fd_sc_hd__a21oi_2
*I *4292:B1 I *D sky130_fd_sc_hd__a21oi_2
*I *4290:B1 I *D sky130_fd_sc_hd__a21oi_2
*I *4288:B1 I *D sky130_fd_sc_hd__a21oi_2
*I *4286:B1 I *D sky130_fd_sc_hd__a21oi_2
*I *4284:B1 I *D sky130_fd_sc_hd__a21oi_2
*I *4296:B1 I *D sky130_fd_sc_hd__a21oi_2
*I *4294:B1 I *D sky130_fd_sc_hd__a21oi_2
*I *4667:X O *D sky130_fd_sc_hd__clkdlybuf4s25_1
*CAP
1 *4298:B1 0.000183085
2 *4292:B1 0
3 *4290:B1 0
4 *4288:B1 3.7311e-05
5 *4286:B1 0
6 *4284:B1 0.00015972
7 *4296:B1 0.000180839
8 *4294:B1 2.707e-05
9 *4667:X 0.000248525
10 *630:58 0.000371338
11 *630:52 0.000481199
12 *630:50 0.000821115
13 *630:44 0.000986527
14 *630:34 0.000906883
15 *630:8 0.000259361
16 *630:6 0.000626092
17 *4284:B1 *4827:A 5.37741e-06
18 *4294:B1 *4502:D 9.58126e-05
19 *4296:B1 *4297:A1 0.000171948
20 *4296:B1 *4503:D 6.47486e-05
21 *630:6 *4815:A 0.000185118
22 *630:44 *4456:D 1.58163e-05
23 *630:50 *3991:B 0.000124083
24 *630:50 *920:10 0.000179695
25 *630:52 *920:10 0.000269557
26 *3991:D *630:50 0.000214825
27 *3992:B *4298:B1 0.000158191
28 *4284:A2 *4284:B1 6.55528e-06
29 *4294:A2 *4294:B1 5.07619e-05
30 *4294:A2 *630:6 0.000171737
31 *4294:A2 *630:8 4.82865e-05
32 *4298:A1 *4298:B1 6.13203e-05
33 *4298:A2 *4298:B1 0.000185124
34 *4298:A2 *630:34 1.50257e-05
35 *4454:RESET_B *630:50 5.54819e-05
36 *4456:CLK *630:44 5.81642e-06
37 *4503:CLK *4296:B1 5.65955e-05
38 *208:30 *4298:B1 8.58583e-05
39 *209:8 *630:34 0.000362397
40 *209:32 *4296:B1 0.000171948
41 *209:32 *630:34 0.000172679
42 *530:18 *4298:B1 5.33005e-05
43 *530:18 *630:44 0.000124083
*RES
1 *4667:X *630:6 14.3536 
2 *630:6 *630:8 0.946429 
3 *630:8 *4294:B1 10.2464 
4 *630:8 *4296:B1 22.7464 
5 *630:6 *630:34 12.2143 
6 *630:34 *630:44 15.9821 
7 *630:44 *630:50 11.0179 
8 *630:50 *630:52 4.98214 
9 *630:52 *630:58 8 
10 *630:58 *4284:B1 21.1571 
11 *630:58 *4286:B1 9.3 
12 *630:52 *4288:B1 14.3357 
13 *630:50 *4290:B1 13.8 
14 *630:44 *4292:B1 13.8 
15 *630:34 *4298:B1 18.492 
*END

*D_NET *631 0.000752388
*CONN
*I *4273:B1 I *D sky130_fd_sc_hd__o21ai_2
*I *4825:X O *D sky130_fd_sc_hd__dlygate4sd3_1
*CAP
1 *4273:B1 0.000251173
2 *4825:X 0.000251173
3 *4273:B1 *675:36 4.57538e-05
4 *3983:D *4273:B1 7.48091e-05
5 *4276:A2 *4273:B1 0
6 *197:12 *4273:B1 6.05161e-06
7 *197:25 *4273:B1 0.000123428
*RES
1 *4825:X *4273:B1 33.3321 
*END

*D_NET *632 0.00108163
*CONN
*I *4344:A I *D sky130_fd_sc_hd__xnor2_2
*I *4826:X O *D sky130_fd_sc_hd__dlygate4sd3_1
*CAP
1 *4344:A 0.000343123
2 *4826:X 0.000343123
3 *4344:A *4826:A 0.000114694
4 *4344:A *972:27 2.70242e-05
5 *3973:C *4344:A 6.85372e-05
6 *3973:D *4344:A 0.000185124
*RES
1 *4826:X *4344:A 24.9036 
*END

*D_NET *633 0.00106324
*CONN
*I *4283:A I *D sky130_fd_sc_hd__nand2_2
*I *4827:X O *D sky130_fd_sc_hd__dlygate4sd3_1
*CAP
1 *4283:A 0.000405822
2 *4827:X 0.000405822
3 *4497:CLK *4283:A 0.000251598
*RES
1 *4827:X *4283:A 34.3857 
*END

*D_NET *634 0.000239926
*CONN
*I *4267:A I *D sky130_fd_sc_hd__nand2_2
*I *4828:X O *D sky130_fd_sc_hd__dlygate4sd3_1
*CAP
1 *4267:A 9.68753e-05
2 *4828:X 9.68753e-05
3 *619:44 *4267:A 4.6176e-05
*RES
1 *4828:X *4267:A 29.5464 
*END

*D_NET *635 0.000412929
*CONN
*I *4293:A I *D sky130_fd_sc_hd__nand2_2
*I *4829:X O *D sky130_fd_sc_hd__dlygate4sd3_1
*CAP
1 *4293:A 0.000206464
2 *4829:X 0.000206464
3 *4293:A *4504:D 0
4 *4294:A2 *4293:A 0
*RES
1 *4829:X *4293:A 31.0107 
*END

*D_NET *636 0.00117973
*CONN
*I *4079:B1 I *D sky130_fd_sc_hd__o21ai_2
*I *4830:X O *D sky130_fd_sc_hd__dlygate4sd3_1
*CAP
1 *4079:B1 0.00042383
2 *4830:X 0.00042383
3 *4079:B1 *4079:A1 1.74352e-05
4 *4079:B1 *4837:A 5.52238e-05
5 *4079:B1 *998:65 0.000149764
6 *4076:B *4079:B1 7.77751e-05
7 *4080:A2 *4079:B1 3.18676e-05
*RES
1 *4830:X *4079:B1 26.5286 
*END

*D_NET *637 0.000641048
*CONN
*I *4340:A I *D sky130_fd_sc_hd__xor2_2
*I *4831:X O *D sky130_fd_sc_hd__dlygate4sd3_1
*CAP
1 *4340:A 0.000279534
2 *4831:X 0.000279534
3 *4340:A *3955:A 0
4 *4340:A *3955:B 5.01117e-05
5 *4340:A *4593:RESET_B 0
6 *4340:A *970:6 3.18676e-05
*RES
1 *4831:X *4340:A 32.2071 
*END

*D_NET *638 0.00159187
*CONN
*I *4392:A1 I *D sky130_fd_sc_hd__o21a_2
*I *4832:X O *D sky130_fd_sc_hd__dlygate4sd3_1
*CAP
1 *4392:A1 0.000499674
2 *4832:X 0.000499674
3 *4392:A1 *3885:A 0
4 *4392:A1 *3885:B 2.89016e-05
5 *4392:A1 *3885:C 1.5942e-05
6 *4392:A1 *4393:C 8.5896e-05
7 *4392:A1 *4441:RESET_B 0
8 *4392:A1 *1009:8 1.40306e-05
9 *4392:A1 *1009:12 0
10 *4392:A2 *4392:A1 0.000320024
11 *4392:B1 *4392:A1 3.52828e-05
12 *446:8 *4392:A1 9.24491e-05
*RES
1 *4832:X *4392:A1 38.6714 
*END

*D_NET *639 0.000303846
*CONN
*I *4332:A I *D sky130_fd_sc_hd__nand2_2
*I *4833:X O *D sky130_fd_sc_hd__dlygate4sd3_1
*CAP
1 *4332:A 7.52991e-05
2 *4833:X 7.52991e-05
3 *4332:B *4332:A 5.52302e-05
4 *4333:A2 *4332:A 9.80173e-05
*RES
1 *4833:X *4332:A 20.3857 
*END

*D_NET *640 0.000971216
*CONN
*I *4302:A I *D sky130_fd_sc_hd__nand2_2
*I *4834:X O *D sky130_fd_sc_hd__dlygate4sd3_1
*CAP
1 *4302:A 0.000310946
2 *4834:X 0.000310946
3 *4302:A *692:18 0.000175519
4 *213:12 *4302:A 0.000173804
*RES
1 *4834:X *4302:A 33.2607 
*END

*D_NET *641 0.000405651
*CONN
*I *4852:A I *D sky130_fd_sc_hd__clkdlybuf4s25_1
*I *4597:X O *D sky130_fd_sc_hd__buf_2
*CAP
1 *4852:A 0.00018837
2 *4597:X 0.00018837
3 led[0] *4852:A 2.89114e-05
*RES
1 *4597:X *4852:A 30.9036 
*END

*D_NET *642 0.0165115
*CONN
*I *4301:B1 I *D sky130_fd_sc_hd__a21oi_2
*I *4667:A I *D sky130_fd_sc_hd__clkdlybuf4s25_1
*I *4303:B1 I *D sky130_fd_sc_hd__a21oi_2
*I *4278:B1 I *D sky130_fd_sc_hd__a21oi_2
*I *4280:B1 I *D sky130_fd_sc_hd__a21oi_2
*I *4282:B1 I *D sky130_fd_sc_hd__a21oi_2
*I *4666:A I *D sky130_fd_sc_hd__clkdlybuf4s25_1
*I *4668:X O *D sky130_fd_sc_hd__clkdlybuf4s25_1
*CAP
1 *4301:B1 0
2 *4667:A 0.000534395
3 *4303:B1 1.7184e-05
4 *4278:B1 0
5 *4280:B1 0
6 *4282:B1 0.000376438
7 *4666:A 0.000183244
8 *4668:X 0.000750065
9 *642:90 0.000829934
10 *642:84 0.000331171
11 *642:57 0.0010229
12 *642:45 0.00101556
13 *642:28 0.00267003
14 *642:18 0.00292057
15 *4282:B1 *4495:D 0.000205967
16 *4282:B1 *4496:D 0.000220824
17 *4303:B1 *4300:A 3.03304e-05
18 *4303:B1 *4506:D 5.52238e-05
19 *4666:A *4696:A 3.67257e-05
20 *4666:A *4806:A 0
21 *642:18 *4300:A 5.33005e-05
22 *642:18 *4709:A 0.000213688
23 *642:18 *926:17 0.000148903
24 *642:18 *926:34 2.24646e-05
25 *642:28 *3996:B 0.000389154
26 *642:28 *4463:RESET_B 7.64155e-05
27 *642:28 *4472:RESET_B 0.000384267
28 *642:28 *683:84 0
29 *642:28 *684:8 0
30 *642:28 *684:46 0.000373395
31 *642:28 *684:48 0.000356611
32 *642:28 *926:17 4.80729e-05
33 *642:45 *4701:A 0.000156592
34 *642:45 *4806:A 9.90431e-05
35 *642:45 *677:8 0.000356022
36 *642:45 *714:20 2.89016e-05
37 *642:57 *4495:D 5.65955e-05
38 *642:57 *4820:A 0.000186669
39 *642:57 *714:20 0
40 *642:84 *4505:D 3.14048e-05
41 *642:90 *4505:D 1.56e-05
42 *3996:D *642:18 0.000151515
43 *3996:D *642:28 0.000368104
44 *4048:A *642:28 0.000164008
45 *4048:B *642:28 9.69119e-06
46 *4054:B1 *642:28 0
47 *4067:A *642:28 0
48 *4277:A *642:45 3.47797e-05
49 *4277:A *642:57 0
50 *4277:B *642:57 0
51 *4278:A2 *642:45 5.62995e-05
52 *4278:A2 *642:57 8.16036e-05
53 *4280:A1 *642:57 0.000195755
54 *4301:A1 *642:90 0.000139907
55 *4301:A2 *4303:B1 9.90367e-05
56 *4301:A2 *4667:A 3.17148e-05
57 *4301:A2 *642:90 0.000173076
58 *4303:A1 *4667:A 3.97543e-05
59 *4303:A2 *642:90 0
60 *4419:D *4666:A 0
61 *4419:D *642:28 0
62 *4421:CLK *642:28 0.000138015
63 *4421:D *642:28 3.28804e-05
64 *4423:D *4666:A 0
65 *4467:D *642:28 0
66 *4468:D *642:28 0
67 *4495:CLK *4282:B1 5.83157e-05
68 *4506:CLK *642:18 6.05161e-06
69 *4508:CLK *4667:A 0.000121606
70 *4621:A *642:28 7.25296e-05
71 *200:21 *642:57 0
72 *211:42 *4667:A 0
73 *260:14 *642:28 0
74 *468:37 *642:18 0.000239701
75 *496:24 *4282:B1 1.30594e-05
76 *497:77 *642:28 8.63888e-05
*RES
1 *4668:X *642:18 27.1393 
2 *642:18 *642:28 46.6964 
3 *642:28 *4666:A 16.9964 
4 *642:28 *642:45 13.2679 
5 *642:45 *642:57 20.6429 
6 *642:57 *4282:B1 26.3536 
7 *642:57 *4280:B1 9.3 
8 *642:45 *4278:B1 9.3 
9 *642:18 *642:84 5.44643 
10 *642:84 *642:90 10.0536 
11 *642:90 *4303:B1 14.7464 
12 *642:90 *4667:A 23.8357 
13 *642:84 *4301:B1 9.3 
*END

*D_NET *643 0.000664499
*CONN
*I *4310:A I *D sky130_fd_sc_hd__nand2_2
*I *4835:X O *D sky130_fd_sc_hd__dlygate4sd3_1
*CAP
1 *4310:A 0.000234987
2 *4835:X 0.000234987
3 *4310:A *3957:A 9.28602e-05
4 *4310:B *4310:A 0
5 *4311:A2 *4310:A 6.97972e-05
6 *4313:A2 *4310:A 3.18676e-05
*RES
1 *4835:X *4310:A 31.725 
*END

*D_NET *644 0.002829
*CONN
*I *3851:A1 I *D sky130_fd_sc_hd__a31oi_2
*I *4836:X O *D sky130_fd_sc_hd__dlygate4sd3_1
*CAP
1 *3851:A1 0.00109151
2 *4836:X 0.00109151
3 *3851:A1 *3849:A2 0
4 *3851:A1 *3849:B1 1.94879e-05
5 *3851:A1 *4771:A 0.00012334
6 *3851:A1 *669:27 0
7 *3851:A1 *752:19 0.000159462
8 *3851:B1 *3851:A1 8.72308e-05
9 *4359:B *3851:A1 5.33005e-05
10 *4406:CLK *3851:A1 0
11 *4799:A *3851:A1 1.96726e-05
12 *449:226 *3851:A1 0.000183491
13 *519:26 *3851:A1 0
14 *519:38 *3851:A1 0
*RES
1 *4836:X *3851:A1 45.475 
*END

*D_NET *645 0.00140269
*CONN
*I *4078:A1 I *D sky130_fd_sc_hd__a21o_2
*I *4837:X O *D sky130_fd_sc_hd__dlygate4sd3_1
*CAP
1 *4078:A1 0.000381527
2 *4837:X 0.000381527
3 *4078:A1 *3877:A 3.25078e-05
4 *4078:A1 *4079:A1 9.90367e-05
5 *4078:A1 *4079:A2 3.92757e-05
6 *4078:A1 *998:65 0.000268403
7 *4078:A1 *999:16 0.000200413
*RES
1 *4837:X *4078:A1 34.475 
*END

*D_NET *646 0.00021788
*CONN
*I *3917:A1 I *D sky130_fd_sc_hd__a21o_2
*I *4838:X O *D sky130_fd_sc_hd__dlygate4sd3_1
*CAP
1 *3917:A1 6.98982e-05
2 *4838:X 6.98982e-05
3 *3917:A2 *3917:A1 5.52238e-05
4 *3917:B1 *3917:A1 2.28598e-05
*RES
1 *4838:X *3917:A1 19.5464 
*END

*D_NET *647 0.00812308
*CONN
*I *4319:B1 I *D sky130_fd_sc_hd__a21oi_2
*I *4317:A I *D sky130_fd_sc_hd__nor2_2
*I *4321:B1 I *D sky130_fd_sc_hd__a21oi_2
*I *4323:B1 I *D sky130_fd_sc_hd__a21oi_2
*I *4311:B1 I *D sky130_fd_sc_hd__a21oi_2
*I *4313:B1 I *D sky130_fd_sc_hd__a21oi_2
*I *4309:B1 I *D sky130_fd_sc_hd__a21oi_2
*I *4307:B I *D sky130_fd_sc_hd__nor2_2
*I *4669:X O *D sky130_fd_sc_hd__clkdlybuf4s25_1
*CAP
1 *4319:B1 0
2 *4317:A 0.000129912
3 *4321:B1 6.04819e-05
4 *4323:B1 0.000314371
5 *4311:B1 0
6 *4313:B1 0.000430397
7 *4309:B1 3.16435e-06
8 *4307:B 0.000120459
9 *4669:X 0.000432134
10 *647:84 0.000641658
11 *647:80 0.000579581
12 *647:43 0.000774143
13 *647:37 0.000474261
14 *647:18 0.000841773
15 *647:14 0.00105178
16 *647:10 0.000713415
17 *4307:B *4308:A 5.71472e-05
18 *4307:B *4308:B 5.52302e-05
19 *4307:B *690:73 0
20 *4313:B1 *3957:A 0.000133892
21 *4313:B1 *4576:D 0.000153054
22 *4313:B1 *4578:D 2.78608e-05
23 *4321:B1 *4707:A 7.77652e-05
24 *647:10 *4804:A 0
25 *647:14 *3956:A 0
26 *647:14 *3958:D 0
27 *647:14 *4804:A 0
28 *647:18 *3958:A 0.000316184
29 *647:37 *3958:A 0
30 *647:43 *4577:D 0
31 *3962:B *4323:B1 0.000202776
32 *4311:A1 *647:43 0
33 *4311:A2 *4313:B1 0
34 *4311:A2 *647:18 3.30352e-05
35 *4311:A2 *647:37 5.62995e-05
36 *4311:A2 *647:43 0
37 *4312:A *647:10 1.05947e-05
38 *4319:A2 *647:10 0
39 *4321:A2 *647:84 9.47456e-05
40 *4322:A2 *647:84 0
41 *4576:CLK *4313:B1 0
42 *4579:CLK *647:10 5.33433e-05
43 *4624:A *4323:B1 0
44 *174:27 *4313:B1 5.52302e-05
45 *175:6 *4313:B1 5.52238e-05
46 *176:10 *647:18 9.00795e-06
47 *178:25 *647:84 0
48 *179:8 *4323:B1 7.79781e-06
49 *179:8 *647:84 7.80714e-06
50 *463:8 *4323:B1 0
51 *471:12 *647:43 8.58946e-05
52 *471:23 *4309:B1 5.01876e-06
53 *471:23 *4313:B1 0
54 *471:23 *647:43 5.76372e-05
55 *472:56 *647:10 0
56 *472:56 *647:14 0
*RES
1 *4669:X *647:10 19.5679 
2 *647:10 *647:14 9.48214 
3 *647:14 *647:18 7.83929 
4 *647:18 *4307:B 20.4786 
5 *647:18 *647:37 2.625 
6 *647:37 *647:43 11.5089 
7 *647:43 *4309:B1 14.0768 
8 *647:43 *4313:B1 22.5589 
9 *647:37 *4311:B1 9.3 
10 *647:14 *647:80 3 
11 *647:80 *647:84 9.48214 
12 *647:84 *4323:B1 20.9071 
13 *647:84 *4321:B1 15.1571 
14 *647:80 *4317:A 11.4786 
15 *647:10 *4319:B1 13.8 
*END

*D_NET *648 0.0113662
*CONN
*I *4339:B1 I *D sky130_fd_sc_hd__a21oi_2
*I *4337:B1 I *D sky130_fd_sc_hd__a21oi_2
*I *4335:A I *D sky130_fd_sc_hd__nor2_2
*I *4333:B1 I *D sky130_fd_sc_hd__a21oi_2
*I *4341:A I *D sky130_fd_sc_hd__nor2_2
*I *4329:A I *D sky130_fd_sc_hd__nor2_2
*I *3975:A I *D sky130_fd_sc_hd__inv_2
*I *4331:B1 I *D sky130_fd_sc_hd__a21oi_2
*I *4670:X O *D sky130_fd_sc_hd__clkdlybuf4s25_1
*CAP
1 *4339:B1 0.00037419
2 *4337:B1 0
3 *4335:A 1.99857e-05
4 *4333:B1 0
5 *4341:A 0.000545928
6 *4329:A 2.23854e-05
7 *3975:A 3.27275e-05
8 *4331:B1 6.56018e-05
9 *4670:X 4.31754e-05
10 *648:56 0.000783732
11 *648:41 0.000978685
12 *648:30 0.00113881
13 *648:24 0.000530547
14 *648:18 0.000841383
15 *648:10 0.000849565
16 *648:8 0.000633408
17 *3975:A *939:6 2.59355e-05
18 *4339:B1 *3971:A 0
19 *4339:B1 *4591:D 0.000372398
20 *4339:B1 *4591:RESET_B 0
21 *4339:B1 *705:52 0
22 *4341:A *4592:D 0
23 *4341:A *4593:D 7.43578e-06
24 *648:10 *3969:A 0.000131015
25 *648:10 *3971:A 0
26 *648:10 *4591:RESET_B 0
27 *648:18 *3969:A 0.000369825
28 *648:18 *4591:RESET_B 0
29 *648:18 *705:10 0
30 *648:18 *705:20 0
31 *648:18 *967:10 0.000153047
32 *648:24 *4588:D 0.00010096
33 *648:24 *4833:A 9.90367e-05
34 *648:30 *4586:RESET_B 0
35 *648:30 *4587:D 0.000100831
36 *648:30 *4588:RESET_B 0.000250201
37 *648:30 *4833:A 5.71472e-05
38 *648:41 *4327:B1 0.000177837
39 *648:41 *4585:D 0.000100831
40 *648:41 *4586:D 0.000148911
41 *648:41 *4586:RESET_B 0
42 *648:41 *978:10 0
43 *648:56 *4315:B1 2.82057e-05
44 *648:56 *4586:D 0.000211761
45 *3968:B *648:30 1.52978e-05
46 *4328:B *648:41 0
47 *4329:B *648:56 0.000344984
48 *4332:B *648:30 9.71197e-05
49 *4333:A1 *4335:A 1.04232e-05
50 *4333:A1 *648:18 0.000163587
51 *4333:A1 *648:24 0.000300643
52 *4333:A2 *648:24 0.000144621
53 *4333:A2 *648:30 0.000314139
54 *4335:B *648:18 0.00010096
55 *4338:A *4339:B1 0.000271674
56 *4339:A2 *4339:B1 0
57 *4339:A2 *648:8 1.92905e-05
58 *4343:A2 *4339:B1 2.44318e-05
59 *4593:CLK *4341:A 5.33433e-05
60 *184:18 *648:30 0.000131097
61 *470:64 *648:30 0.000179062
62 *472:28 *648:41 0
63 *472:41 *648:41 0
*RES
1 *4670:X *648:8 14.3357 
2 *648:8 *648:10 4.375 
3 *648:10 *648:18 17.7143 
4 *648:18 *648:24 5.5 
5 *648:24 *648:30 14.9107 
6 *648:30 *4331:B1 14.7464 
7 *648:30 *648:41 14.6964 
8 *648:41 *3975:A 14.3357 
9 *648:41 *648:56 10.25 
10 *648:56 *4329:A 9.72857 
11 *648:56 *4341:A 26.9429 
12 *648:24 *4333:B1 9.3 
13 *648:18 *4335:A 9.72857 
14 *648:10 *4337:B1 13.8 
15 *648:8 *4339:B1 23.425 
*END

*D_NET *649 0.0107128
*CONN
*I *4345:A I *D sky130_fd_sc_hd__nor2_2
*I *4670:A I *D sky130_fd_sc_hd__clkdlybuf4s25_1
*I *4669:A I *D sky130_fd_sc_hd__clkdlybuf4s25_1
*I *4325:B1 I *D sky130_fd_sc_hd__a21oi_2
*I *4671:X O *D sky130_fd_sc_hd__clkdlybuf4s25_1
*CAP
1 *4345:A 0
2 *4670:A 0.00030937
3 *4669:A 0.000353384
4 *4325:B1 0.00074519
5 *4671:X 0.00018164
6 *649:58 0.000542909
7 *649:18 0.00323752
8 *649:14 0.00255413
9 *4325:B1 *3963:C 0.000292696
10 *4325:B1 *4580:D 0
11 *4325:B1 *4580:RESET_B 0
12 *4325:B1 *4583:RESET_B 0.000276809
13 *4325:B1 *4584:D 0
14 *4325:B1 *688:36 0
15 *4325:B1 *981:10 0.000100913
16 *4325:B1 *981:21 6.26466e-05
17 *4325:B1 *983:10 8.15939e-05
18 *4669:A *4579:D 9.25014e-06
19 *4669:A *4579:RESET_B 0.000138572
20 *4669:A *688:79 6.65302e-05
21 *4670:A *4596:RESET_B 5.83304e-05
22 *649:18 *939:27 0.000108251
23 *4322:A2 *4325:B1 0
24 *4323:A1 *4325:B1 0
25 *4323:A2 *4325:B1 0
26 *4324:A *4325:B1 0.000538509
27 *4325:A1 *4325:B1 0
28 *4345:B *649:14 0.000161006
29 *4345:B *649:58 6.56976e-05
30 *4346:A3 *4670:A 6.05161e-06
31 *4346:A3 *649:58 1.33343e-05
32 *4579:CLK *4669:A 3.18676e-05
33 *4582:CLK *4325:B1 6.74815e-05
34 *4595:CLK *649:14 0.000139864
35 *178:25 *4325:B1 0
36 *178:25 *4669:A 0
37 *189:10 *4670:A 0.000368104
38 *189:12 *649:58 6.76337e-05
39 *485:42 *4670:A 5.38886e-05
40 *485:51 *4670:A 5.85135e-05
41 *485:51 *649:14 2.11419e-05
*RES
1 *4671:X *649:14 20.0711 
2 *649:14 *649:18 8.5377 
3 *649:18 *4325:B1 33.7375 
4 *649:18 *4669:A 21.3268 
5 *649:14 *649:58 10.7269 
6 *649:58 *4670:A 25.7107 
7 *649:58 *4345:A 9.3 
*END

*D_NET *650 0.0092726
*CONN
*I *4381:B I *D sky130_fd_sc_hd__and2_2
*I *4385:B I *D sky130_fd_sc_hd__and2_2
*I *4383:B I *D sky130_fd_sc_hd__and2_2
*I *4375:B I *D sky130_fd_sc_hd__and2_2
*I *4373:B I *D sky130_fd_sc_hd__and2_2
*I *4371:B I *D sky130_fd_sc_hd__and2_2
*I *4389:B1 I *D sky130_fd_sc_hd__a2bb2o_2
*I *4387:B I *D sky130_fd_sc_hd__and2_2
*I *4672:X O *D sky130_fd_sc_hd__clkdlybuf4s25_1
*CAP
1 *4381:B 0
2 *4385:B 0
3 *4383:B 0.000387076
4 *4375:B 0.00011704
5 *4373:B 0
6 *4371:B 0.00013367
7 *4389:B1 1.16169e-05
8 *4387:B 0.000469576
9 *4672:X 0
10 *650:75 0.000662418
11 *650:73 0.000416355
12 *650:51 0.000268952
13 *650:34 0.00120896
14 *650:25 0.00114081
15 *650:10 0.00104663
16 *650:6 0.000512257
17 *4371:B *3871:A1 1.99099e-05
18 *4371:B *4430:RESET_B 0
19 *4371:B *710:62 9.10431e-06
20 *4375:B *4372:A1 0
21 *4375:B *4432:RESET_B 0.00014209
22 *4375:B *710:62 0.000254337
23 *4383:B *4758:A 9.71197e-05
24 *4383:B *709:69 0
25 *4383:B *709:76 0
26 *4383:B *715:75 0.000413047
27 *4383:B *1018:10 5.33882e-05
28 *650:10 *4382:A3 0
29 *650:10 *4388:A3 0
30 *650:10 *716:52 0.000210525
31 *650:51 *4372:A1 0
32 *650:51 *710:62 0.000125731
33 *650:73 *4381:A 9.25014e-06
34 *650:73 *4382:A3 0
35 *4369:B *650:25 3.81416e-06
36 *4369:B *650:34 2.77289e-05
37 *4372:B1 *4371:B 0.0001098
38 *4372:B1 *650:51 0
39 *4374:B1 *4375:B 0.000184626
40 *4382:A2 *4383:B 2.79092e-05
41 *4384:B1 *4383:B 0
42 *4388:B1 *4387:B 0.000796074
43 *4389:A1_N *4387:B 6.05161e-06
44 *4389:A1_N *650:25 6.8824e-06
45 *4389:A2_N *650:25 9.7659e-05
46 *4389:A2_N *650:34 1.98839e-05
47 *4435:D *4383:B 0
48 *4439:D *4387:B 0.000183258
49 *432:10 *650:34 9.90431e-05
50 *433:14 *650:10 0
51 *433:25 *650:10 0
52 *433:25 *650:73 0
*RES
1 *4672:X *650:6 13.8 
2 *650:6 *650:10 11.9107 
3 *650:10 *4387:B 21.0857 
4 *650:10 *650:25 2.58929 
5 *650:25 *4389:B1 9.72857 
6 *650:25 *650:34 10.8036 
7 *650:34 *4371:B 21.7643 
8 *650:34 *650:51 7.08929 
9 *650:51 *4373:B 13.8 
10 *650:51 *4375:B 18.7821 
11 *650:6 *650:73 6.98214 
12 *650:73 *650:75 4.23214 
13 *650:75 *4383:B 26.8893 
14 *650:75 *4385:B 9.3 
15 *650:73 *4381:B 9.3 
*END

*D_NET *651 0.00910368
*CONN
*I *4374:A3 I *D sky130_fd_sc_hd__a31o_2
*I *4372:A3 I *D sky130_fd_sc_hd__a31o_2
*I *4378:A3 I *D sky130_fd_sc_hd__a31o_2
*I *4376:A3 I *D sky130_fd_sc_hd__a31o_2
*I *4382:A3 I *D sky130_fd_sc_hd__a31o_2
*I *4388:A3 I *D sky130_fd_sc_hd__a31o_2
*I *4384:A3 I *D sky130_fd_sc_hd__a31o_2
*I *4386:A3 I *D sky130_fd_sc_hd__a31o_2
*I *4673:X O *D sky130_fd_sc_hd__clkdlybuf4s25_1
*CAP
1 *4374:A3 0
2 *4372:A3 0.000172996
3 *4378:A3 0.000149728
4 *4376:A3 3.80211e-05
5 *4382:A3 0.00037643
6 *4388:A3 0.000107744
7 *4384:A3 0.000184297
8 *4386:A3 0
9 *4673:X 0
10 *651:86 0.000354889
11 *651:66 0.000354796
12 *651:60 0.00091738
13 *651:38 0.000484174
14 *651:36 0.000823927
15 *651:16 0.000719978
16 *651:4 0.000791168
17 *4372:A3 *4372:A1 0.000201995
18 *4376:A3 *4376:A1 6.05161e-06
19 *4378:A3 *4376:A1 2.04825e-05
20 *4378:A3 *4378:A1 0.000164974
21 *4378:A3 *4434:RESET_B 3.57844e-05
22 *4378:A3 *716:89 2.04866e-05
23 *4382:A3 *4381:A 0
24 *4382:A3 *4382:A1 9.90367e-05
25 *4382:A3 *715:75 0.000168549
26 *4382:A3 *939:46 9.90367e-05
27 *4384:A3 *3974:A 0
28 *4384:A3 *4386:A1 0.000132282
29 *4384:A3 *4596:D 0
30 *4384:A3 *4781:A 0
31 *4384:A3 *715:89 1.41029e-05
32 *4388:A3 *715:75 3.65627e-05
33 *4388:A3 *716:52 0
34 *651:16 *3974:A 0
35 *651:16 *4386:A1 3.12239e-05
36 *651:66 *4376:A1 6.12326e-06
37 *651:66 *716:65 3.34366e-05
38 *651:66 *716:89 0.000216764
39 *651:86 *716:69 0.000357054
40 *4376:A2 *4378:A3 0.000267814
41 *4380:A3 *4378:A3 0
42 *4380:A3 *651:66 0
43 *4382:B1 *4382:A3 0
44 *4386:A2 *4384:A3 8.25098e-05
45 *4386:A2 *651:16 3.51442e-05
46 *4386:B1 *4382:A3 9.12446e-05
47 *4386:B1 *4388:A3 4.46186e-06
48 *4386:B1 *651:16 0.000575099
49 *4386:B1 *651:36 0.000273269
50 *4431:D *4372:A3 5.33786e-05
51 *4431:D *651:86 5.52302e-05
52 *4432:D *4376:A3 5.62995e-05
53 *4437:D *4384:A3 5.33786e-05
54 *4596:CLK *651:16 7.48301e-06
55 *4672:A *651:60 9.71197e-05
56 *4673:A *651:36 1.55885e-05
57 *4673:A *651:60 0.00030399
58 *432:10 *651:66 0
59 *489:27 *651:16 1.21955e-05
60 *490:30 *4372:A3 0
61 *490:39 *4372:A3 0
62 *650:10 *4382:A3 0
63 *650:10 *4388:A3 0
64 *650:73 *4382:A3 0
*RES
1 *4673:X *651:4 9.3 
2 *651:4 *651:16 13.0179 
3 *651:16 *4386:A3 13.8 
4 *651:16 *4384:A3 18.4786 
5 *651:4 *651:36 3.83929 
6 *651:36 *651:38 4.5 
7 *651:38 *4388:A3 15.4429 
8 *651:38 *4382:A3 22.7643 
9 *651:36 *651:60 9.98214 
10 *651:60 *651:66 8.19643 
11 *651:66 *4376:A3 14.7464 
12 *651:66 *4378:A3 18.7821 
13 *651:60 *651:86 3.82143 
14 *651:86 *4372:A3 22.9786 
15 *651:86 *4374:A3 9.3 
*END

*D_NET *652 0.0124814
*CONN
*I *4184:B1 I *D sky130_fd_sc_hd__o21ai_2
*I *4181:B1 I *D sky130_fd_sc_hd__o21ai_2
*I *4187:B1 I *D sky130_fd_sc_hd__o21ai_2
*I *4179:B1 I *D sky130_fd_sc_hd__o21ai_2
*I *4168:B1 I *D sky130_fd_sc_hd__o21ai_2
*I *4171:B1 I *D sky130_fd_sc_hd__o21ai_2
*I *4173:B1 I *D sky130_fd_sc_hd__o21ai_2
*I *4176:B1 I *D sky130_fd_sc_hd__o21ai_2
*I *4674:X O *D sky130_fd_sc_hd__clkdlybuf4s25_1
*CAP
1 *4184:B1 0
2 *4181:B1 5.61375e-05
3 *4187:B1 0.00116955
4 *4179:B1 0.000126067
5 *4168:B1 0.000128996
6 *4171:B1 0
7 *4173:B1 8.50206e-05
8 *4176:B1 9.23949e-05
9 *4674:X 0
10 *652:67 0.0013629
11 *652:56 0.000869287
12 *652:52 0.00169035
13 *652:12 0.000226113
14 *652:10 0.000473488
15 *652:6 0.000892867
16 *652:4 0.00142342
17 *4168:B1 *4166:A1 5.71472e-05
18 *4168:B1 *4166:A2 1.04232e-05
19 *4176:B1 *4538:D 9.15842e-06
20 *4187:B1 *4545:D 0.000119003
21 *652:6 *4166:A2 0.000188586
22 *652:6 *4166:B1 0.000276211
23 *652:10 *4538:D 1.00887e-05
24 *652:12 *4538:D 0.000124019
25 *652:52 *4157:B1 0.000173921
26 *652:52 *4166:B1 0.000358971
27 *652:52 *693:16 0
28 *652:56 *4541:D 6.44649e-05
29 *652:56 *4543:D 0.000292701
30 *652:56 *693:16 0
31 *4166:A3 *652:6 1.69961e-05
32 *4166:A3 *652:52 1.15281e-05
33 *4167:B *652:52 1.55953e-05
34 *4170:B *652:10 0
35 *4171:A2 *652:10 0
36 *4173:A2 *4173:B1 3.66289e-05
37 *4176:A1 *4176:B1 0.000110999
38 *4176:A1 *652:10 1.34741e-05
39 *4179:A2 *4181:B1 7.88091e-05
40 *4179:A2 *4187:B1 1.16733e-05
41 *4179:A2 *652:67 1.16543e-05
42 *4181:A1 *4187:B1 0.000215563
43 *4182:A3 *652:56 0
44 *4187:A1 *4187:B1 0.000132312
45 *4540:CLK *4176:B1 0.00010402
46 *4545:CLK *4187:B1 3.08734e-05
47 *473:24 *652:52 0
48 *473:24 *652:56 0
49 *493:12 *652:10 7.83462e-05
50 *493:14 *652:10 0.000209574
51 *493:16 *4176:B1 3.02801e-05
52 *493:16 *652:10 0.000111951
53 *493:16 *652:12 5.71119e-05
54 *542:29 *4181:B1 0.000100165
55 *542:29 *652:67 0.0001871
56 *542:35 *652:56 0.000603098
57 *542:62 *652:10 3.23641e-05
*RES
1 *4674:X *652:4 9.3 
2 *652:4 *652:6 5.05357 
3 *652:6 *652:10 14.0357 
4 *652:10 *652:12 1.64286 
5 *652:12 *4176:B1 16.9607 
6 *652:12 *4173:B1 15.1571 
7 *652:10 *4171:B1 13.8 
8 *652:6 *4168:B1 11.4964 
9 *652:4 *652:52 19 
10 *652:52 *652:56 19.8036 
11 *652:56 *4179:B1 11.3893 
12 *652:56 *652:67 3 
13 *652:67 *4187:B1 34.3714 
14 *652:67 *4181:B1 11.3893 
15 *652:52 *4184:B1 13.8 
*END

*D_NET *653 0.0143521
*CONN
*I *4196:B1 I *D sky130_fd_sc_hd__o21ai_2
*I *4199:B1 I *D sky130_fd_sc_hd__o21ai_2
*I *4152:B1 I *D sky130_fd_sc_hd__o21ai_2
*I *4155:B1 I *D sky130_fd_sc_hd__o21ai_2
*I *4160:B1 I *D sky130_fd_sc_hd__o21ai_2
*I *4157:B1 I *D sky130_fd_sc_hd__o21ai_2
*I *4163:B1 I *D sky130_fd_sc_hd__o21ai_2
*I *4165:B1 I *D sky130_fd_sc_hd__o21ai_2
*I *4675:X O *D sky130_fd_sc_hd__clkdlybuf4s25_1
*CAP
1 *4196:B1 0.000276298
2 *4199:B1 0.000166346
3 *4152:B1 0.000304269
4 *4155:B1 3.20659e-05
5 *4160:B1 0.000148424
6 *4157:B1 0.000346599
7 *4163:B1 4.52358e-05
8 *4165:B1 0.000105994
9 *4675:X 0
10 *653:96 0.00104945
11 *653:70 0.000507348
12 *653:66 0.00114806
13 *653:38 0.000544767
14 *653:36 0.00138977
15 *653:10 0.000470916
16 *653:4 0.00128947
17 *4152:B1 *4153:B 0.000139097
18 *4152:B1 *4777:A 0.000101545
19 *4152:B1 *838:12 0
20 *4155:B1 *827:27 2.14658e-05
21 *4157:B1 *4534:D 0
22 *4163:B1 *4535:D 5.52238e-05
23 *4165:B1 *4166:A1 7.2754e-05
24 *4165:B1 *4535:D 0.000121573
25 *4165:B1 *4535:RESET_B 4.21613e-05
26 *4196:B1 *4198:A 0.000213841
27 *653:10 *4166:A1 0.000142943
28 *653:10 *843:42 0.000276211
29 *653:36 *843:42 0.000139907
30 *653:70 *4015:C 1.00375e-05
31 *653:70 *4158:A2 7.50601e-05
32 *653:70 *838:12 0
33 *653:70 *841:21 1.18358e-05
34 *653:96 *4156:A 5.33005e-05
35 *653:96 *655:46 9.41642e-05
36 *4152:A1 *4152:B1 0.00014285
37 *4154:A *653:36 2.51343e-06
38 *4156:B *4152:B1 7.79781e-06
39 *4156:B *653:70 9.11365e-06
40 *4157:A2 *653:66 0.000186662
41 *4159:B *653:70 9.40241e-05
42 *4160:A1 *4157:B1 1.52978e-05
43 *4160:A1 *4160:B1 5.52238e-05
44 *4160:A1 *653:36 5.58875e-06
45 *4160:A1 *653:38 7.50767e-05
46 *4160:A2 *4160:B1 1.92789e-05
47 *4161:B *653:36 0.000249363
48 *4163:A2 *4165:B1 4.46186e-06
49 *4163:A2 *653:10 7.92879e-05
50 *4165:A1 *4163:B1 2.14757e-05
51 *4165:A2 *4165:B1 0.000139907
52 *4195:A_N *4196:B1 6.74226e-05
53 *4195:A_N *653:96 0.000185545
54 *4196:A2 *4199:B1 0.000317634
55 *4198:B *4196:B1 2.36643e-05
56 *4199:A2 *4196:B1 1.30891e-05
57 *4199:A2 *4199:B1 0.000242994
58 *4199:A2 *653:96 9.80271e-05
59 *4532:CLK *653:36 0.000362822
60 *4532:CLK *653:38 0.000141014
61 *4535:CLK *4165:B1 2.89016e-05
62 *4548:CLK *4199:B1 0.000116123
63 *4548:CLK *653:96 0.000201229
64 *4627:A *4199:B1 0.000167626
65 *229:6 *4155:B1 5.71472e-05
66 *232:8 *4157:B1 0
67 *232:16 *4157:B1 0
68 *342:12 *4196:B1 0.000419288
69 *473:16 *653:96 0.000277908
70 *473:22 *4157:B1 0.000187733
71 *473:22 *653:38 9.25014e-06
72 *473:24 *4157:B1 0.000227736
73 *553:16 *4152:B1 0
74 *553:27 *4155:B1 5.52238e-05
75 *553:27 *653:70 0.000388647
76 *553:59 *653:36 8.51167e-05
77 *652:52 *4157:B1 0.000173921
*RES
1 *4675:X *653:4 9.3 
2 *653:4 *653:10 10.2679 
3 *653:10 *4165:B1 17.1036 
4 *653:10 *4163:B1 14.7464 
5 *653:4 *653:36 19.1607 
6 *653:36 *653:38 1.94643 
7 *653:38 *4157:B1 22.0857 
8 *653:38 *4160:B1 16.4071 
9 *653:36 *653:66 10.3929 
10 *653:66 *653:70 9.78571 
11 *653:70 *4155:B1 14.7464 
12 *653:70 *4152:B1 19.5679 
13 *653:66 *653:96 13 
14 *653:96 *4199:B1 23.9786 
15 *653:96 *4196:B1 16.8893 
*END

*D_NET *654 0.00604695
*CONN
*I *4205:B1 I *D sky130_fd_sc_hd__o211ai_2
*I *4206:B1_N I *D sky130_fd_sc_hd__a21bo_2
*I *4203:B1 I *D sky130_fd_sc_hd__o21ai_2
*I *4201:B1 I *D sky130_fd_sc_hd__o21ai_2
*I *4676:X O *D sky130_fd_sc_hd__clkdlybuf4s25_1
*CAP
1 *4205:B1 0.0001977
2 *4206:B1_N 0.000141409
3 *4203:B1 0.000101497
4 *4201:B1 0.000624284
5 *4676:X 0.000169711
6 *654:32 0.000339109
7 *654:10 0.000856153
8 *654:8 0.000300084
9 *4201:B1 *4015:D 0
10 *4201:B1 *4676:A 0.000286594
11 *4201:B1 *655:46 0.000856292
12 *4201:B1 *696:16 0
13 *4201:B1 *842:8 0
14 *4203:B1 *3844:A 7.2261e-05
15 *654:8 *4676:A 0.000487021
16 *654:10 *4676:A 0.000270958
17 *654:10 *696:16 0
18 *4201:A1 *4201:B1 0.000269807
19 *4205:A1 *4203:B1 0.00022936
20 *4205:A2 *4205:B1 5.38444e-06
21 *4205:C1 *4205:B1 1.17091e-05
22 *4206:A1 *4206:B1_N 9.90431e-05
23 *4206:A1 *654:8 0
24 *4206:A1 *654:10 6.2589e-06
25 *4206:A2 *4205:B1 0.000101895
26 *4206:A2 *4206:B1_N 6.05161e-06
27 *4549:CLK *4201:B1 9.94037e-05
28 *4660:A *4203:B1 2.65242e-05
29 *4661:A *4203:B1 5.65955e-05
30 *242:12 *4205:B1 3.05605e-05
31 *449:300 *654:8 0.000196432
32 *564:20 *4201:B1 0.000192911
33 *564:26 *4201:B1 1.19402e-05
*RES
1 *4676:X *654:8 19.9964 
2 *654:8 *654:10 3.46429 
3 *654:10 *4201:B1 32.0143 
4 *654:10 *4203:B1 16.8 
5 *654:8 *654:32 4.5 
6 *654:32 *4206:B1_N 11.7732 
7 *654:32 *4205:B1 12.7286 
*END

*D_NET *655 0.0142074
*CONN
*I *4676:A I *D sky130_fd_sc_hd__clkdlybuf4s25_1
*I *4192:B1 I *D sky130_fd_sc_hd__o21ai_2
*I *4189:B1 I *D sky130_fd_sc_hd__o21ai_2
*I *4675:A I *D sky130_fd_sc_hd__clkdlybuf4s25_1
*I *4674:A I *D sky130_fd_sc_hd__clkdlybuf4s25_1
*I *4677:X O *D sky130_fd_sc_hd__clkdlybuf4s25_1
*CAP
1 *4676:A 0.000471198
2 *4192:B1 0.000136516
3 *4189:B1 0.00026848
4 *4675:A 4.92653e-05
5 *4674:A 0.000302974
6 *4677:X 0
7 *655:46 0.00133859
8 *655:32 0.00278942
9 *655:8 0.000401946
10 *655:4 0.00143433
11 *4189:B1 *4021:C 0
12 *4674:A *4017:C 0.000197233
13 *4674:A *4166:B1 5.71472e-05
14 *4674:A *4536:RESET_B 0.000318316
15 *4674:A *4699:A 0.000245342
16 *4674:A *680:25 1.03183e-05
17 *4674:A *844:27 3.55407e-05
18 *4675:A *4699:A 0.000139653
19 *4676:A *4791:A 0.000187009
20 *4676:A *840:12 0.00019198
21 *655:8 *843:14 8.25843e-06
22 *655:32 *4158:B1 3.47797e-05
23 *655:32 *4547:RESET_B 6.62752e-05
24 *655:32 *696:16 5.41609e-05
25 *655:32 *843:14 7.48301e-06
26 *655:46 *693:10 0
27 *655:46 *693:16 0
28 *655:46 *693:18 0
29 *655:46 *842:8 0
30 *4162:A *4674:A 4.80729e-05
31 *4162:A *4675:A 0.000148189
32 *4164:B *4674:A 0.000409182
33 *4166:A3 *4674:A 2.89114e-05
34 *4168:A2 *4674:A 0.000131375
35 *4184:A2 *655:46 0
36 *4189:A1 *4189:B1 5.20751e-05
37 *4192:A1 *4192:B1 0.000123068
38 *4201:B1 *4676:A 0.000286594
39 *4201:B1 *655:46 0.000856292
40 *4205:A1 *4676:A 0.000271958
41 *4548:CLK *655:46 9.60939e-05
42 *230:27 *655:32 0.00130729
43 *230:31 *655:32 1.39841e-05
44 *231:8 *655:8 6.05161e-06
45 *231:8 *655:32 2.28598e-05
46 *236:10 *4189:B1 1.34631e-05
47 *449:300 *4676:A 9.11365e-06
48 *449:322 *4676:A 7.64083e-05
49 *474:25 *4189:B1 0
50 *564:20 *4676:A 0.0001098
51 *564:20 *655:46 0.000153315
52 *564:26 *4189:B1 5.66157e-05
53 *564:26 *4192:B1 1.98839e-05
54 *564:26 *655:46 2.59355e-05
55 *564:30 *4189:B1 0.000342464
56 *564:95 *4676:A 0
57 *653:96 *655:46 9.41642e-05
58 *654:8 *4676:A 0.000487021
59 *654:10 *4676:A 0.000270958
*RES
1 *4677:X *655:4 9.3 
2 *655:4 *655:8 5.03571 
3 *655:8 *4674:A 25.0857 
4 *655:8 *4675:A 15.7464 
5 *655:4 *655:32 23.5179 
6 *655:32 *655:46 34.1786 
7 *655:46 *4189:B1 24.6393 
8 *655:46 *4192:B1 11.8893 
9 *655:32 *4676:A 30.2732 
*END

*D_NET *656 0.0011158
*CONN
*I *4853:A I *D sky130_fd_sc_hd__clkdlybuf4s25_1
*I *4598:X O *D sky130_fd_sc_hd__buf_2
*CAP
1 *4853:A 0.000431385
2 *4598:X 0.000431385
3 *4853:A *4598:A 5.79792e-05
4 led[1] *4853:A 2.84109e-05
5 *542:10 *4853:A 1.5864e-05
6 *564:38 *4853:A 0.00015078
*RES
1 *4598:X *4853:A 35.7607 
*END

*D_NET *657 0.0111332
*CONN
*I *4114:B1 I *D sky130_fd_sc_hd__o21ai_2
*I *4095:B1 I *D sky130_fd_sc_hd__o21ai_2
*I *4108:B1 I *D sky130_fd_sc_hd__o21ai_2
*I *4111:B1 I *D sky130_fd_sc_hd__o21ai_2
*I *4106:B1 I *D sky130_fd_sc_hd__o21ai_2
*I *4103:B1 I *D sky130_fd_sc_hd__o21ai_2
*I *4100:B1 I *D sky130_fd_sc_hd__o21ai_2
*I *4098:B1 I *D sky130_fd_sc_hd__o21ai_2
*I *4678:X O *D sky130_fd_sc_hd__clkdlybuf4s25_1
*CAP
1 *4114:B1 0.00029284
2 *4095:B1 0.000731963
3 *4108:B1 0.000154148
4 *4111:B1 0.000351715
5 *4106:B1 0.000130607
6 *4103:B1 0.000159861
7 *4100:B1 4.2403e-05
8 *4098:B1 0.000297729
9 *4678:X 0
10 *657:92 0.0012661
11 *657:57 0.000482323
12 *657:55 0.000317101
13 *657:31 0.000954607
14 *657:12 0.00127052
15 *657:10 0.000546099
16 *657:6 0.00040399
17 *4095:B1 *4553:D 0.000120011
18 *4095:B1 *782:10 8.55687e-05
19 *4098:B1 *793:12 0.00044468
20 *4098:B1 *793:18 0.000140933
21 *4100:B1 *711:29 2.12647e-05
22 *4106:B1 *4108:A1 0.000365547
23 *4108:B1 *4558:D 5.33005e-05
24 *4111:B1 *4111:A1 0.000274294
25 *4114:B1 *3845:A 0.000211205
26 *4114:B1 *4043:A 0.000176234
27 *4114:B1 *4678:A 0
28 *657:10 *4678:A 0
29 *657:10 *793:12 0
30 *657:31 *711:29 6.3629e-05
31 *657:31 *711:55 0.000205308
32 *657:31 *782:14 0
33 *657:31 *793:12 3.17148e-05
34 *657:31 *796:16 0.000121466
35 *657:92 *4678:A 0
36 *4032:B *657:31 5.50052e-05
37 *4043:B *4114:B1 5.75896e-05
38 *4097:A *4098:B1 3.69047e-06
39 *4097:B *4098:B1 0.00010096
40 *4100:A2 *4100:B1 5.66971e-05
41 *4102:A *657:31 0.000149113
42 *4108:A2 *4106:B1 7.79781e-06
43 *4108:A2 *4111:B1 2.8266e-06
44 *4150:A1 *4114:B1 0
45 *4555:CLK *4103:B1 6.56086e-05
46 *4557:CLK *4106:B1 9.86588e-05
47 *4559:CLK *4108:B1 0.000216664
48 *4559:CLK *657:55 9.71197e-05
49 *4658:A *4114:B1 0
50 *4658:A *657:92 0
51 *256:8 *4114:B1 6.8646e-06
52 *478:16 *4103:B1 0.00021796
53 *479:23 *4114:B1 9.24491e-05
54 *479:33 *4111:B1 6.75007e-05
55 *479:33 *4114:B1 0
56 *479:33 *657:10 0
57 *479:33 *657:92 0
58 *479:35 *4106:B1 0.000108729
59 *479:35 *4111:B1 1.08359e-05
*RES
1 *4678:X *657:6 13.8 
2 *657:6 *657:10 7.35714 
3 *657:10 *657:12 3.41071 
4 *657:12 *4098:B1 15.5857 
5 *657:12 *657:31 23.2857 
6 *657:31 *4100:B1 10.2464 
7 *657:31 *4103:B1 21.9964 
8 *657:10 *657:55 3.01786 
9 *657:55 *657:57 4.5 
10 *657:57 *4106:B1 18.7821 
11 *657:57 *4111:B1 20.3893 
12 *657:55 *4108:B1 13.2821 
13 *657:6 *657:92 4.375 
14 *657:92 *4095:B1 26.675 
15 *657:92 *4114:B1 21.2107 
*END

*D_NET *658 0.00488107
*CONN
*I *4116:B1 I *D sky130_fd_sc_hd__o21ai_2
*I *4119:B1 I *D sky130_fd_sc_hd__o21ai_2
*I *4148:B1 I *D sky130_fd_sc_hd__o21ai_2
*I *4150:B1_N I *D sky130_fd_sc_hd__a21bo_2
*I *4679:X O *D sky130_fd_sc_hd__clkdlybuf4s25_1
*CAP
1 *4116:B1 0.000138956
2 *4119:B1 0
3 *4148:B1 0
4 *4150:B1_N 0.000237269
5 *4679:X 0
6 *658:36 0.00120429
7 *658:8 0.000438877
8 *658:4 0.00126694
9 *4116:B1 *4561:D 9.97744e-05
10 *4150:B1_N *4574:D 0.000104974
11 *4150:B1_N *4678:A 4.51691e-05
12 *4150:B1_N *660:14 2.31791e-05
13 *658:36 *4560:D 0.000313241
14 *658:36 *4562:D 0.00015849
15 *4114:A1 *658:36 0.000193372
16 *4115:B *4116:B1 0
17 *4115:B *658:36 0
18 *4116:A2 *4116:B1 1.62384e-05
19 *4148:A1 *4150:B1_N 1.76039e-05
20 *4150:A1 *4150:B1_N 1.38106e-05
21 *4150:A2 *4150:B1_N 0
22 *4562:CLK *658:36 1.57523e-05
23 *4573:CLK *4150:B1_N 9.10488e-05
24 *4632:A *658:36 9.90367e-05
25 *256:25 *658:8 0.000190838
26 *256:25 *658:36 0.000184321
27 *478:10 *4150:B1_N 1.78447e-05
28 *478:54 *4150:B1_N 1.00375e-05
*RES
1 *4679:X *658:4 9.3 
2 *658:4 *658:8 3.83929 
3 *658:8 *4150:B1_N 24.3759 
4 *658:8 *4148:B1 9.3 
5 *658:4 *658:36 19.5179 
6 *658:36 *4119:B1 13.8 
7 *658:36 *4116:B1 16.9607 
*END

*D_NET *659 0.0117369
*CONN
*I *4127:B1 I *D sky130_fd_sc_hd__o21ai_2
*I *4135:B1 I *D sky130_fd_sc_hd__o21ai_2
*I *4130:B1 I *D sky130_fd_sc_hd__o21ai_2
*I *4124:B1 I *D sky130_fd_sc_hd__o21ai_2
*I *4122:B1 I *D sky130_fd_sc_hd__o21ai_2
*I *4146:B1 I *D sky130_fd_sc_hd__o21ai_2
*I *4144:B1 I *D sky130_fd_sc_hd__o21ai_2
*I *4132:B1 I *D sky130_fd_sc_hd__o21ai_2
*I *4680:X O *D sky130_fd_sc_hd__clkdlybuf4s25_1
*CAP
1 *4127:B1 0.000209344
2 *4135:B1 0
3 *4130:B1 0
4 *4124:B1 0.000396516
5 *4122:B1 0
6 *4146:B1 0
7 *4144:B1 0.000628213
8 *4132:B1 6.29488e-06
9 *4680:X 0
10 *659:98 0.0007609
11 *659:81 0.000575646
12 *659:57 0.000625102
13 *659:46 0.000433571
14 *659:27 0.00108395
15 *659:21 0.000856082
16 *659:4 0.000587531
17 *4124:B1 *4122:A1 9.80173e-05
18 *4124:B1 *4563:D 0.000381258
19 *4124:B1 *4564:D 0.000342488
20 *4127:B1 *4127:A1 0.000201067
21 *4132:B1 *4680:A 5.71472e-05
22 *4144:B1 *4144:A1 9.80173e-05
23 *4144:B1 *4145:A 9.25014e-06
24 *4144:B1 *660:14 0.000342495
25 *659:21 *4132:A1 5.03772e-05
26 *659:21 *4567:RESET_B 0.000358139
27 *659:21 *4680:A 0.000271345
28 *659:21 *660:12 0
29 *659:21 *660:51 0
30 *659:21 *699:16 5.33005e-05
31 *659:21 *699:22 3.17148e-05
32 *659:21 *713:37 0
33 *659:27 *4132:A1 1.18064e-05
34 *659:27 *4566:D 4.46186e-06
35 *659:27 *4717:A 3.34295e-05
36 *659:27 *699:22 0.000302316
37 *659:27 *702:27 0
38 *659:27 *720:43 1.41029e-05
39 *659:27 *720:61 0.000292715
40 *659:46 *4122:A1 4.35567e-05
41 *659:57 *4122:A1 0.00050277
42 *659:81 *4132:A1 2.28598e-05
43 *659:98 *4130:A1 1.92905e-05
44 *659:98 *4132:A1 1.39726e-05
45 *659:98 *4568:D 5.52238e-05
46 *659:98 *720:92 6.42095e-05
47 *4122:A2 *4124:B1 3.93247e-05
48 *4124:A2 *4124:B1 0
49 *4132:A2 *4132:B1 5.71472e-05
50 *4132:A2 *659:21 0.000258011
51 *4145:B *4144:B1 9.60875e-05
52 *4146:A2 *659:27 5.83304e-05
53 *4476:CLK *659:21 0.000145574
54 *4566:CLK *659:21 9.34004e-05
55 *251:10 *4124:B1 0
56 *251:40 *4127:B1 0.000303747
57 *251:40 *659:98 0.00045789
58 *254:8 *4144:B1 0.000118334
59 *449:346 *4144:B1 1.00073e-05
60 *449:353 *4144:B1 9.57138e-05
61 *449:362 *4144:B1 4.62708e-05
62 *452:14 *4124:B1 3.57844e-05
63 *480:8 *659:21 3.92854e-05
64 *480:10 *659:21 4.35131e-05
65 *481:24 *4124:B1 0
*RES
1 *4680:X *659:4 9.3 
2 *659:4 *4132:B1 9.83571 
3 *659:4 *659:21 23.7143 
4 *659:21 *659:27 17.625 
5 *659:27 *4144:B1 29.0857 
6 *659:27 *659:46 2.60714 
7 *659:46 *4146:B1 9.3 
8 *659:46 *659:57 5.60714 
9 *659:57 *4122:B1 9.3 
10 *659:57 *4124:B1 28.1393 
11 *659:21 *659:81 0.535714 
12 *659:81 *4130:B1 9.3 
13 *659:81 *659:98 9.875 
14 *659:98 *4135:B1 9.3 
15 *659:98 *4127:B1 14.3536 
*END

*D_NET *660 0.0102129
*CONN
*I *4680:A I *D sky130_fd_sc_hd__clkdlybuf4s25_1
*I *4139:B1 I *D sky130_fd_sc_hd__o21ai_2
*I *4141:B1 I *D sky130_fd_sc_hd__o21ai_2
*I *4679:A I *D sky130_fd_sc_hd__clkdlybuf4s25_1
*I *4678:A I *D sky130_fd_sc_hd__clkdlybuf4s25_1
*I *4681:X O *D sky130_fd_sc_hd__clkdlybuf4s25_1
*CAP
1 *4680:A 0.000397043
2 *4139:B1 0.00025654
3 *4141:B1 7.22899e-05
4 *4679:A 0
5 *4678:A 0.00119252
6 *4681:X 0
7 *660:51 0.000843877
8 *660:14 0.00181269
9 *660:12 0.00132385
10 *660:6 0.00082169
11 *4139:B1 *713:37 0.000226146
12 *4678:A *782:10 0
13 *4678:A *782:12 0
14 *4680:A *4567:D 0.000188741
15 *4680:A *713:37 2.94103e-05
16 *660:12 *699:22 0
17 *660:12 *789:10 0
18 *660:14 *4145:A 0.000224244
19 *660:14 *4571:D 0
20 *660:14 *792:12 5.56943e-05
21 *660:51 *4567:D 0.000128154
22 *660:51 *713:37 0.000198738
23 *4043:B *4678:A 0
24 *4114:B1 *4678:A 0
25 *4132:A2 *4680:A 6.87673e-05
26 *4132:B1 *4680:A 5.71472e-05
27 *4139:A1 *4139:B1 5.52238e-05
28 *4139:A1 *660:12 0
29 *4139:A1 *660:51 0
30 *4144:B1 *660:14 0.000342495
31 *4148:A1 *660:14 3.06406e-05
32 *4149:A *660:14 5.57727e-05
33 *4149:B *660:14 0
34 *4150:A1 *4678:A 0.000153054
35 *4150:B1_N *4678:A 4.51691e-05
36 *4150:B1_N *660:14 2.31791e-05
37 *4476:CLK *4680:A 0
38 *4573:CLK *4678:A 4.32309e-05
39 *4573:CLK *660:14 0.000172375
40 *4658:A *4678:A 0.000186941
41 *254:8 *660:12 0
42 *254:8 *660:14 0
43 *254:14 *660:14 0
44 *255:10 *660:14 0.000195471
45 *449:340 *4141:B1 3.67656e-05
46 *449:346 *4141:B1 1.73838e-05
47 *451:8 *660:14 0
48 *531:22 *4678:A 0.000686321
49 *531:46 *660:12 0
50 *531:46 *660:14 0
51 *657:10 *4678:A 0
52 *657:92 *4678:A 0
53 *659:21 *4680:A 0.000271345
54 *659:21 *660:12 0
55 *659:21 *660:51 0
*RES
1 *4681:X *660:6 13.8 
2 *660:6 *660:12 10.1964 
3 *660:12 *660:14 16.5179 
4 *660:14 *4678:A 35.4125 
5 *660:14 *4679:A 13.8 
6 *660:12 *4141:B1 15.1571 
7 *660:6 *660:51 5.28571 
8 *660:51 *4139:B1 18.4429 
9 *660:51 *4680:A 21.925 
*END

*D_NET *661 0.0120142
*CONN
*I *4235:B1 I *D sky130_fd_sc_hd__o21ai_2
*I *4237:B1 I *D sky130_fd_sc_hd__o21ai_2
*I *4224:B1 I *D sky130_fd_sc_hd__o21ai_2
*I *4232:B1 I *D sky130_fd_sc_hd__o21ai_2
*I *4229:B1 I *D sky130_fd_sc_hd__o21ai_2
*I *4219:B1 I *D sky130_fd_sc_hd__o21ai_2
*I *4227:B1 I *D sky130_fd_sc_hd__o21ai_2
*I *4221:B1 I *D sky130_fd_sc_hd__o21ai_2
*I *4682:X O *D sky130_fd_sc_hd__clkdlybuf4s25_1
*CAP
1 *4235:B1 0.000164813
2 *4237:B1 0
3 *4224:B1 0
4 *4232:B1 0.000558165
5 *4229:B1 1.97728e-05
6 *4219:B1 0
7 *4227:B1 0.000193598
8 *4221:B1 6.42588e-05
9 *4682:X 0.000333117
10 *661:59 0.0010791
11 *661:41 0.000798449
12 *661:22 0.000863955
13 *661:20 0.000696004
14 *661:18 0.000429712
15 *661:12 0.000775093
16 *661:8 0.000843311
17 *4221:B1 *4514:D 0.000125679
18 *4227:B1 *4516:D 9.99853e-05
19 *4229:B1 *4003:A 9.95377e-05
20 *4232:B1 *4517:RESET_B 8.27351e-05
21 *4232:B1 *4518:D 3.51444e-05
22 *4232:B1 *894:12 0.000758608
23 *4235:B1 *4240:B1 9.9046e-05
24 *4235:B1 *677:33 0
25 *661:8 *875:10 3.18676e-05
26 *661:12 *4240:B1 3.90417e-05
27 *661:12 *4520:D 0.000130286
28 *661:12 *4520:RESET_B 0
29 *661:12 *4521:D 0.000123295
30 *661:12 *677:33 0
31 *661:12 *873:23 0
32 *661:18 *4002:C 6.05161e-06
33 *661:18 *4515:D 6.78942e-05
34 *661:22 *4513:D 4.79864e-05
35 *661:59 *4003:A 0.000208154
36 *4219:A2 *4221:B1 0.000152593
37 *4221:A1 *4221:B1 5.16802e-05
38 *4221:A1 *661:22 6.23278e-05
39 *4223:B *661:18 0.00015134
40 *4224:A2 *661:18 0
41 *4227:A1 *4227:B1 0.000573809
42 *4229:A1 *4229:B1 5.20669e-05
43 *4229:A1 *661:59 0.000565148
44 *4232:A2 *4232:B1 9.83388e-05
45 *4514:CLK *4221:B1 5.74242e-05
46 *4514:CLK *661:22 0.000162196
47 *4630:A *4235:B1 5.17614e-05
48 *4662:A *661:8 0.00027704
49 *218:25 *661:12 0.000101545
50 *218:25 *661:18 0.000124489
51 *477:10 *4235:B1 7.32272e-05
52 *477:12 *661:12 0
53 *477:20 *661:12 0
54 *477:24 *661:22 0.000228775
55 *477:24 *661:59 0.000117903
56 *477:26 *661:22 0.0001709
57 *575:14 *661:12 0
58 *575:14 *661:18 0
59 *575:16 *661:18 0
60 *575:18 *661:18 0
61 *575:18 *661:22 1.78353e-05
62 *575:18 *661:59 4.35141e-05
63 *575:24 *661:22 0.000105611
*RES
1 *4682:X *661:8 20.9071 
2 *661:8 *661:12 7.64286 
3 *661:12 *661:18 12.8929 
4 *661:18 *661:20 4.5 
5 *661:20 *661:22 7.10714 
6 *661:22 *4221:B1 16.6571 
7 *661:22 *661:41 20.9107 
8 *661:41 *4227:B1 14.7643 
9 *661:41 *4219:B1 9.3 
10 *661:20 *661:59 16.125 
11 *661:59 *4229:B1 10.2464 
12 *661:59 *4232:B1 31.2821 
13 *661:18 *4224:B1 9.3 
14 *661:12 *4237:B1 13.8 
15 *661:8 *4235:B1 17.7107 
*END

*D_NET *662 0.00551675
*CONN
*I *4254:B1 I *D sky130_fd_sc_hd__o21ai_2
*I *4252:B1 I *D sky130_fd_sc_hd__o21ai_2
*I *4211:B1 I *D sky130_fd_sc_hd__o21ai_2
*I *4208:B1 I *D sky130_fd_sc_hd__o21ai_2
*I *4213:B1 I *D sky130_fd_sc_hd__o21ai_2
*I *4216:B1 I *D sky130_fd_sc_hd__o21ai_2
*I *4683:X O *D sky130_fd_sc_hd__clkdlybuf4s25_1
*CAP
1 *4254:B1 0
2 *4252:B1 0.000102689
3 *4211:B1 8.29421e-05
4 *4208:B1 6.33336e-05
5 *4213:B1 2.84971e-05
6 *4216:B1 0.000124751
7 *4683:X 0.00025492
8 *662:40 0.00023282
9 *662:16 0.000275124
10 *662:14 0.000476275
11 *662:12 0.000499845
12 *662:8 0.000384221
13 *4211:B1 *4509:D 0.00015234
14 *4216:B1 *4512:D 0.000126851
15 *662:8 *4526:D 9.60875e-05
16 *662:40 *872:14 1.19813e-05
17 *4208:A2 *662:40 1.24368e-05
18 *4210:A *662:14 0
19 *4210:B *662:8 5.55288e-05
20 *4210:B *662:12 5.41494e-05
21 *4211:A2 *662:14 0.000297559
22 *4215:A *4216:B1 0.000113983
23 *4216:A1 *4216:B1 0.000123979
24 *4216:A1 *662:16 4.62555e-05
25 *4511:CLK *4213:B1 5.50052e-05
26 *4512:CLK *4216:B1 0.000126278
27 *4512:CLK *662:16 2.28343e-05
28 *492:8 *4252:B1 2.89016e-05
29 *492:10 *4252:B1 6.39901e-05
30 *492:10 *662:14 0.000123912
31 *492:16 *4211:B1 2.48938e-05
32 *492:16 *662:14 0.000206093
33 *492:18 *4211:B1 0.000223907
34 *492:18 *662:14 0.000237583
35 *492:18 *662:16 0.000337339
36 *597:31 *4252:B1 0
37 *597:31 *662:14 0
38 *597:73 *662:14 0.000115096
39 *597:75 *662:14 5.51649e-05
40 *597:75 *662:16 0.000279179
*RES
1 *4683:X *662:8 12.7286 
2 *662:8 *662:12 6.67857 
3 *662:12 *662:14 8.625 
4 *662:14 *662:16 4.67857 
5 *662:16 *4216:B1 18.4786 
6 *662:16 *4213:B1 14.3357 
7 *662:14 *662:40 5.875 
8 *662:40 *4208:B1 10.2464 
9 *662:40 *4211:B1 21.4607 
10 *662:12 *4252:B1 15.9786 
11 *662:8 *4254:B1 9.3 
*END

*D_NET *663 0.0152458
*CONN
*I *4243:B1 I *D sky130_fd_sc_hd__o21ai_2
*I *4259:B1 I *D sky130_fd_sc_hd__o21ai_2
*I *4683:A I *D sky130_fd_sc_hd__clkdlybuf4s25_1
*I *4257:B1 I *D sky130_fd_sc_hd__o21ai_2
*I *4682:A I *D sky130_fd_sc_hd__clkdlybuf4s25_1
*I *4248:B1 I *D sky130_fd_sc_hd__o21ai_2
*I *4245:B1 I *D sky130_fd_sc_hd__o21ai_2
*I *4240:B1 I *D sky130_fd_sc_hd__o21ai_2
*I *4684:X O *D sky130_fd_sc_hd__clkdlybuf4s25_1
*CAP
1 *4243:B1 0.000485983
2 *4259:B1 3.2426e-05
3 *4683:A 0.000768779
4 *4257:B1 3.89418e-05
5 *4682:A 0.000350948
6 *4248:B1 0
7 *4245:B1 0.000167827
8 *4240:B1 0.000474461
9 *4684:X 0.000765632
10 *663:72 0.000991681
11 *663:57 0.00103314
12 *663:51 0.000817736
13 *663:20 0.000656323
14 *663:16 0.000671054
15 *663:10 0.00135539
16 *663:6 0.00166291
17 *4240:B1 *4238:A1 0
18 *4240:B1 *4521:D 0.000178519
19 *4240:B1 *677:33 0
20 *4245:B1 *4246:A2 2.8266e-06
21 *4245:B1 *4524:D 0
22 *4245:B1 *876:20 5.33005e-05
23 *4682:A *4006:B 0
24 *4683:A *4253:A 9.7659e-05
25 *4683:A *679:12 0
26 *4683:A *679:14 0
27 *4683:A *679:23 0
28 *4683:A *879:10 0.000104267
29 *663:10 *4008:A 0
30 *663:10 *4524:RESET_B 0.000126446
31 *663:10 *676:20 0.000164554
32 *663:10 *878:12 4.57538e-05
33 *663:16 *677:33 0.000348579
34 *663:20 *677:33 5.52302e-05
35 *663:57 *4249:A 2.84494e-05
36 *663:57 *4250:A 6.24997e-05
37 *4008:D *663:10 0
38 *4012:B *663:6 0.000126629
39 *4235:B1 *4240:B1 9.9046e-05
40 *4238:A3 *4240:B1 0
41 *4243:A1 *4243:B1 1.97695e-05
42 *4247:A *663:10 0.000117189
43 *4247:A *663:16 9.25014e-06
44 *4248:A1 *663:16 5.62995e-05
45 *4248:A1 *663:20 2.89114e-05
46 *4248:A2 *4245:B1 0
47 *4251:A_N *4682:A 0
48 *4251:A_N *663:57 0.000102403
49 *4251:B *4682:A 3.69047e-06
50 *4251:B *663:72 6.28241e-05
51 *4253:B *4257:B1 0
52 *4253:B *4683:A 0.00013545
53 *4253:B *663:72 2.97829e-05
54 *4254:A2 *4683:A 9.90367e-05
55 *4256:A *663:57 0
56 *4257:A2 *663:57 6.98669e-05
57 *4263:A2 *663:6 8.25996e-05
58 *4520:CLK *4240:B1 5.71472e-05
59 *4526:CLK *4682:A 0
60 *4527:CLK *663:57 0
61 *4630:A *4240:B1 0.000479727
62 *4630:A *4245:B1 2.31791e-05
63 *4645:A *4683:A 0
64 *4663:A *4243:B1 7.50473e-05
65 *4663:A *663:6 1.57523e-05
66 *220:38 *4240:B1 2.97108e-05
67 *222:33 *663:16 0
68 *224:29 *663:57 0.000123903
69 *225:20 *4683:A 3.57315e-05
70 *227:10 *663:10 0
71 *227:21 *663:10 0
72 *350:12 *663:6 0.000608147
73 *376:8 *663:57 9.0573e-05
74 *450:10 *4245:B1 0.000218734
75 *457:10 *4243:B1 5.41609e-05
76 *458:12 *4683:A 5.35516e-05
77 *477:10 *4240:B1 7.92975e-05
78 *477:12 *4240:B1 9.99989e-05
79 *586:6 *4243:B1 0.000578042
80 *661:12 *4240:B1 3.90417e-05
*RES
1 *4684:X *663:6 19.6929 
2 *663:6 *663:10 13.4286 
3 *663:10 *663:16 16.8214 
4 *663:16 *663:20 5.03571 
5 *663:20 *4240:B1 25.9964 
6 *663:20 *4245:B1 17.4964 
7 *663:16 *4248:B1 9.3 
8 *663:10 *663:51 9.14286 
9 *663:51 *663:57 19.4464 
10 *663:57 *4682:A 23.9607 
11 *663:57 *663:72 3 
12 *663:72 *4257:B1 10.0321 
13 *663:72 *4683:A 33.4071 
14 *663:51 *4259:B1 9.83571 
15 *663:6 *4243:B1 20.4429 
*END

*D_NET *664 0.011643
*CONN
*I *3937:B I *D sky130_fd_sc_hd__nor2_2
*I *3867:C I *D sky130_fd_sc_hd__and3_2
*I *3950:A3 I *D sky130_fd_sc_hd__a32o_2
*I *3920:B I *D sky130_fd_sc_hd__nand2_2
*I *3921:A3 I *D sky130_fd_sc_hd__a31oi_2
*I *3945:A3 I *D sky130_fd_sc_hd__a32o_2
*I *3923:A2 I *D sky130_fd_sc_hd__a22o_2
*I *3866:B I *D sky130_fd_sc_hd__nand2_2
*I *4685:X O *D sky130_fd_sc_hd__clkdlybuf4s25_1
*CAP
1 *3937:B 0
2 *3867:C 0.000236534
3 *3950:A3 0
4 *3920:B 4.46437e-05
5 *3921:A3 0
6 *3945:A3 0.000118222
7 *3923:A2 0.000525608
8 *3866:B 0.00040345
9 *4685:X 9.10805e-05
10 *664:45 0.000750019
11 *664:43 0.000380974
12 *664:33 0.000447549
13 *664:27 0.000292666
14 *664:25 0.000566616
15 *664:23 0.000303163
16 *664:6 0.000632157
17 *3866:B *3866:A 0.0001661
18 *3920:B *741:12 1.21258e-05
19 *3923:A2 *3923:A1 0.00020563
20 *3923:A2 *696:10 0.000384447
21 *3923:A2 *696:16 0.000125316
22 *3945:A3 *3945:A1 0.000269428
23 *3945:A3 *4714:A 0.000184745
24 *3945:A3 *696:10 0.000244529
25 *664:23 *4685:A 7.49255e-05
26 *664:25 *4361:S 2.39067e-05
27 *664:25 *4685:A 7.82606e-05
28 *664:25 *713:12 7.44918e-05
29 *664:27 *713:12 6.8646e-06
30 *664:43 *713:12 0
31 *664:43 *741:12 3.69047e-06
32 *664:45 *713:12 0
33 *3867:B *3867:C 2.47724e-05
34 *3921:A2 *664:33 7.83587e-05
35 *3921:A2 *664:43 0.000206298
36 *3921:B1 *664:27 0.000392283
37 *3921:B1 *664:33 0.000312029
38 *3938:A1 *3867:C 4.70078e-05
39 *3938:A2 *3867:C 1.46576e-05
40 *3938:B2 *3867:C 0.00053128
41 *3945:A2 *3945:A3 0.000327636
42 *3945:A2 *664:43 0.000150695
43 *3945:A2 *664:45 6.04162e-05
44 *3950:A1 *664:23 3.51224e-05
45 *3950:A1 *664:25 0.000208316
46 *3950:A1 *664:27 0.000192912
47 *4365:B2 *664:6 0.000141935
48 *4365:B2 *664:23 9.67754e-05
49 *4403:D *3867:C 5.06983e-05
50 *4414:CLK *3923:A2 0.00037105
51 *4414:D *3923:A2 0
52 *4453:D *3923:A2 7.54606e-05
53 *4782:A *664:27 0.000190155
54 *4782:A *664:33 0.00024292
55 *17:10 *3867:C 0.00091485
56 *17:10 *664:27 0.000142082
57 *154:16 *3923:A2 7.30285e-05
58 *157:10 *3923:A2 1.08359e-05
59 *157:10 *664:45 0.000104236
60 *449:222 *3923:A2 0
*RES
1 *4685:X *664:6 10.6571 
2 *664:6 *3866:B 26.3179 
3 *664:6 *664:23 7.39286 
4 *664:23 *664:25 5.28571 
5 *664:25 *664:27 7.10714 
6 *664:27 *664:33 9 
7 *664:33 *664:43 11.6964 
8 *664:43 *664:45 2.85714 
9 *664:45 *3923:A2 27.4786 
10 *664:45 *3945:A3 19.4071 
11 *664:43 *3921:A3 13.8 
12 *664:33 *3920:B 10.2643 
13 *664:27 *3950:A3 13.8 
14 *664:25 *3867:C 23.3714 
15 *664:23 *3937:B 13.8 
*END

*D_NET *665 0.00922449
*CONN
*I *3872:S I *D sky130_fd_sc_hd__mux2_1
*I *3873:S I *D sky130_fd_sc_hd__mux2_1
*I *3947:A3 I *D sky130_fd_sc_hd__a32o_2
*I *4685:A I *D sky130_fd_sc_hd__clkdlybuf4s25_1
*I *4361:S I *D sky130_fd_sc_hd__mux2_1
*I *4686:X O *D sky130_fd_sc_hd__clkdlybuf4s25_1
*CAP
1 *3872:S 0
2 *3873:S 0.000298538
3 *3947:A3 0
4 *4685:A 0.00017097
5 *4361:S 0.000200126
6 *4686:X 0.000413898
7 *665:32 0.0021177
8 *665:22 0.00184017
9 *665:16 0.00041481
10 *665:14 0.000436608
11 *3873:S *3940:A1 5.52302e-05
12 *4361:S *713:12 4.38265e-05
13 *4685:A *713:12 0.000367467
14 *665:14 *707:37 0
15 *3872:A0 *3873:S 0.00015724
16 *3872:A0 *665:14 6.86792e-05
17 *3872:A0 *665:16 6.05161e-06
18 *3872:A1 *665:16 1.02821e-05
19 *3872:A1 *665:22 8.4523e-05
20 *3873:A0 *3873:S 9.45142e-05
21 *3875:A *3873:S 6.19181e-05
22 *3947:A2 *665:22 2.85321e-05
23 *3947:B1 *3873:S 0
24 *3947:B1 *665:22 6.28499e-05
25 *3947:B2 *665:16 5.52302e-05
26 *3947:B2 *665:22 9.90367e-05
27 *3952:B1 *4361:S 8.87178e-05
28 *4349:B2 *4361:S 0.000239702
29 *4361:A0 *4361:S 0.000484511
30 *4686:A *665:14 4.08637e-05
31 *4686:A *665:16 8.46829e-05
32 *4686:A *665:22 0.000246691
33 *89:23 *3873:S 0
34 *89:23 *665:32 1.01912e-05
35 *112:8 *665:14 0.000273269
36 *112:25 *665:14 0.00020278
37 *498:14 *4361:S 0.000161878
38 *521:32 *665:32 0
39 *523:47 *3873:S 0.000125908
40 *664:23 *4685:A 7.49255e-05
41 *664:25 *4361:S 2.39067e-05
42 *664:25 *4685:A 7.82606e-05
*RES
1 *4686:X *665:14 26.6571 
2 *665:14 *665:16 0.946429 
3 *665:16 *665:22 3.96429 
4 *665:22 *665:32 14.5265 
5 *665:32 *4361:S 21.4875 
6 *665:32 *4685:A 18.6304 
7 *665:22 *3947:A3 9.3 
8 *665:16 *3873:S 25.9429 
9 *665:14 *3872:S 9.3 
*END

*D_NET *666 0.0101179
*CONN
*I *3901:A I *D sky130_fd_sc_hd__or3_2
*I *3902:C_N I *D sky130_fd_sc_hd__or3b_2
*I *3896:A I *D sky130_fd_sc_hd__nand2_2
*I *3907:A I *D sky130_fd_sc_hd__nand2_2
*I *3895:A I *D sky130_fd_sc_hd__or4_2
*I *3899:C_N I *D sky130_fd_sc_hd__or3b_2
*I *4065:A I *D sky130_fd_sc_hd__or3_2
*I *3898:A I *D sky130_fd_sc_hd__or3_2
*I *4687:X O *D sky130_fd_sc_hd__clkdlybuf4s25_1
*CAP
1 *3901:A 0
2 *3902:C_N 0.000438849
3 *3896:A 0
4 *3907:A 0.00020286
5 *3895:A 2.06112e-05
6 *3899:C_N 0.000104238
7 *4065:A 0
8 *3898:A 0.000209621
9 *4687:X 0.00043701
10 *666:81 0.000760172
11 *666:64 0.000853006
12 *666:58 0.000488207
13 *666:20 0.000236397
14 *666:18 0.000607595
15 *666:14 0.000590859
16 *666:8 0.000690062
17 *3902:C_N *4050:B1 0.000449539
18 *3902:C_N *691:32 5.52302e-05
19 *3907:A *4063:A2 0.000269741
20 *3907:A *672:89 5.50052e-05
21 *666:8 *4692:A 1.07719e-05
22 *666:14 *3895:C 2.28598e-05
23 *666:18 *3895:C 7.48091e-05
24 *666:18 *672:26 7.45454e-05
25 *666:64 *672:59 6.96806e-05
26 *3895:D *3895:A 3.99614e-06
27 *3896:B *3902:C_N 1.42014e-05
28 *3896:B *666:81 2.59355e-05
29 *3898:B *3898:A 0.000130012
30 *3898:C *3898:A 0.000354996
31 *3900:C *3899:C_N 0
32 *3900:D *3899:C_N 3.40128e-05
33 *3901:C *666:58 4.27842e-06
34 *3904:A_N *666:64 0.000115208
35 *3904:C *666:64 0.000174544
36 *3905:A2 *666:58 3.14003e-05
37 *3905:A2 *666:64 4.85354e-05
38 *3913:A1 *666:58 0
39 *3913:A2 *666:64 1.98839e-05
40 *4047:B *666:81 0.000117084
41 *4065:C *3899:C_N 0.000150625
42 *4066:A *3898:A 0.000227526
43 *4457:CLK *666:81 0
44 *4457:D *666:64 5.57647e-05
45 *4457:D *666:81 4.51113e-05
46 *4466:D *666:81 0.00012401
47 *87:14 *666:14 0.000223599
48 *87:30 *666:14 9.25014e-06
49 *87:30 *666:58 0.000272647
50 *87:34 *666:64 9.84673e-05
51 *131:26 *3902:C_N 3.65607e-05
52 *138:25 *666:14 0.000223599
53 *138:25 *666:58 0.00012401
54 *259:50 *3902:C_N 0.000140984
55 *259:50 *666:81 1.81709e-05
56 *261:22 *666:8 7.98119e-05
57 *261:41 *3899:C_N 2.48938e-05
58 *266:10 *3898:A 0.000230014
59 *266:10 *666:18 3.99614e-06
60 *449:67 *666:64 0.000136865
61 *449:67 *666:81 9.6272e-05
*RES
1 *4687:X *666:8 18.8536 
2 *666:8 *666:14 7.89286 
3 *666:14 *666:18 7.94643 
4 *666:18 *666:20 0.535714 
5 *666:20 *3898:A 16.55 
6 *666:20 *4065:A 9.3 
7 *666:18 *3899:C_N 20.55 
8 *666:14 *3895:A 9.72857 
9 *666:8 *666:58 8.57143 
10 *666:58 *666:64 13.875 
11 *666:64 *3907:A 17.6393 
12 *666:64 *666:81 11.8393 
13 *666:81 *3896:A 9.3 
14 *666:81 *3902:C_N 18.7643 
15 *666:58 *3901:A 9.3 
*END

*D_NET *667 0.00065105
*CONN
*I *4854:A I *D sky130_fd_sc_hd__clkdlybuf4s25_1
*I *4599:X O *D sky130_fd_sc_hd__buf_2
*CAP
1 *4854:A 0.000325525
2 *4599:X 0.000325525
*RES
1 *4599:X *4854:A 32.9214 
*END

*D_NET *668 0.00945223
*CONN
*I *3897:B1 I *D sky130_fd_sc_hd__o21a_2
*I *3893:A1 I *D sky130_fd_sc_hd__o311a_2
*I *4687:A I *D sky130_fd_sc_hd__clkdlybuf4s25_1
*I *4060:A I *D sky130_fd_sc_hd__or3_2
*I *4063:A1 I *D sky130_fd_sc_hd__o31a_2
*I *4064:A1 I *D sky130_fd_sc_hd__o31a_2
*I *4068:A I *D sky130_fd_sc_hd__or3_2
*I *4688:X O *D sky130_fd_sc_hd__clkdlybuf4s25_1
*CAP
1 *3897:B1 0
2 *3893:A1 8.61911e-05
3 *4687:A 0.000214083
4 *4060:A 0.000113621
5 *4063:A1 0.000469361
6 *4064:A1 4.90921e-05
7 *4068:A 0
8 *4688:X 0.000523094
9 *668:44 0.000725823
10 *668:31 0.000367706
11 *668:29 0.000560049
12 *668:25 0.000675823
13 *668:23 0.000818203
14 *668:10 0.000921858
15 *4060:A *4459:RESET_B 3.1794e-05
16 *4063:A1 *4051:B1 3.34366e-05
17 *4063:A1 *4063:A2 5.50151e-05
18 *4063:A1 *4457:RESET_B 3.79669e-06
19 *4064:A1 *4064:B1 9.41642e-05
20 *4687:A *3893:C1 5.92441e-05
21 *4687:A *4690:A 0.000225149
22 *4687:A *671:12 1.99099e-05
23 *668:10 *687:26 0
24 *668:23 *687:26 0
25 *668:44 *4064:B1 0.000398154
26 *3897:A1 *668:23 0.000141935
27 *3897:A2 *668:23 5.50052e-05
28 *3901:B *668:31 1.62025e-05
29 *3901:C *4063:A1 6.45351e-05
30 *3905:A3 *668:25 0.000481793
31 *3905:A3 *668:29 0.000282964
32 *3905:A3 *668:31 4.71921e-05
33 *4047:B *4063:A1 0
34 *4060:C *4060:A 0.000182804
35 *4063:B1 *4063:A1 5.90435e-05
36 *4064:A3 *4064:A1 0.000135028
37 *4064:A3 *668:31 9.41642e-05
38 *4353:B2 *668:10 0.000113359
39 *4458:D *668:31 4.63305e-05
40 *4474:D *668:10 0
41 *4622:A *3893:A1 0.000101813
42 *4848:A *4063:A1 0.000131845
43 *86:8 *668:44 0.000235228
44 *86:65 *668:44 0.000162926
45 *86:71 *4060:A 0.000306302
46 *259:44 *4063:A1 3.17163e-05
47 *267:8 *668:10 9.64602e-05
48 *469:8 *668:29 0.000137697
49 *469:8 *668:31 6.05161e-06
50 *469:10 *4687:A 0
51 *469:36 *3893:A1 6.27091e-05
52 *541:10 *668:23 1.35553e-05
*RES
1 *4688:X *668:10 21.9964 
2 *668:10 *4068:A 13.8 
3 *668:10 *668:23 12.0714 
4 *668:23 *668:25 9.57143 
5 *668:25 *668:29 5.48214 
6 *668:29 *668:31 3.82143 
7 *668:31 *4064:A1 10.6571 
8 *668:31 *668:44 14.2857 
9 *668:44 *4063:A1 28.3 
10 *668:44 *4060:A 12.7107 
11 *668:29 *4687:A 23.2821 
12 *668:25 *3893:A1 20.8536 
13 *668:23 *3897:B1 9.3 
*END

*D_NET *669 0.0104969
*CONN
*I *3915:S I *D sky130_fd_sc_hd__mux2_1
*I *4688:A I *D sky130_fd_sc_hd__clkdlybuf4s25_1
*I *3869:A I *D sky130_fd_sc_hd__nand2_2
*I *3862:B I *D sky130_fd_sc_hd__or3_2
*I *3849:B1 I *D sky130_fd_sc_hd__a21oi_2
*I *3870:C1 I *D sky130_fd_sc_hd__o211a_2
*I *4689:X O *D sky130_fd_sc_hd__clkdlybuf4s25_1
*CAP
1 *3915:S 5.30333e-05
2 *4688:A 0.00134553
3 *3869:A 2.23854e-05
4 *3862:B 0.000189489
5 *3849:B1 0.00021472
6 *3870:C1 0.000320552
7 *4689:X 0
8 *669:76 0.00144693
9 *669:50 0.000589342
10 *669:46 0.000565721
11 *669:27 0.000728286
12 *669:4 0.000694229
13 *3862:B *747:40 0.000126439
14 *3870:C1 *4471:D 7.80714e-06
15 *4688:A *3850:A_N 6.36254e-05
16 *4688:A *4069:B 0
17 *4688:A *4070:B 0
18 *669:46 *4771:A 7.32333e-05
19 *669:46 *752:19 5.06044e-05
20 *3847:A2 *4688:A 0
21 *3851:A1 *3849:B1 1.94879e-05
22 *3851:A1 *669:27 0
23 *3851:B1 *3849:B1 0.000309114
24 *3870:B1 *3870:C1 5.33005e-05
25 *3915:A0 *3915:S 1.98839e-05
26 *3915:A1 *3915:S 5.33005e-05
27 *3915:A1 *4688:A 6.52407e-05
28 *3915:A1 *669:46 0.000367577
29 *3915:A1 *669:76 0.000139653
30 *3933:A2 *4688:A 0
31 *3933:A2 *669:46 0.000175512
32 *3933:A2 *669:76 0.000148903
33 *4071:A1 *4688:A 0.000140321
34 *4071:A3 *4688:A 0
35 *4072:A2 *4688:A 0
36 *4360:B2 *3870:C1 0.000443654
37 *4360:B2 *669:27 0.000415488
38 *4360:B2 *669:46 1.24469e-05
39 *4409:CLK *3870:C1 2.59355e-05
40 *4425:D *3870:C1 7.50601e-05
41 *4471:CLK *3870:C1 0.000125717
42 *4474:D *4688:A 0
43 *4475:D *4688:A 8.16036e-05
44 *4529:CLK *3870:C1 6.05161e-06
45 *4648:A *3862:B 4.88515e-05
46 *4648:A *669:50 5.73015e-05
47 *4652:A *669:50 9.90367e-05
48 *3:14 *3862:B 8.97282e-06
49 *107:92 *3862:B 5.33005e-05
50 *111:10 *669:50 5.62995e-05
51 *160:27 *4688:A 0
52 *161:10 *4688:A 0
53 *162:16 *4688:A 0
54 *267:8 *4688:A 0
55 *449:226 *3849:B1 2.89114e-05
56 *495:6 *669:50 0.00065196
57 *495:33 *3870:C1 5.66157e-05
58 *519:38 *3915:S 8.17274e-05
59 *519:38 *4688:A 0.000183713
60 *519:49 *4688:A 0
*RES
1 *4689:X *669:4 9.3 
2 *669:4 *3870:C1 25.7464 
3 *669:4 *669:27 11.0089 
4 *669:27 *3849:B1 21.9119 
5 *669:27 *669:46 5.4375 
6 *669:46 *669:50 13.25 
7 *669:50 *3862:B 21.8357 
8 *669:50 *3869:A 9.72857 
9 *669:46 *669:76 6.44643 
10 *669:76 *4688:A 42.3536 
11 *669:76 *3915:S 10.675 
*END

*D_NET *670 0.00860235
*CONN
*I *3893:C1 I *D sky130_fd_sc_hd__o311a_2
*I *3838:A I *D sky130_fd_sc_hd__inv_2
*I *3895:C I *D sky130_fd_sc_hd__or4_2
*I *4350:A2 I *D sky130_fd_sc_hd__o31a_2
*I *3911:B I *D sky130_fd_sc_hd__or4_2
*I *3892:B I *D sky130_fd_sc_hd__nand2_2
*I *4354:A2 I *D sky130_fd_sc_hd__o31a_2
*I *3903:B I *D sky130_fd_sc_hd__nand2b_2
*I *4690:X O *D sky130_fd_sc_hd__clkdlybuf4s25_1
*CAP
1 *3893:C1 0.00100329
2 *3838:A 0
3 *3895:C 5.75038e-05
4 *4350:A2 0.00037026
5 *3911:B 8.05489e-05
6 *3892:B 9.46551e-05
7 *4354:A2 0.000470698
8 *3903:B 7.08044e-05
9 *4690:X 0.00130766
10 *670:31 0.000674199
11 *670:29 0.000285025
12 *670:27 0.000574908
13 *670:25 0.000274475
14 *670:23 0.000191351
15 *670:10 0.000458576
16 *3892:B *4845:A 6.05161e-06
17 *3893:C1 *4690:A 2.85234e-05
18 *3895:C *672:26 7.48091e-05
19 *4350:A2 *4350:B1 9.90431e-05
20 *4354:A2 *4354:B1 9.90431e-05
21 *670:23 *672:37 0
22 *670:25 *672:37 0
23 *670:27 *3892:A 0
24 *670:27 *672:37 0
25 *670:29 *3892:A 0
26 *670:29 *3911:D 0
27 *670:29 *4844:A 6.48863e-05
28 *670:31 *3911:D 0
29 *3893:A2 *3893:C1 9.21524e-05
30 *3904:B *3893:C1 3.02892e-05
31 *3905:B1 *3893:C1 0.000314114
32 *3906:A *3903:B 1.74352e-05
33 *3906:A *670:10 9.02232e-05
34 *3906:D_N *670:10 2.87584e-05
35 *3906:D_N *670:23 0.000177941
36 *3906:D_N *670:25 0.000127446
37 *3912:C1 *3911:B 5.33005e-05
38 *3912:C1 *4354:A2 0.00015134
39 *3912:C1 *670:31 0.000142082
40 *3913:B1 *3893:C1 0.000111811
41 *3913:B1 *670:10 0.000224583
42 *4350:A3 *4350:A2 5.52238e-05
43 *4687:A *3893:C1 5.92441e-05
44 *86:21 *3911:B 2.32517e-05
45 *86:25 *3911:B 4.0342e-06
46 *87:14 *4354:A2 2.8266e-06
47 *87:14 *670:25 2.47186e-05
48 *87:14 *670:27 6.04162e-05
49 *87:14 *670:29 8.27217e-05
50 *87:14 *670:31 6.95205e-05
51 *138:25 *3903:B 5.52238e-05
52 *138:25 *4354:A2 0
53 *138:25 *670:10 0.000219711
54 *666:14 *3895:C 2.28598e-05
55 *666:18 *3895:C 7.48091e-05
*RES
1 *4690:X *670:10 15.7286 
2 *670:10 *3903:B 10.675 
3 *670:10 *670:23 6.75 
4 *670:23 *670:25 2.55357 
5 *670:25 *670:27 2.25 
6 *670:27 *670:29 2.85714 
7 *670:29 *670:31 2.55357 
8 *670:31 *4354:A2 21.6393 
9 *670:31 *3892:B 15.1571 
10 *670:29 *3911:B 15.6036 
11 *670:27 *4350:A2 20.1036 
12 *670:25 *3895:C 15.5679 
13 *670:23 *3838:A 13.8 
14 *4690:X *3893:C1 43.6357 
*END

*D_NET *671 0.00528691
*CONN
*I *3910:B I *D sky130_fd_sc_hd__or4_2
*I *4349:A2 I *D sky130_fd_sc_hd__o32a_2
*I *4353:A2 I *D sky130_fd_sc_hd__o32a_2
*I *4052:A I *D sky130_fd_sc_hd__or3_2
*I *4691:X O *D sky130_fd_sc_hd__clkdlybuf4s25_1
*CAP
1 *3910:B 9.54953e-05
2 *4349:A2 0
3 *4353:A2 0.000144474
4 *4052:A 0.000331085
5 *4691:X 0.000276124
6 *671:40 0.000306565
7 *671:16 0.000841954
8 *671:12 0.000853588
9 *3910:B *4068:B 9.71197e-05
10 *4353:A2 *4693:A 0.000573169
11 *671:12 *4690:A 4.98055e-06
12 *671:12 *4692:A 0.000123288
13 *671:16 *4416:RESET_B 0
14 *671:16 *673:23 0
15 *671:40 *4068:B 1.98839e-05
16 *4046:C *4052:A 2.89016e-05
17 *4068:C *3910:B 1.90111e-05
18 *4068:C *671:40 3.69047e-06
19 *4349:B2 *3910:B 0.000106882
20 *4353:A3 *4052:A 7.6021e-05
21 *4353:A3 *4353:A2 0.000209416
22 *4353:A3 *671:16 3.17163e-05
23 *4416:D *671:16 0.000100831
24 *4420:CLK *671:16 6.58289e-05
25 *4420:D *671:16 0.000102545
26 *4687:A *671:12 1.99099e-05
27 *4737:A *671:40 0.00010096
28 *4741:A *4353:A2 0.00010096
29 *261:12 *4052:A 5.71472e-05
30 *261:12 *671:12 0.00012501
31 *261:12 *671:16 0
32 *261:22 *671:12 1.21258e-05
33 *261:65 *671:12 0.000216862
34 *261:65 *671:40 0.000146464
35 *261:69 *3910:B 5.01213e-05
36 *469:10 *671:12 0
37 *469:10 *671:16 4.47843e-05
*RES
1 *4691:X *671:12 24.7821 
2 *671:12 *671:16 12.5179 
3 *671:16 *4052:A 19.9786 
4 *671:16 *4353:A2 19.6929 
5 *671:12 *671:40 4.64286 
6 *671:40 *4349:A2 9.3 
7 *671:40 *3910:B 21.0143 
*END

*D_NET *672 0.00909989
*CONN
*I *4063:A2 I *D sky130_fd_sc_hd__o31a_2
*I *3907:B I *D sky130_fd_sc_hd__nand2_2
*I *4064:A2 I *D sky130_fd_sc_hd__o31a_2
*I *3837:A I *D sky130_fd_sc_hd__inv_2
*I *3903:A_N I *D sky130_fd_sc_hd__nand2b_2
*I *3900:A I *D sky130_fd_sc_hd__and4_2
*I *3892:A I *D sky130_fd_sc_hd__nand2_2
*I *3895:B I *D sky130_fd_sc_hd__or4_2
*I *4692:X O *D sky130_fd_sc_hd__clkdlybuf4s25_1
*CAP
1 *4063:A2 0.000423493
2 *3907:B 0
3 *4064:A2 5.44235e-05
4 *3837:A 0.00020036
5 *3903:A_N 1.88982e-05
6 *3900:A 7.98317e-05
7 *3892:A 0.000314996
8 *3895:B 0.000428968
9 *4692:X 0.000141686
10 *672:89 0.000748528
11 *672:59 0.000520468
12 *672:55 0.000733893
13 *672:39 9.87299e-05
14 *672:37 0.000479878
15 *672:26 0.000938982
16 *3892:A *3911:D 0.000227021
17 *3892:A *4844:A 6.07532e-05
18 *4063:A2 *4051:B1 9.90431e-05
19 *4063:A2 *714:61 2.95726e-05
20 *4064:A2 *4064:B1 1.62025e-05
21 *3895:C *672:26 7.48091e-05
22 *3900:B *672:55 9.8126e-05
23 *3901:B *4064:A2 0.000183518
24 *3901:C *3837:A 0.000149113
25 *3904:A_N *3837:A 5.33005e-05
26 *3904:A_N *672:37 0
27 *3904:B *3837:A 0.000186293
28 *3904:C *3837:A 0.000163107
29 *3905:A2 *3837:A 0.000164464
30 *3906:A *3900:A 0.00022887
31 *3906:A *3903:A_N 5.50052e-05
32 *3906:D_N *672:37 0
33 *3907:A *4063:A2 0.000269741
34 *3907:A *672:89 5.50052e-05
35 *3913:A1 *3895:B 5.01117e-05
36 *3913:A2 *4064:A2 3.14161e-05
37 *3913:A2 *672:59 1.0484e-05
38 *3913:B1 *3895:B 5.90443e-06
39 *3913:B2 *3895:B 8.49318e-05
40 *4047:B *4063:A2 1.41029e-05
41 *4063:A1 *4063:A2 5.50151e-05
42 *4064:A3 *4064:A2 5.48071e-05
43 *4065:B *3892:A 0
44 *4065:C *672:37 0
45 *4350:A3 *3892:A 0
46 *4457:CLK *672:89 0.000199782
47 *4457:D *4063:A2 0.000370764
48 *4653:A *672:55 3.02801e-05
49 *4848:A *4063:A2 0.000175281
50 *87:34 *672:59 0.000106708
51 *138:25 *3895:B 0.00020455
52 *142:14 *672:89 8.52031e-05
53 *261:22 *3895:B 9.71197e-05
54 *261:41 *672:37 0
55 *497:10 *672:55 4.27842e-06
56 *497:10 *672:89 4.45753e-05
57 *506:8 *4063:A2 3.32737e-05
58 *666:18 *672:26 7.45454e-05
59 *666:64 *672:59 6.96806e-05
60 *670:23 *672:37 0
61 *670:25 *672:37 0
62 *670:27 *3892:A 0
63 *670:27 *672:37 0
64 *670:29 *3892:A 0
*RES
1 *4692:X *3895:B 31.1 
2 *3895:B *672:26 17.6214 
3 *672:26 *3892:A 20.6036 
4 *672:26 *672:37 5.89286 
5 *672:37 *672:39 4.5 
6 *672:39 *3900:A 11.4786 
7 *672:39 *3903:A_N 9.83571 
8 *672:37 *672:55 2.85714 
9 *672:55 *672:59 9.14286 
10 *672:59 *3837:A 24.6214 
11 *672:59 *4064:A2 11.4607 
12 *672:55 *672:89 12.1429 
13 *672:89 *3907:B 9.3 
14 *672:89 *4063:A2 29.4071 
*END

*D_NET *673 0.00638755
*CONN
*I *3910:A I *D sky130_fd_sc_hd__or4_2
*I *3893:B1 I *D sky130_fd_sc_hd__o311a_2
*I *4068:B I *D sky130_fd_sc_hd__or3_2
*I *4349:A1 I *D sky130_fd_sc_hd__o32a_2
*I *4353:A1 I *D sky130_fd_sc_hd__o32a_2
*I *4693:X O *D sky130_fd_sc_hd__clkdlybuf4s25_1
*CAP
1 *3910:A 8.52433e-05
2 *3893:B1 0.000318147
3 *4068:B 0.000562593
4 *4349:A1 0
5 *4353:A1 0
6 *4693:X 0.000656874
7 *673:45 0.000485022
8 *673:32 0.000681151
9 *673:23 0.000409003
10 *673:10 0.00102895
11 *3893:B1 *4416:RESET_B 0.000193977
12 *4068:B *4736:A 0.000484511
13 *673:23 *4416:RESET_B 0
14 *673:23 *4420:RESET_B 0.000140311
15 *673:32 *4416:RESET_B 0
16 *673:45 *4416:RESET_B 0
17 *3910:B *4068:B 9.71197e-05
18 *3913:B1 *3893:B1 0.000170955
19 *3913:B1 *3910:A 1.98839e-05
20 *4068:C *4068:B 1.32724e-05
21 *4349:A3 *673:10 0.000317594
22 *4349:A3 *673:23 0.000186419
23 *4349:B2 *4068:B 1.21258e-05
24 *4353:A3 *673:10 0
25 *4353:A3 *673:23 0
26 *4420:D *673:23 0
27 *4622:A *3893:B1 0.000216631
28 *261:69 *673:23 5.83304e-05
29 *261:69 *673:32 8.07951e-05
30 *261:69 *673:45 0.000148753
31 *671:16 *673:23 0
32 *671:40 *4068:B 1.98839e-05
*RES
1 *4693:X *673:10 23.3357 
2 *673:10 *4353:A1 13.8 
3 *673:10 *673:23 8.48214 
4 *673:23 *4349:A1 13.8 
5 *673:23 *673:32 1.03571 
6 *673:32 *4068:B 21.3179 
7 *673:32 *673:45 6.44643 
8 *673:45 *3893:B1 26.2821 
9 *673:45 *3910:A 10.6571 
*END

*D_NET *674 0.00959729
*CONN
*I *4519:RESET_B I *D sky130_fd_sc_hd__dfrtp_2
*I *4515:RESET_B I *D sky130_fd_sc_hd__dfrtp_2
*I *4514:RESET_B I *D sky130_fd_sc_hd__dfrtp_2
*I *4513:RESET_B I *D sky130_fd_sc_hd__dfrtp_2
*I *4516:RESET_B I *D sky130_fd_sc_hd__dfrtp_2
*I *4517:RESET_B I *D sky130_fd_sc_hd__dfrtp_2
*I *4487:RESET_B I *D sky130_fd_sc_hd__dfrtp_2
*I *4518:RESET_B I *D sky130_fd_sc_hd__dfrtp_2
*I *4694:X O *D sky130_fd_sc_hd__clkdlybuf4s25_1
*CAP
1 *4519:RESET_B 0.00054092
2 *4515:RESET_B 0
3 *4514:RESET_B 0.000172754
4 *4513:RESET_B 0.000972473
5 *4516:RESET_B 0.000148344
6 *4517:RESET_B 0.000559371
7 *4487:RESET_B 6.76564e-05
8 *4518:RESET_B 0.000527079
9 *4694:X 0.000341543
10 *674:81 0.000242911
11 *674:79 0.000632148
12 *674:53 0.00152094
13 *674:10 0.000798103
14 *4513:RESET_B *891:10 4.3304e-06
15 *4514:RESET_B *4002:B 5.74309e-05
16 *4514:RESET_B *4222:A2 0.000106427
17 *4514:RESET_B *889:8 9.51514e-06
18 *4514:RESET_B *889:21 0.00012249
19 *4516:RESET_B *4516:D 4.84658e-05
20 *4516:RESET_B *891:10 3.40949e-05
21 *4518:RESET_B *894:12 0.000342502
22 *4519:RESET_B *4002:A 4.00025e-05
23 *4519:RESET_B *4002:B 0.000165684
24 *4519:RESET_B *4520:D 0
25 *674:10 *4265:A 0.000226912
26 *674:53 *4230:A1 0.000140361
27 *674:53 *4230:A2 7.48091e-05
28 *674:53 *891:10 0.000151333
29 *674:53 *891:21 0.000117189
30 *674:53 *891:42 0.000261
31 *674:53 *892:12 5.33005e-05
32 *674:53 *894:12 9.75471e-05
33 *674:79 *4002:A 9.51514e-06
34 *674:81 *4002:B 0.000115591
35 *4002:D *4519:RESET_B 0
36 *4223:B *4519:RESET_B 0
37 *4225:B *674:53 0.000218741
38 *4231:B *4518:RESET_B 0
39 *4232:A2 *4518:RESET_B 0
40 *4232:B1 *4517:RESET_B 8.27351e-05
41 *4237:A2 *4519:RESET_B 0
42 *217:10 *4513:RESET_B 9.18583e-05
43 *217:10 *674:79 4.70821e-05
44 *218:8 *4519:RESET_B 0
45 *218:25 *4519:RESET_B 0
46 *218:33 *674:53 0.000154845
47 *218:35 *674:53 0.000176226
48 *466:8 *674:10 0.00012306
*RES
1 *4694:X *674:10 20.9607 
2 *674:10 *4518:RESET_B 12.375 
3 *674:10 *4487:RESET_B 5.38393 
4 *4518:RESET_B *4517:RESET_B 12.1607 
5 *4517:RESET_B *674:53 21.3661 
6 *674:53 *4516:RESET_B 2.52679 
7 *674:53 *4513:RESET_B 12.1339 
8 *4513:RESET_B *674:79 4.97321 
9 *674:79 *674:81 1.64286 
10 *674:81 *4514:RESET_B 8.4375 
11 *674:81 *4515:RESET_B 4.5 
12 *674:79 *4519:RESET_B 14.8125 
*END

*D_NET *675 0.00964204
*CONN
*I *4418:RESET_B I *D sky130_fd_sc_hd__dfrtp_2
*I *4491:RESET_B I *D sky130_fd_sc_hd__dfrtp_2
*I *4490:RESET_B I *D sky130_fd_sc_hd__dfrtp_2
*I *4489:RESET_B I *D sky130_fd_sc_hd__dfrtp_2
*I *4488:RESET_B I *D sky130_fd_sc_hd__dfrtp_2
*I *4492:RESET_B I *D sky130_fd_sc_hd__dfrtp_2
*I *4494:RESET_B I *D sky130_fd_sc_hd__dfrtp_2
*I *4493:RESET_B I *D sky130_fd_sc_hd__dfrtp_2
*I *4695:X O *D sky130_fd_sc_hd__clkdlybuf4s25_1
*CAP
1 *4418:RESET_B 0.000470291
2 *4491:RESET_B 0.000398324
3 *4490:RESET_B 0.00017638
4 *4489:RESET_B 0.000210335
5 *4488:RESET_B 0.000179694
6 *4492:RESET_B 8.16466e-05
7 *4494:RESET_B 0
8 *4493:RESET_B 0.000950619
9 *4695:X 0.000209543
10 *675:48 0.000540241
11 *675:46 0.000700891
12 *675:44 0.000772624
13 *675:36 0.000517611
14 *675:10 0.000253907
15 *4418:RESET_B *3982:A 0
16 *4418:RESET_B *935:10 6.44415e-05
17 *4488:RESET_B *3978:B 0
18 *4488:RESET_B *4265:B 1.12381e-05
19 *4488:RESET_B *917:42 2.44318e-05
20 *4488:RESET_B *928:28 0.000139907
21 *4489:RESET_B *3978:D 0.000312209
22 *4490:RESET_B *932:12 3.72932e-05
23 *4491:RESET_B *4825:A 0.000136958
24 *4491:RESET_B *933:8 2.84026e-05
25 *4492:RESET_B *934:8 5.91321e-05
26 *4493:RESET_B *677:14 0.000129868
27 *675:10 *4695:A 0.000182153
28 *675:10 *677:10 6.81083e-05
29 *675:10 *677:14 0.000107404
30 *675:10 *714:20 0.00012401
31 *675:48 *3978:B 0
32 *675:48 *932:12 6.42242e-05
33 *4266:A1 *4488:RESET_B 4.85567e-05
34 *4269:A *4488:RESET_B 4.78056e-05
35 *4269:A *4489:RESET_B 9.71197e-05
36 *4273:B1 *675:36 4.57538e-05
37 *4274:A1 *4491:RESET_B 0.000172783
38 *4275:B *675:46 6.74815e-05
39 *4276:A1 *675:36 4.81157e-05
40 *4276:A2 *675:36 0
41 *4276:B1 *675:36 0.000122951
42 *4277:B *4493:RESET_B 4.57538e-05
43 *4277:B *675:10 8.03962e-05
44 *4277:B *675:36 8.98897e-05
45 *4423:CLK *4418:RESET_B 0
46 *4644:A *4418:RESET_B 0.000483749
47 *193:10 *4488:RESET_B 0.000180777
48 *194:10 *675:48 0
49 *195:10 *675:46 6.07626e-05
50 *195:10 *675:48 7.04538e-05
51 *195:23 *675:46 0.000131198
52 *195:47 *4491:RESET_B 4.98055e-06
53 *195:47 *675:46 7.09632e-05
54 *197:25 *4491:RESET_B 7.60306e-05
55 *197:25 *675:36 0
56 *197:25 *675:46 0.000138816
57 *488:6 *4492:RESET_B 5.52238e-05
58 *488:6 *675:36 5.52302e-05
59 *488:10 *4491:RESET_B 0.000171375
60 *488:32 *4492:RESET_B 8.26494e-05
61 *488:67 *675:36 5.33334e-05
62 *491:14 *4418:RESET_B 0.000188002
63 *491:51 *4418:RESET_B 0
*RES
1 *4695:X *675:10 19.0143 
2 *675:10 *4493:RESET_B 6.14286 
3 *675:10 *4494:RESET_B 4.5 
4 *4493:RESET_B *675:36 18.5804 
5 *675:36 *4492:RESET_B 2.11607 
6 *675:36 *675:44 4.5 
7 *675:44 *675:46 9.53571 
8 *675:46 *675:48 3.46429 
9 *675:48 *4488:RESET_B 8.66964 
10 *675:48 *4489:RESET_B 8.66964 
11 *675:46 *4490:RESET_B 7.02679 
12 *675:44 *4491:RESET_B 12.8839 
13 *4493:RESET_B *4418:RESET_B 19.375 
*END

*D_NET *676 0.00558579
*CONN
*I *4523:RESET_B I *D sky130_fd_sc_hd__dfrtp_2
*I *4419:RESET_B I *D sky130_fd_sc_hd__dfrtp_2
*I *4422:RESET_B I *D sky130_fd_sc_hd__dfrtp_2
*I *4522:RESET_B I *D sky130_fd_sc_hd__dfrtp_2
*I *4524:RESET_B I *D sky130_fd_sc_hd__dfrtp_2
*I *4423:RESET_B I *D sky130_fd_sc_hd__dfrtp_2
*I *4696:X O *D sky130_fd_sc_hd__clkdlybuf4s25_1
*CAP
1 *4523:RESET_B 0.000171414
2 *4419:RESET_B 3.08789e-05
3 *4422:RESET_B 0
4 *4522:RESET_B 0.000201691
5 *4524:RESET_B 0.000452421
6 *4423:RESET_B 1.08896e-05
7 *4696:X 0.000139283
8 *676:20 0.000884014
9 *676:18 0.00068374
10 *676:16 0.000419813
11 *676:6 0.000256683
12 *4419:RESET_B *4847:A 2.29097e-05
13 *4423:RESET_B *4696:A 4.85567e-05
14 *4522:RESET_B *4008:A 0.000230475
15 *4522:RESET_B *876:16 0.000138106
16 *4523:RESET_B *4008:A 0
17 *4523:RESET_B *4246:B1 4.46186e-06
18 *4523:RESET_B *876:16 7.98951e-05
19 *4523:RESET_B *877:6 2.89016e-05
20 *676:6 *4696:A 0.000227539
21 *676:16 *735:12 0
22 *676:18 *4847:A 0.000126439
23 *4012:B *676:20 0.000202128
24 *4422:D *676:20 0
25 *4524:CLK *4523:RESET_B 4.46186e-06
26 *4530:CLK *4522:RESET_B 0.000362681
27 *107:47 *4423:RESET_B 4.85567e-05
28 *107:47 *676:6 0.000518849
29 *107:47 *676:16 0
30 *227:21 *4524:RESET_B 0
31 *227:21 *676:20 0
32 *663:10 *4524:RESET_B 0.000126446
33 *663:10 *676:20 0.000164554
*RES
1 *4696:X *676:6 14.3536 
2 *676:6 *4423:RESET_B 0.473214 
3 *676:6 *676:16 6.14286 
4 *676:16 *676:18 4.98214 
5 *676:18 *676:20 8.32143 
6 *676:20 *4524:RESET_B 9.08036 
7 *676:20 *4522:RESET_B 10.7232 
8 *676:18 *4422:RESET_B 4.5 
9 *676:16 *4419:RESET_B 4.97321 
10 *4524:RESET_B *4523:RESET_B 12.7589 
*END

*D_NET *677 0.0135856
*CONN
*I *4695:A I *D sky130_fd_sc_hd__clkdlybuf4s25_1
*I *4696:A I *D sky130_fd_sc_hd__clkdlybuf4s25_1
*I *4521:RESET_B I *D sky130_fd_sc_hd__dfrtp_2
*I *4520:RESET_B I *D sky130_fd_sc_hd__dfrtp_2
*I *4694:A I *D sky130_fd_sc_hd__clkdlybuf4s25_1
*I *4697:X O *D sky130_fd_sc_hd__clkdlybuf4s25_1
*CAP
1 *4695:A 0.000275183
2 *4696:A 0.0012523
3 *4521:RESET_B 0
4 *4520:RESET_B 8.27762e-05
5 *4694:A 0.000637416
6 *4697:X 0.000239742
7 *677:33 0.00105372
8 *677:14 0.00256839
9 *677:10 0.00226242
10 *677:8 0.00056501
11 *4520:RESET_B *873:23 6.32633e-05
12 *4694:A *4265:A 0.00014285
13 *4695:A *4806:A 0
14 *4695:A *714:20 2.72545e-05
15 *677:14 *3978:A 0
16 *677:14 *3978:B 0
17 *677:14 *3982:A 0
18 *677:14 *3982:B 3.97543e-05
19 *677:14 *4806:A 0
20 *677:14 *935:10 5.07157e-05
21 *677:33 *4238:A1 0.000268528
22 *677:33 *4238:B1 0
23 *677:33 *873:23 0.000203742
24 *677:33 *874:32 8.07951e-05
25 *4235:B1 *677:33 0
26 *4240:A1 *677:14 4.58192e-05
27 *4240:A2 *677:33 2.7814e-05
28 *4240:B1 *677:33 0
29 *4242:B *677:14 0.000900506
30 *4244:B *677:14 2.50463e-05
31 *4248:A1 *677:33 6.94157e-05
32 *4275:A *677:14 0.000509486
33 *4276:A1 *677:14 0
34 *4276:A2 *677:14 2.49484e-05
35 *4277:B *677:14 0
36 *4423:RESET_B *4696:A 4.85567e-05
37 *4493:RESET_B *677:14 0.000129868
38 *4619:A *677:33 4.87854e-05
39 *4666:A *4696:A 3.67257e-05
40 *107:47 *4696:A 2.83257e-05
41 *222:33 *677:33 0
42 *466:8 *4694:A 0.000152931
43 *488:67 *677:14 0.000143044
44 *586:39 *677:14 8.89385e-05
45 *619:10 *4696:A 0.000146533
46 *642:45 *677:8 0.000356022
47 *661:12 *4520:RESET_B 0
48 *661:12 *677:33 0
49 *663:16 *677:33 0.000348579
50 *663:20 *677:33 5.52302e-05
51 *675:10 *4695:A 0.000182153
52 *675:10 *677:10 6.81083e-05
53 *675:10 *677:14 0.000107404
54 *676:6 *4696:A 0.000227539
*RES
1 *4697:X *677:8 17.2107 
2 *677:8 *677:10 1.03571 
3 *677:10 *677:14 30.4286 
4 *677:14 *4694:A 18.6214 
5 *677:14 *677:33 21.5536 
6 *677:33 *4520:RESET_B 6.14286 
7 *677:33 *4521:RESET_B 4.5 
8 *677:10 *4696:A 30.6929 
9 *677:8 *4695:A 19.1393 
*END

*D_NET *678 0.0011364
*CONN
*I *4855:A I *D sky130_fd_sc_hd__clkdlybuf4s25_1
*I *4600:X O *D sky130_fd_sc_hd__buf_2
*CAP
1 *4855:A 0.000568199
2 *4600:X 0.000568199
*RES
1 *4600:X *4855:A 35.7964 
*END

*D_NET *679 0.00721849
*CONN
*I *4535:RESET_B I *D sky130_fd_sc_hd__dfrtp_2
*I *4527:RESET_B I *D sky130_fd_sc_hd__dfrtp_2
*I *4526:RESET_B I *D sky130_fd_sc_hd__dfrtp_2
*I *4509:RESET_B I *D sky130_fd_sc_hd__dfrtp_2
*I *4511:RESET_B I *D sky130_fd_sc_hd__dfrtp_2
*I *4512:RESET_B I *D sky130_fd_sc_hd__dfrtp_2
*I *4510:RESET_B I *D sky130_fd_sc_hd__dfrtp_2
*I *4525:RESET_B I *D sky130_fd_sc_hd__dfrtp_2
*I *4698:X O *D sky130_fd_sc_hd__clkdlybuf4s25_1
*CAP
1 *4535:RESET_B 0.000925468
2 *4527:RESET_B 0
3 *4526:RESET_B 0.00104128
4 *4509:RESET_B 3.59957e-05
5 *4511:RESET_B 0
6 *4512:RESET_B 6.8661e-05
7 *4510:RESET_B 3.03799e-05
8 *4525:RESET_B 0
9 *4698:X 0.000144707
10 *679:34 0.000411042
11 *679:25 0.000445142
12 *679:23 0.000509744
13 *679:14 0.000466103
14 *679:12 0.000439713
15 *679:10 0.000403872
16 *4535:RESET_B *4255:A2 1.76135e-05
17 *4535:RESET_B *4536:D 0.000185811
18 *4535:RESET_B *843:10 2.27416e-05
19 *4535:RESET_B *879:10 0
20 *4535:RESET_B *880:10 3.69697e-05
21 *679:25 *872:10 5.56943e-05
22 *679:34 *4214:A3 8.91963e-06
23 *679:34 *872:10 0.000153849
24 *679:34 *886:12 7.47852e-05
25 *4013:A *679:34 0
26 *4165:A2 *4535:RESET_B 0.000121741
27 *4165:B1 *4535:RESET_B 4.21613e-05
28 *4215:B *4512:RESET_B 6.66813e-05
29 *4215:B *679:34 0.000185476
30 *4254:A2 *679:12 0.000214342
31 *4254:A2 *679:14 0.000128154
32 *4254:A2 *679:23 0.000223433
33 *4256:B *679:10 4.87953e-05
34 *4535:CLK *4535:RESET_B 9.71197e-05
35 *4645:A *4535:RESET_B 3.17148e-05
36 *4646:A *4535:RESET_B 4.08637e-05
37 *4662:A *679:10 0
38 *4662:A *679:12 0
39 *4683:A *679:12 0
40 *4683:A *679:14 0
41 *4683:A *679:23 0
42 *224:43 *679:10 7.83659e-05
43 *225:20 *4535:RESET_B 6.05161e-06
44 *225:20 *679:10 0.000175505
45 *225:20 *679:12 0.000102545
46 *458:12 *4535:RESET_B 0.000177052
47 *458:12 *679:12 0
48 *597:33 *679:23 0
49 *597:33 *679:25 0
50 *597:33 *679:34 0
*RES
1 *4698:X *679:10 16.9964 
2 *679:10 *679:12 4.98214 
3 *679:12 *679:14 1.64286 
4 *679:14 *4525:RESET_B 4.5 
5 *679:14 *679:23 8.85714 
6 *679:23 *679:25 1.64286 
7 *679:25 *4510:RESET_B 5.03571 
8 *679:25 *679:34 8.32143 
9 *679:34 *4512:RESET_B 6.14286 
10 *679:34 *4511:RESET_B 4.5 
11 *679:23 *4509:RESET_B 4.97321 
12 *679:12 *4526:RESET_B 6.20536 
13 *679:10 *4527:RESET_B 4.5 
14 *4526:RESET_B *4535:RESET_B 26.7321 
*END

*D_NET *680 0.00429036
*CONN
*I *4537:RESET_B I *D sky130_fd_sc_hd__dfrtp_2
*I *4539:RESET_B I *D sky130_fd_sc_hd__dfrtp_2
*I *4538:RESET_B I *D sky130_fd_sc_hd__dfrtp_2
*I *4540:RESET_B I *D sky130_fd_sc_hd__dfrtp_2
*I *4536:RESET_B I *D sky130_fd_sc_hd__dfrtp_2
*I *4699:X O *D sky130_fd_sc_hd__clkdlybuf4s25_1
*CAP
1 *4537:RESET_B 0
2 *4539:RESET_B 3.04304e-05
3 *4538:RESET_B 1.47839e-05
4 *4540:RESET_B 0.000227835
5 *4536:RESET_B 0.00074007
6 *4699:X 0.000455505
7 *680:29 0.000516373
8 *680:27 0.000579326
9 *680:25 0.000559706
10 *4536:RESET_B *4017:B 8.32171e-05
11 *4536:RESET_B *4166:A2 1.25672e-06
12 *4536:RESET_B *4699:A 9.0145e-05
13 *4536:RESET_B *844:6 7.00171e-06
14 *4536:RESET_B *844:27 0.000153054
15 *4538:RESET_B *846:12 4.83849e-05
16 *4538:RESET_B *847:16 1.60121e-05
17 *4539:RESET_B *847:10 1.20135e-05
18 *4540:RESET_B *4172:A 0.000172877
19 *4540:RESET_B *847:16 2.84565e-05
20 *680:25 *4166:A2 0
21 *680:25 *844:27 8.32242e-05
22 *680:25 *845:8 0
23 *680:29 *847:10 4.67875e-05
24 *680:29 *847:16 4.51556e-05
25 *4165:A2 *4536:RESET_B 0
26 *4168:A2 *4536:RESET_B 3.69047e-06
27 *4168:A2 *680:25 4.64226e-05
28 *4170:A *680:27 0
29 *4170:A *680:29 0
30 *4674:A *4536:RESET_B 0.000318316
31 *4674:A *680:25 1.03183e-05
*RES
1 *4699:X *4536:RESET_B 27.4875 
2 *4536:RESET_B *680:25 9.17857 
3 *680:25 *680:27 4.98214 
4 *680:27 *680:29 4.98214 
5 *680:29 *4540:RESET_B 9.48214 
6 *680:29 *4538:RESET_B 4.97321 
7 *680:27 *4539:RESET_B 4.97321 
8 *680:25 *4537:RESET_B 4.5 
*END

*D_NET *681 0.0103603
*CONN
*I *4409:RESET_B I *D sky130_fd_sc_hd__dfrtp_2
*I *4425:RESET_B I *D sky130_fd_sc_hd__dfrtp_2
*I *4528:RESET_B I *D sky130_fd_sc_hd__dfrtp_2
*I *4529:RESET_B I *D sky130_fd_sc_hd__dfrtp_2
*I *4530:RESET_B I *D sky130_fd_sc_hd__dfrtp_2
*I *4449:RESET_B I *D sky130_fd_sc_hd__dfrtp_2
*I *4450:RESET_B I *D sky130_fd_sc_hd__dfrtp_2
*I *4448:SET_B I *D sky130_fd_sc_hd__dfstp_2
*I *4700:X O *D sky130_fd_sc_hd__clkdlybuf4s25_1
*CAP
1 *4409:RESET_B 0.000229735
2 *4425:RESET_B 0.00105516
3 *4528:RESET_B 0.000229742
4 *4529:RESET_B 0.000235952
5 *4530:RESET_B 0.000127746
6 *4449:RESET_B 0.000234283
7 *4450:RESET_B 4.83589e-05
8 *4448:SET_B 0.000482686
9 *4700:X 0.0001685
10 *681:75 0.000508794
11 *681:63 0.00052907
12 *681:53 0.0014642
13 *681:12 0.000373161
14 *681:10 0.000525449
15 *4448:SET_B *682:14 0.000439641
16 *4448:SET_B *749:8 8.86354e-05
17 *4448:SET_B *749:14 7.17509e-05
18 *4449:RESET_B *3914:A 6.87574e-05
19 *4449:RESET_B *4701:A 4.81734e-05
20 *4449:RESET_B *748:6 3.42876e-05
21 *4449:RESET_B *748:52 0.00010096
22 *4528:RESET_B *682:14 0.000275094
23 *681:10 *4700:A 9.33294e-05
24 *681:10 *748:52 0
25 *681:12 *3914:A 4.16114e-05
26 *681:12 *4700:A 0.000126446
27 *681:12 *682:14 0.000114759
28 *681:12 *748:52 0
29 *681:12 *749:8 1.88048e-05
30 *681:53 *682:14 0
31 *681:53 *749:14 0
32 *681:75 *4529:D 9.91086e-05
33 *681:75 *682:14 9.91086e-05
34 *3915:A1 *4409:RESET_B 0.000143455
35 *3917:B1 *4450:RESET_B 5.33005e-05
36 *3919:A2 *681:53 0.000104974
37 *4045:B *681:12 0
38 *4207:B *4425:RESET_B 9.41642e-05
39 *4207:B *681:53 0.000292708
40 *4207:B *681:63 0
41 *4360:B2 *4409:RESET_B 1.18064e-05
42 *4529:CLK *4528:RESET_B 2.51343e-06
43 *4665:A *681:63 9.90367e-05
44 *106:10 *681:63 0
45 *106:16 *4425:RESET_B 0.000170596
46 *107:92 *4409:RESET_B 0.000128022
47 *107:111 *4409:RESET_B 5.03076e-05
48 *111:18 *4448:SET_B 1.52723e-05
49 *150:37 *681:53 7.27305e-05
50 *350:6 *681:63 5.41609e-05
51 *449:226 *681:63 4.70078e-05
52 *449:228 *4528:RESET_B 3.17067e-05
53 *449:228 *681:63 2.66026e-05
54 *449:246 *4528:RESET_B 0
55 *449:266 *681:53 0
56 *449:266 *681:63 8.27403e-05
57 *459:12 *681:63 0
58 *495:23 *4425:RESET_B 9.90367e-05
59 *495:33 *4425:RESET_B 2.14757e-05
60 *500:10 *4409:RESET_B 0.00017473
61 *608:8 *4530:RESET_B 0.000350829
62 *608:8 *681:63 0.000299779
*RES
1 *4700:X *681:10 16.1929 
2 *681:10 *681:12 3.16071 
3 *681:12 *4448:SET_B 11.0982 
4 *681:12 *4450:RESET_B 5.40179 
5 *681:10 *4449:RESET_B 9.09821 
6 *4448:SET_B *681:53 15.1964 
7 *681:53 *681:63 17.125 
8 *681:63 *4530:RESET_B 3.34821 
9 *681:63 *681:75 10.3393 
10 *681:75 *4529:RESET_B 3.08036 
11 *681:75 *4528:RESET_B 13.4107 
12 *681:53 *4425:RESET_B 10.4732 
13 *4425:RESET_B *4409:RESET_B 15.0357 
*END

*D_NET *682 0.0103161
*CONN
*I *4700:A I *D sky130_fd_sc_hd__clkdlybuf4s25_1
*I *4471:RESET_B I *D sky130_fd_sc_hd__dfrtp_2
*I *4699:A I *D sky130_fd_sc_hd__clkdlybuf4s25_1
*I *4698:A I *D sky130_fd_sc_hd__clkdlybuf4s25_1
*I *4701:X O *D sky130_fd_sc_hd__clkdlybuf4s25_1
*CAP
1 *4700:A 0.000287907
2 *4471:RESET_B 0.000232448
3 *4699:A 0.00029973
4 *4698:A 0
5 *4701:X 0.000197222
6 *682:27 0.00140427
7 *682:14 0.0019005
8 *682:8 0.00151354
9 *4699:A *843:10 7.61043e-05
10 *4699:A *843:42 7.04444e-05
11 *4700:A *748:52 0
12 *682:8 *3914:A 0.000141975
13 *682:14 *4260:A1 8.59039e-05
14 *682:14 *4529:D 0.000329835
15 *682:14 *749:14 0
16 *682:14 *882:19 7.58571e-05
17 *682:27 *4166:A1 0.000122101
18 *682:27 *843:42 2.95641e-05
19 *3918:B *4700:A 6.98302e-05
20 *3918:B *682:14 0.00031588
21 *4161:B *682:27 0.00041868
22 *4162:A *4471:RESET_B 7.92975e-05
23 *4162:A *4699:A 1.17968e-05
24 *4165:A2 *4699:A 0
25 *4256:B *682:14 5.71472e-05
26 *4256:B *682:27 0.000348579
27 *4262:A *682:14 0
28 *4448:D *682:14 0.000125717
29 *4448:SET_B *682:14 0.000439641
30 *4528:RESET_B *682:14 0.000275094
31 *4536:RESET_B *4699:A 9.0145e-05
32 *4665:A *682:14 0.000344917
33 *4674:A *4699:A 0.000245342
34 *4675:A *4699:A 0.000139653
35 *4677:A *4471:RESET_B 0
36 *4677:A *4699:A 0
37 *149:18 *4700:A 0
38 *225:20 *682:14 0
39 *449:228 *682:14 3.24389e-05
40 *449:246 *682:14 0
41 *449:266 *682:14 3.69865e-05
42 *458:12 *682:14 8.39e-05
43 *681:10 *4700:A 9.33294e-05
44 *681:12 *4700:A 0.000126446
45 *681:12 *682:14 0.000114759
46 *681:53 *682:14 0
47 *681:75 *682:14 9.91086e-05
*RES
1 *4701:X *682:8 16.3893 
2 *682:8 *682:14 33.3929 
3 *682:14 *4698:A 9.3 
4 *682:14 *682:27 21.1964 
5 *682:27 *4699:A 20.8536 
6 *682:27 *4471:RESET_B 9.17857 
7 *682:8 *4700:A 19.1393 
*END

*D_NET *683 0.00928882
*CONN
*I *4496:RESET_B I *D sky130_fd_sc_hd__dfrtp_2
*I *4417:RESET_B I *D sky130_fd_sc_hd__dfrtp_2
*I *4421:RESET_B I *D sky130_fd_sc_hd__dfrtp_2
*I *4495:RESET_B I *D sky130_fd_sc_hd__dfrtp_2
*I *4500:RESET_B I *D sky130_fd_sc_hd__dfrtp_2
*I *4498:RESET_B I *D sky130_fd_sc_hd__dfrtp_2
*I *4497:RESET_B I *D sky130_fd_sc_hd__dfrtp_2
*I *4499:RESET_B I *D sky130_fd_sc_hd__dfrtp_2
*I *4702:X O *D sky130_fd_sc_hd__clkdlybuf4s25_1
*CAP
1 *4496:RESET_B 0.000194981
2 *4417:RESET_B 0.000184638
3 *4421:RESET_B 0
4 *4495:RESET_B 0.000250294
5 *4500:RESET_B 0
6 *4498:RESET_B 0.000676351
7 *4497:RESET_B 2.92677e-05
8 *4499:RESET_B 0.000171412
9 *4702:X 0.00019848
10 *683:84 0.0011315
11 *683:72 0.00154097
12 *683:38 0.000752428
13 *683:12 0.00091748
14 *683:10 0.000358943
15 *4495:RESET_B *937:8 5.33005e-05
16 *4496:RESET_B *3985:B 2.84026e-05
17 *4497:RESET_B *4827:A 1.10841e-05
18 *4498:RESET_B *4498:D 1.08847e-05
19 *4498:RESET_B *4827:A 2.22999e-05
20 *4498:RESET_B *918:10 0.000104974
21 *4499:RESET_B *4499:D 4.13122e-06
22 *4499:RESET_B *920:32 0.000178573
23 *683:10 *921:12 7.6997e-05
24 *683:38 *4498:D 0.000286888
25 *683:72 *3988:A 0.000226021
26 *683:72 *4820:A 3.17148e-05
27 *683:72 *937:25 0.000126439
28 *683:84 *937:8 5.52302e-05
29 *3988:C *683:72 7.48356e-05
30 *4284:A1 *683:38 2.59355e-05
31 *4354:A1 *4417:RESET_B 0
32 *4354:A1 *683:84 0
33 *4421:CLK *4417:RESET_B 0
34 *4421:D *683:84 0.000318101
35 *4499:CLK *683:38 0.00049981
36 *200:21 *683:72 3.55503e-05
37 *201:8 *4496:RESET_B 6.2379e-05
38 *202:10 *683:72 0.000173083
39 *204:16 *4498:RESET_B 6.74911e-05
40 *204:16 *683:38 3.63775e-05
41 *205:10 *683:38 4.88537e-05
42 *205:10 *683:72 4.038e-06
43 *205:23 *683:38 0.000122266
44 *205:34 *683:38 7.0586e-05
45 *205:49 *683:10 9.61161e-05
46 *205:49 *683:38 2.97223e-05
47 *497:77 *4417:RESET_B 0
48 *642:28 *683:84 0
*RES
1 *4702:X *683:10 16.9071 
2 *683:10 *683:12 2.79464 
3 *683:12 *4499:RESET_B 7.94643 
4 *683:12 *683:38 27.2589 
5 *683:38 *4497:RESET_B 0.473214 
6 *683:38 *4498:RESET_B 12 
7 *683:10 *4500:RESET_B 4.5 
8 *4498:RESET_B *683:72 20.5446 
9 *683:72 *4495:RESET_B 0.883929 
10 *683:72 *683:84 20.6429 
11 *683:84 *4421:RESET_B 4.5 
12 *683:84 *4417:RESET_B 7.96429 
13 *4495:RESET_B *4496:RESET_B 12.3482 
*END

*D_NET *684 0.00437174
*CONN
*I *4464:RESET_B I *D sky130_fd_sc_hd__dfrtp_2
*I *4473:RESET_B I *D sky130_fd_sc_hd__dfrtp_2
*I *4472:RESET_B I *D sky130_fd_sc_hd__dfrtp_2
*I *4463:RESET_B I *D sky130_fd_sc_hd__dfrtp_2
*I *4468:RESET_B I *D sky130_fd_sc_hd__dfrtp_2
*I *4467:RESET_B I *D sky130_fd_sc_hd__dfrtp_2
*I *4703:X O *D sky130_fd_sc_hd__clkdlybuf4s25_1
*CAP
1 *4464:RESET_B 0
2 *4473:RESET_B 0
3 *4472:RESET_B 0.00012106
4 *4463:RESET_B 0.000414896
5 *4468:RESET_B 0
6 *4467:RESET_B 0.000301396
7 *4703:X 0.000170696
8 *684:48 0.000214645
9 *684:46 0.000278753
10 *684:8 0.000242365
11 *4048:B *684:8 0
12 *4049:A *684:8 0.000123295
13 *4735:A *4467:RESET_B 0.00015244
14 *4735:A *684:8 0.000175243
15 *260:14 *684:8 0.00015134
16 *449:94 *4463:RESET_B 1.22852e-05
17 *461:20 *684:8 1.40849e-05
18 *497:77 *4472:RESET_B 0.000384267
19 *497:77 *684:46 5.74242e-05
20 *497:77 *684:48 0.000366861
21 *642:28 *4463:RESET_B 7.64155e-05
22 *642:28 *4472:RESET_B 0.000384267
23 *642:28 *684:8 0
24 *642:28 *684:46 0.000373395
25 *642:28 *684:48 0.000356611
*RES
1 *4703:X *684:8 18.175 
2 *684:8 *4467:RESET_B 6.44643 
3 *684:8 *4468:RESET_B 4.5 
4 *4467:RESET_B *4463:RESET_B 14.0089 
5 *4463:RESET_B *684:46 9.48214 
6 *684:46 *684:48 4.67857 
7 *684:48 *4472:RESET_B 9.48214 
8 *684:48 *4473:RESET_B 4.5 
9 *684:46 *4464:RESET_B 4.5 
*END

*D_NET *685 0.00982631
*CONN
*I *4506:RESET_B I *D sky130_fd_sc_hd__dfrtp_2
*I *4505:RESET_B I *D sky130_fd_sc_hd__dfrtp_2
*I *4703:A I *D sky130_fd_sc_hd__clkdlybuf4s25_1
*I *4702:A I *D sky130_fd_sc_hd__clkdlybuf4s25_1
*I *4503:RESET_B I *D sky130_fd_sc_hd__dfrtp_2
*I *4504:RESET_B I *D sky130_fd_sc_hd__dfrtp_2
*I *4502:RESET_B I *D sky130_fd_sc_hd__dfrtp_2
*I *4501:RESET_B I *D sky130_fd_sc_hd__dfrtp_2
*I *4704:X O *D sky130_fd_sc_hd__clkdlybuf4s25_1
*CAP
1 *4506:RESET_B 5.09165e-05
2 *4505:RESET_B 0.000182756
3 *4703:A 0.000111057
4 *4702:A 0.000550681
5 *4503:RESET_B 8.84716e-05
6 *4504:RESET_B 6.24712e-05
7 *4502:RESET_B 0.000116276
8 *4501:RESET_B 0.000236233
9 *4704:X 0
10 *685:73 0.000637682
11 *685:50 0.00145404
12 *685:31 0.000232993
13 *685:21 0.000515254
14 *685:8 0.000795657
15 *685:4 0.000751068
16 *4501:RESET_B *4501:D 0
17 *4501:RESET_B *4839:A 7.83659e-05
18 *4502:RESET_B *4829:A 2.59355e-05
19 *4503:RESET_B *3994:A 0.000333967
20 *4505:RESET_B *3996:B 8.89385e-05
21 *4505:RESET_B *4505:D 4.70821e-05
22 *4505:RESET_B *926:17 6.22185e-05
23 *4505:RESET_B *927:27 0.000393005
24 *4506:RESET_B *927:27 0.000147474
25 *4702:A *714:10 0.00016495
26 *4702:A *714:20 9.56968e-05
27 *4703:A *927:27 3.34295e-05
28 *685:8 *4501:D 1.96027e-05
29 *685:8 *4731:A 5.62995e-05
30 *685:21 *3992:A 0.00012401
31 *685:21 *4501:D 0
32 *685:21 *4731:A 0
33 *685:21 *4839:A 0.000241658
34 *685:31 *3992:A 9.64459e-05
35 *685:31 *3994:A 0.000202128
36 *685:50 *4731:A 7.43578e-06
37 *685:73 *3996:C 3.69047e-06
38 *3992:B *685:21 2.41972e-05
39 *3996:D *685:73 9.41642e-05
40 *4048:B *4703:A 5.62207e-05
41 *4048:B *685:73 6.48786e-05
42 *4294:A2 *685:21 1.59689e-05
43 *4298:A1 *685:21 0.000148911
44 *4298:A1 *685:31 3.34366e-05
45 *4305:A1 *4506:RESET_B 0.000149904
46 *4467:D *4702:A 0.000177288
47 *4468:CLK *4702:A 1.24368e-05
48 *4621:A *4505:RESET_B 0.00011891
49 *4621:A *4703:A 0.000243627
50 *208:24 *685:21 7.01289e-05
51 *211:10 *4503:RESET_B 0.000344217
52 *211:10 *685:31 0.000264137
53 *213:12 *4703:A 0
*RES
1 *4704:X *685:4 9.3 
2 *685:4 *685:8 7.5 
3 *685:8 *4501:RESET_B 8.92857 
4 *685:8 *685:21 7.71429 
5 *685:21 *4502:RESET_B 6.20536 
6 *685:21 *685:31 3.76786 
7 *685:31 *4504:RESET_B 5.40179 
8 *685:31 *4503:RESET_B 8.875 
9 *685:4 *685:50 5.875 
10 *685:50 *4702:A 30.4071 
11 *685:50 *685:73 10.8929 
12 *685:73 *4703:A 16.9607 
13 *685:73 *4505:RESET_B 9.95536 
14 *4505:RESET_B *4506:RESET_B 10.9464 
*END

*D_NET *686 0.00733541
*CONN
*I *4469:RESET_B I *D sky130_fd_sc_hd__dfrtp_2
*I *4470:RESET_B I *D sky130_fd_sc_hd__dfrtp_2
*I *4420:RESET_B I *D sky130_fd_sc_hd__dfrtp_2
*I *4460:RESET_B I *D sky130_fd_sc_hd__dfrtp_2
*I *4416:RESET_B I *D sky130_fd_sc_hd__dfrtp_2
*I *4459:RESET_B I *D sky130_fd_sc_hd__dfrtp_2
*I *4458:RESET_B I *D sky130_fd_sc_hd__dfrtp_2
*I *4457:RESET_B I *D sky130_fd_sc_hd__dfrtp_2
*I *4705:X O *D sky130_fd_sc_hd__clkdlybuf4s25_1
*CAP
1 *4469:RESET_B 7.18502e-05
2 *4470:RESET_B 0.000653987
3 *4420:RESET_B 0.000641351
4 *4460:RESET_B 0.00011821
5 *4416:RESET_B 0.000675176
6 *4459:RESET_B 0.00146965
7 *4458:RESET_B 0
8 *4457:RESET_B 0.000892166
9 *4705:X 0.000221224
10 *686:10 0.000377915
11 *4457:RESET_B *4064:B1 0.000247845
12 *4469:RESET_B *4692:A 0
13 *686:10 *4064:B1 0.000103437
14 *3893:B1 *4416:RESET_B 0.000193977
15 *3896:B *686:10 0.00036868
16 *4060:A *4459:RESET_B 3.1794e-05
17 *4060:C *4459:RESET_B 0.000164886
18 *4063:A1 *4457:RESET_B 3.79669e-06
19 *4063:B1 *686:10 0.000222735
20 *4349:A3 *4420:RESET_B 0.000254337
21 *4420:CLK *4470:RESET_B 2.27416e-05
22 *4459:D *4459:RESET_B 7.33229e-06
23 *4622:A *4416:RESET_B 4.03996e-05
24 *131:26 *686:10 5.33005e-05
25 *259:8 *4469:RESET_B 4.79842e-05
26 *259:44 *686:10 5.39552e-05
27 *261:12 *4469:RESET_B 0
28 *261:69 *4460:RESET_B 0.000134052
29 *469:10 *4416:RESET_B 0
30 *469:36 *4459:RESET_B 9.84673e-05
31 *469:42 *4459:RESET_B 2.38501e-05
32 *671:16 *4416:RESET_B 0
33 *673:23 *4416:RESET_B 0
34 *673:23 *4420:RESET_B 0.000140311
35 *673:32 *4416:RESET_B 0
36 *673:45 *4416:RESET_B 0
*RES
1 *4705:X *686:10 20.5321 
2 *686:10 *4457:RESET_B 8.625 
3 *686:10 *4458:RESET_B 4.5 
4 *4457:RESET_B *4459:RESET_B 10.1429 
5 *4459:RESET_B *4416:RESET_B 20.3571 
6 *4459:RESET_B *4460:RESET_B 12.1607 
7 *4416:RESET_B *4420:RESET_B 12.1607 
8 *4420:RESET_B *4470:RESET_B 7.67857 
9 *4470:RESET_B *4469:RESET_B 10.6429 
*END

*D_NET *687 0.00368993
*CONN
*I *4461:RESET_B I *D sky130_fd_sc_hd__dfrtp_2
*I *4474:RESET_B I *D sky130_fd_sc_hd__dfrtp_2
*I *4475:RESET_B I *D sky130_fd_sc_hd__dfrtp_2
*I *4462:RESET_B I *D sky130_fd_sc_hd__dfrtp_2
*I *4706:X O *D sky130_fd_sc_hd__clkdlybuf4s25_1
*CAP
1 *4461:RESET_B 0
2 *4474:RESET_B 2.11316e-05
3 *4475:RESET_B 0.000177086
4 *4462:RESET_B 4.09989e-05
5 *4706:X 0.00013251
6 *687:26 0.00085121
7 *687:24 0.00110751
8 *687:10 0.000628023
9 *687:26 *742:18 0
10 *3894:B *4475:RESET_B 0
11 *3895:D *4474:RESET_B 4.85567e-05
12 *4058:A1 *687:24 9.15842e-06
13 *4058:B1 *687:10 8.90105e-05
14 *4362:A *687:26 0
15 *4462:CLK *687:24 1.21703e-05
16 *4462:D *687:10 7.58841e-05
17 *4462:D *687:24 0.000139344
18 *4761:A *4475:RESET_B 9.80029e-05
19 *267:8 *4475:RESET_B 0.000148897
20 *267:8 *687:26 3.06406e-05
21 *470:18 *4462:RESET_B 1.34278e-05
22 *470:18 *687:24 3.01245e-06
23 *470:64 *687:10 6.3361e-05
24 *668:10 *687:26 0
25 *668:23 *687:26 0
*RES
1 *4706:X *687:10 21.7643 
2 *687:10 *4462:RESET_B 0.901786 
3 *687:10 *687:24 10.9643 
4 *687:24 *687:26 11.6607 
5 *687:26 *4475:RESET_B 9.48214 
6 *687:26 *4474:RESET_B 4.97321 
7 *687:24 *4461:RESET_B 4.5 
*END

*D_NET *688 0.00759532
*CONN
*I *4579:RESET_B I *D sky130_fd_sc_hd__dfrtp_2
*I *4581:RESET_B I *D sky130_fd_sc_hd__dfrtp_2
*I *4583:RESET_B I *D sky130_fd_sc_hd__dfrtp_2
*I *4580:RESET_B I *D sky130_fd_sc_hd__dfrtp_2
*I *4585:RESET_B I *D sky130_fd_sc_hd__dfrtp_2
*I *4588:RESET_B I *D sky130_fd_sc_hd__dfrtp_2
*I *4587:RESET_B I *D sky130_fd_sc_hd__dfrtp_2
*I *4584:RESET_B I *D sky130_fd_sc_hd__dfrtp_2
*I *4707:X O *D sky130_fd_sc_hd__clkdlybuf4s25_1
*CAP
1 *4579:RESET_B 0.000274871
2 *4581:RESET_B 0
3 *4583:RESET_B 0.000124374
4 *4580:RESET_B 0.00032601
5 *4585:RESET_B 0.000806273
6 *4588:RESET_B 6.0625e-05
7 *4587:RESET_B 0.000679531
8 *4584:RESET_B 0.000978268
9 *4707:X 0
10 *688:79 0.000350379
11 *688:36 0.00129498
12 *688:6 0.000473191
13 *4579:RESET_B *4579:D 1.02504e-05
14 *4579:RESET_B *4816:A 0
15 *4583:RESET_B *4584:D 0
16 *4585:RESET_B *4316:A 5.91452e-05
17 *4587:RESET_B *4584:D 0.000125877
18 *4587:RESET_B *4587:D 0.00014285
19 *688:36 *3959:A 0
20 *688:36 *3963:C 0
21 *3959:B *688:36 0
22 *4315:A1 *4580:RESET_B 0
23 *4315:A2 *4579:RESET_B 0
24 *4315:A2 *688:79 0
25 *4316:B *4585:RESET_B 5.33334e-05
26 *4325:A1 *4583:RESET_B 0
27 *4325:A1 *4584:RESET_B 0.000491151
28 *4325:A1 *688:36 0.000122754
29 *4325:B1 *4580:RESET_B 0
30 *4325:B1 *4583:RESET_B 0.000276809
31 *4325:B1 *688:36 0
32 *4584:CLK *4587:RESET_B 7.50473e-05
33 *4585:CLK *4585:RESET_B 5.41609e-05
34 *4669:A *4579:RESET_B 0.000138572
35 *4669:A *688:79 6.65302e-05
36 *177:10 *4580:RESET_B 0
37 *177:10 *688:36 0
38 *181:10 *688:36 7.6644e-05
39 *184:18 *4588:RESET_B 0.000250201
40 *470:64 *4587:RESET_B 1.40131e-05
41 *472:50 *4580:RESET_B 1.92789e-05
42 *648:30 *4588:RESET_B 0.000250201
*RES
1 *4707:X *688:6 13.8 
2 *688:6 *4584:RESET_B 10.6964 
3 *4584:RESET_B *4587:RESET_B 9.32143 
4 *4587:RESET_B *4588:RESET_B 12.1607 
5 *688:6 *688:36 4.98214 
6 *688:36 *4585:RESET_B 14.5625 
7 *688:36 *4580:RESET_B 8.5625 
8 *4584:RESET_B *4583:RESET_B 12.4643 
9 *4580:RESET_B *688:79 6.14286 
10 *688:79 *4581:RESET_B 4.5 
11 *688:79 *4579:RESET_B 9.66964 
*END

*D_NET *689 0.00144964
*CONN
*I *4856:A I *D sky130_fd_sc_hd__clkdlybuf4s25_1
*I *4601:X O *D sky130_fd_sc_hd__buf_2
*CAP
1 *4856:A 0.000362659
2 *4601:X 0.000362659
3 *4856:A *4378:A1 4.25523e-05
4 *4856:A *4434:RESET_B 0
5 *4376:A2 *4856:A 0.000117553
6 *4377:B *4856:A 0.00025299
7 *4378:A2 *4856:A 2.1527e-05
8 *4433:D *4856:A 5.33005e-05
9 *4434:CLK *4856:A 0.00019384
10 *4434:D *4856:A 4.25622e-05
*RES
1 *4601:X *4856:A 36.725 
*END

*D_NET *690 0.00583993
*CONN
*I *4576:RESET_B I *D sky130_fd_sc_hd__dfrtp_2
*I *4578:RESET_B I *D sky130_fd_sc_hd__dfrtp_2
*I *4577:RESET_B I *D sky130_fd_sc_hd__dfrtp_2
*I *4465:RESET_B I *D sky130_fd_sc_hd__dfrtp_2
*I *4707:A I *D sky130_fd_sc_hd__clkdlybuf4s25_1
*I *4575:RESET_B I *D sky130_fd_sc_hd__dfrtp_2
*I *4466:RESET_B I *D sky130_fd_sc_hd__dfrtp_2
*I *4582:RESET_B I *D sky130_fd_sc_hd__dfrtp_2
*I *4708:X O *D sky130_fd_sc_hd__clkdlybuf4s25_1
*CAP
1 *4576:RESET_B 7.81247e-05
2 *4578:RESET_B 0
3 *4577:RESET_B 0
4 *4465:RESET_B 6.26081e-05
5 *4707:A 0.000766066
6 *4575:RESET_B 0.000428867
7 *4466:RESET_B 0.000397372
8 *4582:RESET_B 0.000160886
9 *4708:X 0.000160886
10 *690:82 0.000156111
11 *690:73 0.000470857
12 *690:29 0.000926502
13 *690:17 0.000459205
14 *4465:RESET_B *4051:B1 0.000129868
15 *4466:RESET_B *4051:B1 0
16 *4466:RESET_B *691:19 0.000154455
17 *4576:RESET_B *973:10 6.39262e-05
18 *4576:RESET_B *976:23 0
19 *4582:RESET_B *691:19 0.000140933
20 *4582:RESET_B *981:10 3.92844e-05
21 *4707:A *4582:D 0.000114789
22 *4707:A *962:8 9.56968e-05
23 *690:29 *4575:D 0
24 *690:73 *4308:B 0.000118339
25 *690:73 *4575:D 0.000121948
26 *690:73 *962:8 0
27 *690:73 *973:10 2.82057e-05
28 *690:73 *973:12 6.30292e-05
29 *690:82 *973:10 6.65302e-05
30 *4307:B *690:73 0
31 *4311:A1 *690:73 0
32 *4321:A1 *4707:A 4.42013e-05
33 *4321:A2 *4707:A 5.33005e-05
34 *4321:B1 *4707:A 7.77652e-05
35 *4322:A2 *4707:A 5.52238e-05
36 *4624:A *4707:A 0
37 *4624:A *690:29 0
38 *176:10 *4576:RESET_B 0.000254337
39 *176:10 *690:73 9.56968e-05
40 *176:10 *690:82 5.49161e-05
41 *463:8 *4466:RESET_B 0
42 *463:8 *690:29 0
*RES
1 *4708:X *4582:RESET_B 12.2375 
2 *4708:X *690:17 13.8 
3 *690:17 *4466:RESET_B 11.5804 
4 *690:17 *690:29 2.25 
5 *690:29 *4575:RESET_B 4.97321 
6 *690:29 *4707:A 28.3357 
7 *4466:RESET_B *4465:RESET_B 10.6429 
8 *4575:RESET_B *690:73 14.3393 
9 *690:73 *4577:RESET_B 4.5 
10 *690:73 *690:82 2.17857 
11 *690:82 *4578:RESET_B 4.5 
12 *690:82 *4576:RESET_B 7.66071 
*END

*D_NET *691 0.0087833
*CONN
*I *4586:RESET_B I *D sky130_fd_sc_hd__dfrtp_2
*I *4706:A I *D sky130_fd_sc_hd__clkdlybuf4s25_1
*I *4705:A I *D sky130_fd_sc_hd__clkdlybuf4s25_1
*I *4708:A I *D sky130_fd_sc_hd__clkdlybuf4s25_1
*I *4709:X O *D sky130_fd_sc_hd__clkdlybuf4s25_1
*CAP
1 *4586:RESET_B 0.000936863
2 *4706:A 0.000185583
3 *4705:A 0
4 *4708:A 0
5 *4709:X 3.18784e-05
6 *691:32 0.00208418
7 *691:19 0.00165941
8 *691:6 0.000729556
9 *4586:RESET_B *3967:B 0
10 *4586:RESET_B *3968:A 0
11 *4586:RESET_B *4327:B1 0.000417914
12 *4586:RESET_B *966:10 0
13 *4706:A *714:69 9.60875e-05
14 *691:19 *4050:B1 6.42338e-05
15 *3902:A *691:19 6.35892e-05
16 *3902:A *691:32 9.80173e-05
17 *3902:C_N *691:32 5.52302e-05
18 *3968:B *4586:RESET_B 9.65075e-05
19 *3968:B *4706:A 1.52978e-05
20 *3968:B *691:32 9.71197e-05
21 *4056:A *691:32 0.000146523
22 *4058:A1 *4706:A 5.41794e-05
23 *4059:B1 *691:32 0.000116749
24 *4326:B *4586:RESET_B 0
25 *4328:B *4586:RESET_B 0.000217601
26 *4466:RESET_B *691:19 0.000154455
27 *4582:RESET_B *691:19 0.000140933
28 *131:26 *691:32 0.000938031
29 *181:40 *4586:RESET_B 0
30 *182:8 *4586:RESET_B 0.000108839
31 *184:18 *4586:RESET_B 0.000274525
32 *463:8 *691:19 0
33 *470:64 *4706:A 0
34 *648:30 *4586:RESET_B 0
35 *648:41 *4586:RESET_B 0
*RES
1 *4709:X *691:6 9.83571 
2 *691:6 *4708:A 9.3 
3 *691:6 *691:19 23.0714 
4 *691:19 *4705:A 9.3 
5 *691:19 *691:32 26.5357 
6 *691:32 *4706:A 17.3 
7 *691:32 *4586:RESET_B 26.7857 
*END

*D_NET *692 0.00659458
*CONN
*I *4709:A I *D sky130_fd_sc_hd__clkdlybuf4s25_1
*I *4704:A I *D sky130_fd_sc_hd__clkdlybuf4s25_1
*I *4507:RESET_B I *D sky130_fd_sc_hd__dfrtp_2
*I *4508:RESET_B I *D sky130_fd_sc_hd__dfrtp_2
*I *4710:X O *D sky130_fd_sc_hd__clkdlybuf4s25_1
*CAP
1 *4709:A 0.000394376
2 *4704:A 0.000116031
3 *4507:RESET_B 0.000394376
4 *4508:RESET_B 0.000349589
5 *4710:X 0.000297188
6 *692:18 0.00174246
7 *692:10 0.00180609
8 *4508:RESET_B *3997:A 0
9 *4508:RESET_B *930:8 0
10 *4704:A *4501:D 0
11 *4704:A *4731:A 0
12 *4704:A *714:10 0
13 *692:10 *4501:D 0
14 *692:10 *714:10 0
15 *4048:B *692:18 1.99881e-05
16 *4302:A *692:18 0.000175519
17 *4304:B *692:18 0
18 *4305:A0 *4508:RESET_B 6.07626e-05
19 *4306:B *4508:RESET_B 0
20 *4620:A *692:18 7.84241e-05
21 *4668:A *4508:RESET_B 0
22 *4668:A *4709:A 0.000103266
23 *4668:A *692:18 0
24 *213:12 *4508:RESET_B 0.000175512
25 *213:12 *692:18 0.000359793
26 *461:20 *692:18 8.78006e-05
27 *467:12 *692:10 0
28 *468:37 *4709:A 0.000219711
29 *642:18 *4709:A 0.000213688
*RES
1 *4710:X *692:10 18.1214 
2 *692:10 *692:18 31.3571 
3 *692:18 *4508:RESET_B 11.8393 
4 *692:18 *4507:RESET_B 4.5 
5 *692:10 *4704:A 15.7464 
6 *4507:RESET_B *4709:A 27.9786 
*END

*D_NET *693 0.00722212
*CONN
*I *4546:RESET_B I *D sky130_fd_sc_hd__dfrtp_2
*I *4545:RESET_B I *D sky130_fd_sc_hd__dfrtp_2
*I *4544:RESET_B I *D sky130_fd_sc_hd__dfrtp_2
*I *4533:RESET_B I *D sky130_fd_sc_hd__dfrtp_2
*I *4534:RESET_B I *D sky130_fd_sc_hd__dfrtp_2
*I *4543:RESET_B I *D sky130_fd_sc_hd__dfrtp_2
*I *4542:RESET_B I *D sky130_fd_sc_hd__dfrtp_2
*I *4541:RESET_B I *D sky130_fd_sc_hd__dfrtp_2
*I *4711:X O *D sky130_fd_sc_hd__clkdlybuf4s25_1
*CAP
1 *4546:RESET_B 0.000203628
2 *4545:RESET_B 0.000240848
3 *4544:RESET_B 0.000749778
4 *4533:RESET_B 3.56066e-05
5 *4534:RESET_B 4.00857e-05
6 *4543:RESET_B 0
7 *4542:RESET_B 0
8 *4541:RESET_B 0.000873267
9 *4711:X 0.00012776
10 *693:71 0.000444476
11 *693:18 0.000355103
12 *693:16 0.000689952
13 *693:10 0.000545316
14 *693:8 0.000210258
15 *4533:RESET_B *841:10 9.51514e-06
16 *4541:RESET_B *828:6 1.86681e-05
17 *4544:RESET_B *4021:A 6.99261e-05
18 *4544:RESET_B *4544:D 0.000121922
19 *4544:RESET_B *828:6 3.15815e-05
20 *4545:RESET_B *832:10 5.66472e-05
21 *693:8 *842:8 0.000186869
22 *693:10 *842:8 5.33882e-05
23 *693:16 *4182:A2 5.90443e-06
24 *693:16 *4182:B1 0.00010326
25 *693:18 *4021:C 0
26 *693:18 *4182:A2 8.42554e-05
27 *693:18 *829:22 1.92303e-05
28 *4159:A *693:8 0.000353131
29 *4159:A *693:10 0.000119618
30 *4159:A *693:16 0.000254337
31 *4179:A2 *4541:RESET_B 0.000100936
32 *4179:A2 *693:18 6.14514e-05
33 *4181:A2 *4541:RESET_B 0.000100936
34 *4181:A2 *693:18 5.59032e-05
35 *4184:A2 *693:16 0.000153047
36 *4186:B *4545:RESET_B 0.00015078
37 *4186:B *4546:RESET_B 0.00015018
38 *4187:A1 *4544:RESET_B 0.000128523
39 *236:14 *4546:RESET_B 8.83386e-05
40 *542:35 *693:16 0
41 *564:38 *4544:RESET_B 0.000227687
42 *652:52 *693:16 0
43 *652:56 *693:16 0
44 *655:46 *693:10 0
45 *655:46 *693:16 0
46 *655:46 *693:18 0
*RES
1 *4711:X *693:8 18.4786 
2 *693:8 *693:10 1.64286 
3 *693:10 *693:16 10.5 
4 *693:16 *693:18 5.28571 
5 *693:18 *4541:RESET_B 7.95536 
6 *693:18 *4542:RESET_B 4.5 
7 *693:16 *4543:RESET_B 4.5 
8 *693:10 *4534:RESET_B 4.97321 
9 *693:8 *4533:RESET_B 4.97321 
10 *4541:RESET_B *4544:RESET_B 13.1429 
11 *4544:RESET_B *693:71 4.5 
12 *693:71 *4545:RESET_B 8.97321 
13 *693:71 *4546:RESET_B 9.17857 
*END

*D_NET *694 0.00972588
*CONN
*I *4424:RESET_B I *D sky130_fd_sc_hd__dfrtp_2
*I *4451:SET_B I *D sky130_fd_sc_hd__dfstp_2
*I *4552:RESET_B I *D sky130_fd_sc_hd__dfrtp_2
*I *4532:RESET_B I *D sky130_fd_sc_hd__dfrtp_2
*I *4414:RESET_B I *D sky130_fd_sc_hd__dfrtp_2
*I *4406:RESET_B I *D sky130_fd_sc_hd__dfrtp_2
*I *4401:RESET_B I *D sky130_fd_sc_hd__dfrtp_2
*I *4531:RESET_B I *D sky130_fd_sc_hd__dfrtp_2
*I *4712:X O *D sky130_fd_sc_hd__clkdlybuf4s25_1
*CAP
1 *4424:RESET_B 0.00037156
2 *4451:SET_B 0.00110653
3 *4552:RESET_B 0.000196067
4 *4532:RESET_B 0.000147031
5 *4414:RESET_B 0.000734973
6 *4406:RESET_B 6.01023e-05
7 *4401:RESET_B 0
8 *4531:RESET_B 0.000676338
9 *4712:X 0.000533648
10 *694:53 0.000617777
11 *694:14 0.0005911
12 *694:12 0.000348401
13 *694:10 0.000632506
14 *4424:RESET_B *4452:RESET_B 0.000351985
15 *4424:RESET_B *4713:A 0.000349504
16 *4424:RESET_B *695:14 3.46453e-05
17 *4451:SET_B *745:6 9.41642e-05
18 *4451:SET_B *745:27 8.59075e-05
19 *4532:RESET_B *4531:D 5.10822e-05
20 *4532:RESET_B *4552:D 5.10822e-05
21 *4552:RESET_B *4531:D 1.31516e-05
22 *4552:RESET_B *4552:D 8.28057e-05
23 *694:10 *4712:A 0.000459677
24 *3863:A2 *4531:RESET_B 0
25 *3928:A_N *4451:SET_B 5.52302e-05
26 *3934:B1 *4531:RESET_B 0
27 *3934:B1 *694:10 0
28 *3934:B1 *694:14 0
29 *3934:B2 *694:10 0
30 *4094:A *694:10 2.31791e-05
31 *4094:A *694:12 0.000219193
32 *4094:A *694:14 0.000197991
33 *4401:D *4531:RESET_B 0
34 *4453:D *4424:RESET_B 7.00768e-05
35 *4655:A *4531:RESET_B 0
36 *4655:A *4552:RESET_B 0
37 *4660:A *4531:RESET_B 9.81719e-05
38 *4660:A *4552:RESET_B 0
39 *107:111 *4531:RESET_B 0
40 *159:14 *4424:RESET_B 2.5385e-05
41 *159:14 *4451:SET_B 0.000307112
42 *449:13 *694:10 3.56976e-05
43 *449:222 *694:10 0
44 *449:222 *694:12 0
45 *449:222 *694:14 0
46 *475:8 *4552:RESET_B 9.47312e-05
47 *475:12 *4552:RESET_B 0.000128146
48 *476:70 *4424:RESET_B 4.8736e-05
49 *519:14 *4531:RESET_B 0.000369825
50 *519:14 *694:14 0.000366675
51 *553:10 *4531:RESET_B 9.56872e-05
*RES
1 *4712:X *694:10 23.7821 
2 *694:10 *694:12 2.85714 
3 *694:12 *694:14 5.58929 
4 *694:14 *4531:RESET_B 14.3393 
5 *694:14 *4401:RESET_B 4.5 
6 *694:12 *4406:RESET_B 5.40179 
7 *694:10 *4414:RESET_B 4.5 
8 *4531:RESET_B *694:53 7.99107 
9 *694:53 *4532:RESET_B 7.13393 
10 *694:53 *4552:RESET_B 9.15179 
11 *4414:RESET_B *4451:SET_B 11.6964 
12 *4451:SET_B *4424:RESET_B 17.3393 
*END

*D_NET *695 0.00631387
*CONN
*I *4453:RESET_B I *D sky130_fd_sc_hd__dfrtp_2
*I *4551:RESET_B I *D sky130_fd_sc_hd__dfrtp_2
*I *4550:RESET_B I *D sky130_fd_sc_hd__dfrtp_2
*I *4452:RESET_B I *D sky130_fd_sc_hd__dfrtp_2
*I *4713:X O *D sky130_fd_sc_hd__clkdlybuf4s25_1
*CAP
1 *4453:RESET_B 0.000235481
2 *4551:RESET_B 0.000115129
3 *4550:RESET_B 0.000100975
4 *4452:RESET_B 0.000130291
5 *4713:X 0.000282005
6 *695:26 0.000643185
7 *695:14 0.000907689
8 *695:8 0.000867803
9 *4452:RESET_B *4713:A 4.34077e-05
10 *4452:RESET_B *4760:A 0.000310236
11 *4452:RESET_B *743:10 8.84327e-05
12 *4453:RESET_B *713:37 0.000168919
13 *4453:RESET_B *744:34 9.30093e-05
14 *4453:RESET_B *746:8 0.000133233
15 *4551:RESET_B *839:8 2.89016e-05
16 *695:8 *4713:A 5.52302e-05
17 *695:14 *4713:A 1.39711e-05
18 *695:14 *4760:A 5.33005e-05
19 *695:14 *744:34 0.000340147
20 *695:26 *3927:B 0.000357523
21 *695:26 *4760:A 0.000193424
22 *695:26 *4793:A 7.65336e-06
23 *4204:A2 *4550:RESET_B 8.86354e-05
24 *4204:A2 *695:26 5.16583e-05
25 *4204:B1 *695:26 0.000220448
26 *4205:C1 *4550:RESET_B 8.08277e-05
27 *4205:C1 *695:26 4.03049e-05
28 *4358:A1 *695:14 2.49484e-05
29 *4358:B2 *695:26 7.64282e-05
30 *4424:RESET_B *4452:RESET_B 0.000351985
31 *4424:RESET_B *695:14 3.46453e-05
32 *4629:A *695:26 0
33 *4743:A *695:26 0.000150618
34 *241:40 *4550:RESET_B 4.1331e-06
35 *480:31 *695:8 1.92905e-05
36 *480:31 *695:14 0
*RES
1 *4713:X *695:8 17.2107 
2 *695:8 *695:14 11.4821 
3 *695:14 *4452:RESET_B 5.00893 
4 *695:14 *695:26 16.4643 
5 *695:26 *4550:RESET_B 7.66071 
6 *695:26 *4551:RESET_B 6.20536 
7 *695:8 *4453:RESET_B 9.1875 
*END

*D_NET *696 0.0137619
*CONN
*I *4548:RESET_B I *D sky130_fd_sc_hd__dfrtp_2
*I *4549:RESET_B I *D sky130_fd_sc_hd__dfrtp_2
*I *4712:A I *D sky130_fd_sc_hd__clkdlybuf4s25_1
*I *4713:A I *D sky130_fd_sc_hd__clkdlybuf4s25_1
*I *4547:RESET_B I *D sky130_fd_sc_hd__dfrtp_2
*I *4711:A I *D sky130_fd_sc_hd__clkdlybuf4s25_1
*I *4714:X O *D sky130_fd_sc_hd__clkdlybuf4s25_1
*CAP
1 *4548:RESET_B 0
2 *4549:RESET_B 0.000174279
3 *4712:A 0.000264653
4 *4713:A 0.00145126
5 *4547:RESET_B 0.000737732
6 *4711:A 0
7 *4714:X 0.00078526
8 *696:81 0.000376708
9 *696:16 0.00151844
10 *696:10 0.00295501
11 *4547:RESET_B *834:6 9.49958e-05
12 *4549:RESET_B *4025:A 0
13 *4549:RESET_B *836:6 7.43578e-06
14 *4713:A *3927:B 4.80522e-05
15 *4713:A *4760:A 0.000101545
16 *4713:A *4790:A 0.000257619
17 *4713:A *743:10 4.17437e-05
18 *4713:A *746:10 1.19402e-05
19 *696:10 *3945:A1 0.000229456
20 *696:10 *4357:A 0
21 *696:10 *4714:A 1.98839e-05
22 *696:10 *743:10 0
23 *696:16 *4015:D 0.000131481
24 *696:16 *4531:D 0
25 *696:16 *4552:D 0.000344925
26 *696:16 *838:8 4.25809e-05
27 *696:16 *838:12 5.85228e-05
28 *696:81 *4025:A 0.000103313
29 *696:81 *4547:D 0
30 *696:81 *834:23 2.1527e-05
31 *3923:A2 *696:10 0.000384447
32 *3923:A2 *696:16 0.000125316
33 *3925:B1 *4712:A 0.000392276
34 *3928:A_N *696:10 0.000100823
35 *3929:C1 *4713:A 6.73939e-05
36 *3945:A3 *696:10 0.000244529
37 *4195:B *696:81 0.000282127
38 *4201:B1 *696:16 0
39 *4202:B *4549:RESET_B 5.93614e-05
40 *4202:B *696:81 2.95565e-05
41 *4206:A1 *696:16 0.000277105
42 *4358:A2 *4713:A 0.000218734
43 *4414:CLK *696:16 0.000103142
44 *4424:RESET_B *4713:A 0.000349504
45 *4452:CLK *4713:A 4.70078e-05
46 *4452:D *4713:A 5.71472e-05
47 *4452:RESET_B *4713:A 4.34077e-05
48 *154:16 *696:10 0
49 *154:16 *696:16 0
50 *449:13 *4712:A 0
51 *449:222 *4712:A 5.0725e-05
52 *449:300 *696:16 0
53 *475:8 *696:16 0.00023008
54 *475:65 *696:16 9.56968e-05
55 *476:70 *4713:A 0.000175892
56 *654:10 *696:16 0
57 *655:32 *4547:RESET_B 6.62752e-05
58 *655:32 *696:16 5.41609e-05
59 *694:10 *4712:A 0.000459677
60 *695:8 *4713:A 5.52302e-05
61 *695:14 *4713:A 1.39711e-05
*RES
1 *4714:X *696:10 23.8357 
2 *696:10 *696:16 29.6607 
3 *696:16 *4711:A 9.3 
4 *696:16 *4547:RESET_B 9.50893 
5 *696:10 *4713:A 45.6036 
6 *4714:X *4712:A 35.7607 
7 *4547:RESET_B *696:81 10.0179 
8 *696:81 *4549:RESET_B 7.4375 
9 *696:81 *4548:RESET_B 4.5 
*END

*D_NET *697 0.0056934
*CONN
*I *4558:RESET_B I *D sky130_fd_sc_hd__dfrtp_2
*I *4557:RESET_B I *D sky130_fd_sc_hd__dfrtp_2
*I *4573:RESET_B I *D sky130_fd_sc_hd__dfrtp_2
*I *4574:RESET_B I *D sky130_fd_sc_hd__dfrtp_2
*I *4553:RESET_B I *D sky130_fd_sc_hd__dfrtp_2
*I *4554:RESET_B I *D sky130_fd_sc_hd__dfrtp_2
*I *4556:RESET_B I *D sky130_fd_sc_hd__dfrtp_2
*I *4555:RESET_B I *D sky130_fd_sc_hd__dfrtp_2
*I *4715:X O *D sky130_fd_sc_hd__clkdlybuf4s25_1
*CAP
1 *4558:RESET_B 0.000273723
2 *4557:RESET_B 0.000666385
3 *4573:RESET_B 0
4 *4574:RESET_B 0
5 *4553:RESET_B 0
6 *4554:RESET_B 0
7 *4556:RESET_B 0.000392662
8 *4555:RESET_B 0.00011551
9 *4715:X 0.000129675
10 *697:22 0.00055693
11 *697:20 0.000717528
12 *697:18 0.000609096
13 *697:12 0.000561752
14 *697:10 0.000358439
15 *4555:RESET_B *796:12 3.37618e-05
16 *4557:RESET_B *4597:A 0.000315806
17 *4557:RESET_B *797:10 3.45253e-05
18 *697:20 *711:23 0
19 *697:20 *782:10 0
20 *697:20 *782:12 0
21 *697:22 *4031:B 2.20111e-05
22 *697:22 *4101:A3 9.04756e-05
23 *697:22 *4101:B1 7.14533e-05
24 *697:22 *4554:D 0
25 *697:22 *711:23 0
26 *697:22 *782:12 0
27 *697:22 *782:14 0
28 *697:22 *793:18 7.32366e-05
29 *697:22 *796:12 3.56785e-05
30 *697:22 *797:10 7.09043e-05
31 *4042:D *697:10 5.52302e-05
32 *4147:B1 *697:10 7.83659e-05
33 *4557:CLK *4557:RESET_B 0.000102659
34 *4631:A *697:12 0.000137699
35 *4631:A *697:18 7.83366e-05
36 *451:8 *697:10 5.06044e-05
37 *451:8 *697:12 6.09572e-05
38 *478:10 *697:18 0
39 *478:12 *697:18 0
40 *478:12 *697:20 0
41 *531:22 *697:12 0
42 *531:22 *697:18 0
43 *531:22 *697:20 0
44 *531:32 *697:10 0
45 *531:32 *697:12 0
*RES
1 *4715:X *697:10 16.5857 
2 *697:10 *697:12 4.98214 
3 *697:12 *697:18 6.05357 
4 *697:18 *697:20 4.98214 
5 *697:20 *697:22 9.83929 
6 *697:22 *4555:RESET_B 6.61607 
7 *697:22 *4556:RESET_B 4.5 
8 *697:20 *4554:RESET_B 4.5 
9 *697:18 *4553:RESET_B 4.5 
10 *697:12 *4574:RESET_B 4.5 
11 *697:10 *4573:RESET_B 4.5 
12 *4556:RESET_B *4557:RESET_B 8.21429 
13 *4557:RESET_B *4558:RESET_B 13.6786 
*END

*D_NET *698 0.00397136
*CONN
*I *4561:RESET_B I *D sky130_fd_sc_hd__dfrtp_2
*I *4560:RESET_B I *D sky130_fd_sc_hd__dfrtp_2
*I *4559:RESET_B I *D sky130_fd_sc_hd__dfrtp_2
*I *4562:RESET_B I *D sky130_fd_sc_hd__dfrtp_2
*I *4716:X O *D sky130_fd_sc_hd__clkdlybuf4s25_1
*CAP
1 *4561:RESET_B 0.000102484
2 *4560:RESET_B 6.95948e-05
3 *4559:RESET_B 0.000397598
4 *4562:RESET_B 0.000444993
5 *4716:X 0.000327363
6 *698:25 0.000550557
7 *698:23 0.000303477
8 *4559:RESET_B *801:19 1.17968e-05
9 *4560:RESET_B *4034:A 1.98839e-05
10 *4561:RESET_B *4035:B 2.14658e-05
11 *4561:RESET_B *802:10 7.16452e-05
12 *698:23 *4035:C 0
13 *698:23 *4117:A1 0.000116183
14 *698:25 *4117:A1 2.61337e-05
15 *698:25 *801:19 5.74562e-05
16 *4110:B *4559:RESET_B 0.000127852
17 *4117:A3 *4561:RESET_B 0.000137983
18 *247:12 *4559:RESET_B 0
19 *247:16 *4559:RESET_B 0.000201127
20 *247:31 *4559:RESET_B 0.000223592
21 *247:31 *4560:RESET_B 5.33005e-05
22 *247:37 *4559:RESET_B 3.17148e-05
23 *247:37 *698:25 0.000146474
24 *248:8 *4560:RESET_B 0.000220865
25 *249:8 *4562:RESET_B 0.000153054
26 *249:17 *4562:RESET_B 0.000154762
*RES
1 *4716:X *4562:RESET_B 24.5946 
2 *4562:RESET_B *698:23 7.35714 
3 *698:23 *698:25 2.25 
4 *698:25 *4559:RESET_B 14.3393 
5 *698:25 *4560:RESET_B 6.61607 
6 *698:23 *4561:RESET_B 7.04464 
*END

*D_NET *699 0.0113458
*CONN
*I *4479:RESET_B I *D sky130_fd_sc_hd__dfrtp_2
*I *4477:RESET_B I *D sky130_fd_sc_hd__dfrtp_2
*I *4567:RESET_B I *D sky130_fd_sc_hd__dfrtp_2
*I *4570:RESET_B I *D sky130_fd_sc_hd__dfrtp_2
*I *4563:RESET_B I *D sky130_fd_sc_hd__dfrtp_2
*I *4571:RESET_B I *D sky130_fd_sc_hd__dfrtp_2
*I *4572:RESET_B I *D sky130_fd_sc_hd__dfrtp_2
*I *4569:RESET_B I *D sky130_fd_sc_hd__dfrtp_2
*I *4717:X O *D sky130_fd_sc_hd__clkdlybuf4s25_1
*CAP
1 *4479:RESET_B 0.000220043
2 *4477:RESET_B 0.00123725
3 *4567:RESET_B 0.00114017
4 *4570:RESET_B 0.000238913
5 *4563:RESET_B 0.00072927
6 *4571:RESET_B 0.000132973
7 *4572:RESET_B 0.000215314
8 *4569:RESET_B 0.000153703
9 *4717:X 0
10 *699:26 0.000404068
11 *699:24 0.000867532
12 *699:22 0.000833549
13 *699:16 0.000746458
14 *699:4 0.000265042
15 *4477:RESET_B *4132:A1 0
16 *4477:RESET_B *4477:D 7.77652e-05
17 *4477:RESET_B *4718:A 0.000460868
18 *4477:RESET_B *787:8 5.76121e-05
19 *4479:RESET_B *998:8 0.000179656
20 *4563:RESET_B *4144:A1 0.000184745
21 *4567:RESET_B *4132:A1 0.000133447
22 *4569:RESET_B *789:10 1.40306e-05
23 *4571:RESET_B *791:14 5.52302e-05
24 *4572:RESET_B *4572:D 0
25 *4572:RESET_B *720:26 0
26 *4572:RESET_B *791:14 9.25014e-06
27 *699:22 *4040:B 0
28 *699:22 *4040:C 0
29 *699:22 *4132:A1 2.8833e-05
30 *699:22 *789:10 0
31 *699:22 *791:14 0.000406212
32 *699:24 *720:43 0
33 *699:24 *791:14 0.000215056
34 *699:26 *720:26 0
35 *699:26 *791:14 9.40095e-05
36 *4076:A *4479:RESET_B 0
37 *4130:A2 *4477:RESET_B 2.58997e-05
38 *4146:A2 *699:22 5.07157e-05
39 *4146:A2 *699:24 6.58195e-05
40 *4477:CLK *4477:RESET_B 0.000140933
41 *4568:CLK *4477:RESET_B 0.000264678
42 *4572:CLK *4563:RESET_B 0.00049041
43 *451:8 *4572:RESET_B 0.000151949
44 *531:32 *4572:RESET_B 0
45 *531:46 *4570:RESET_B 0.000170955
46 *531:46 *4571:RESET_B 0.000137983
47 *659:21 *4567:RESET_B 0.000358139
48 *659:21 *699:16 5.33005e-05
49 *659:21 *699:22 3.17148e-05
50 *659:27 *699:22 0.000302316
51 *660:12 *699:22 0
*RES
1 *4717:X *699:4 9.3 
2 *699:4 *4569:RESET_B 2.54464 
3 *699:4 *699:16 5.85714 
4 *699:16 *699:22 12.2321 
5 *699:22 *699:24 2.85714 
6 *699:24 *699:26 1.33929 
7 *699:26 *4572:RESET_B 8.26786 
8 *699:26 *4571:RESET_B 7.04464 
9 *699:24 *4563:RESET_B 17.1696 
10 *699:22 *4570:RESET_B 9.09821 
11 *699:16 *4567:RESET_B 9.17857 
12 *4567:RESET_B *4477:RESET_B 28.6786 
13 *4477:RESET_B *4479:RESET_B 13.4554 
*END

*D_NET *700 0.000912027
*CONN
*I *4857:A I *D sky130_fd_sc_hd__clkdlybuf4s25_1
*I *3871:X O *D sky130_fd_sc_hd__a21o_2
*CAP
1 *4857:A 0.000303581
2 *3871:X 0.000303581
3 *4857:A *3884:A 5.71472e-05
4 *3884:B *4857:A 0.000192489
5 *123:10 *4857:A 5.52302e-05
*RES
1 *3871:X *4857:A 24.9036 
*END

*D_NET *701 0.0051819
*CONN
*I *4565:RESET_B I *D sky130_fd_sc_hd__dfrtp_2
*I *4564:RESET_B I *D sky130_fd_sc_hd__dfrtp_2
*I *4568:RESET_B I *D sky130_fd_sc_hd__dfrtp_2
*I *4566:RESET_B I *D sky130_fd_sc_hd__dfrtp_2
*I *4718:X O *D sky130_fd_sc_hd__clkdlybuf4s25_1
*CAP
1 *4565:RESET_B 0.000126047
2 *4564:RESET_B 0.000215936
3 *4568:RESET_B 0.000706224
4 *4566:RESET_B 0.000581157
5 *4718:X 0.000255197
6 *701:37 0.000722246
7 *4564:RESET_B *784:26 4.48206e-05
8 *4568:RESET_B *4039:A 0.000221634
9 *4568:RESET_B *4039:C 0.000128146
10 *4568:RESET_B *4477:D 3.92262e-05
11 *4568:RESET_B *786:8 6.34478e-05
12 *701:37 *4565:D 0
13 *4039:D *701:37 7.83366e-05
14 *4076:A *701:37 0.000227014
15 *4076:B *4568:RESET_B 0
16 *4076:B *701:37 0.000122942
17 *4121:B *4564:RESET_B 0
18 *4126:B *4565:RESET_B 0.000477857
19 *4127:A2 *4564:RESET_B 0
20 *4127:A2 *4565:RESET_B 4.97621e-05
21 *4127:A2 *701:37 0
22 *4129:B *4566:RESET_B 0.000362524
23 *4134:A *4568:RESET_B 7.17509e-05
24 *4134:B *4566:RESET_B 9.91086e-05
25 *4135:A2 *4566:RESET_B 0
26 *4633:A *4566:RESET_B 5.33005e-05
27 *251:10 *4564:RESET_B 0.000197787
28 *251:19 *4564:RESET_B 1.99099e-05
29 *251:19 *701:37 6.1684e-05
30 *251:32 *701:37 0.000118339
31 *253:12 *4568:RESET_B 2.88424e-05
32 *253:12 *701:37 0
33 *481:12 *4564:RESET_B 2.19684e-05
34 *481:12 *701:37 3.2534e-05
35 *481:18 *4565:RESET_B 5.41609e-05
*RES
1 *4718:X *4566:RESET_B 23.5143 
2 *4566:RESET_B *4568:RESET_B 16.2232 
3 *4568:RESET_B *701:37 14.0357 
4 *701:37 *4564:RESET_B 9.48214 
5 *701:37 *4565:RESET_B 9.08036 
*END

*D_NET *702 0.00912359
*CONN
*I *4718:A I *D sky130_fd_sc_hd__clkdlybuf4s25_1
*I *4716:A I *D sky130_fd_sc_hd__clkdlybuf4s25_1
*I *4715:A I *D sky130_fd_sc_hd__clkdlybuf4s25_1
*I *4717:A I *D sky130_fd_sc_hd__clkdlybuf4s25_1
*I *4719:X O *D sky130_fd_sc_hd__clkdlybuf4s25_1
*CAP
1 *4718:A 0.000331367
2 *4716:A 0.00099613
3 *4715:A 7.95802e-06
4 *4717:A 8.95217e-05
5 *4719:X 0.000174859
6 *702:27 0.00174811
7 *702:21 0.00127116
8 *702:6 0.000460146
9 *4716:A *4117:A1 5.7836e-06
10 *4717:A *4132:A1 0.000247778
11 *4717:A *4566:D 4.29272e-05
12 *4718:A *4132:A1 0
13 *702:27 *4038:A 0
14 *702:27 *4566:D 6.65302e-05
15 *702:27 *4572:D 0.000304896
16 *702:27 *720:43 0
17 *702:27 *720:61 0.000264966
18 *4130:A2 *4718:A 0.000315887
19 *4130:A2 *702:27 0.000250193
20 *4477:CLK *4718:A 5.52302e-05
21 *4477:RESET_B *4718:A 0.000460868
22 *4566:CLK *702:6 0.000114577
23 *4572:CLK *702:27 0.000366682
24 *4633:A *4718:A 0.000480556
25 *253:46 *702:27 0.000100913
26 *253:52 *702:27 0.000488067
27 *253:56 *4715:A 9.59532e-06
28 *253:56 *702:27 9.29686e-05
29 *531:32 *4715:A 2.21972e-05
30 *531:32 *702:27 0.000320298
31 *659:27 *4717:A 3.34295e-05
32 *659:27 *702:27 0
*RES
1 *4719:X *702:6 11.4786 
2 *702:6 *4717:A 21.4607 
3 *702:6 *702:21 6.67857 
4 *702:21 *702:27 23.5089 
5 *702:27 *4715:A 14.0768 
6 *702:27 *4716:A 23.5382 
7 *702:21 *4718:A 24.1571 
*END

*D_NET *703 0.0092661
*CONN
*I *4400:RESET_B I *D sky130_fd_sc_hd__dfrtp_2
*I *4402:RESET_B I *D sky130_fd_sc_hd__dfrtp_2
*I *4410:RESET_B I *D sky130_fd_sc_hd__dfrtp_2
*I *4407:RESET_B I *D sky130_fd_sc_hd__dfrtp_2
*I *4427:RESET_B I *D sky130_fd_sc_hd__dfrtp_2
*I *4426:RESET_B I *D sky130_fd_sc_hd__dfrtp_2
*I *4411:RESET_B I *D sky130_fd_sc_hd__dfrtp_2
*I *4403:RESET_B I *D sky130_fd_sc_hd__dfrtp_2
*I *4720:X O *D sky130_fd_sc_hd__clkdlybuf4s25_1
*CAP
1 *4400:RESET_B 0.00050411
2 *4402:RESET_B 1.91209e-05
3 *4410:RESET_B 0.000605227
4 *4407:RESET_B 0.000301306
5 *4427:RESET_B 0.000362887
6 *4426:RESET_B 0
7 *4411:RESET_B 3.2038e-05
8 *4403:RESET_B 0.000957021
9 *4720:X 0
10 *703:90 0.000769708
11 *703:25 0.000466521
12 *703:8 0.000408795
13 *703:6 0.000183426
14 *4400:RESET_B *3855:A 4.85984e-05
15 *4410:RESET_B *3859:A 1.00375e-05
16 *703:90 *713:12 0.000218734
17 *3858:B *4410:RESET_B 0.000125731
18 *3859:B *4403:RESET_B 0
19 *3859:B *4410:RESET_B 0
20 *3921:B1 *703:90 0.000220455
21 *3925:A2 *4410:RESET_B 1.91418e-05
22 *3925:B1 *4410:RESET_B 0.000130274
23 *3938:A2 *4403:RESET_B 4.43698e-05
24 *3938:A2 *4410:RESET_B 0
25 *3938:B1 *4403:RESET_B 0.00035375
26 *3938:B1 *703:8 7.11068e-05
27 *3941:A *703:90 5.03485e-05
28 *3945:A2 *4410:RESET_B 0
29 *3949:B1 *4427:RESET_B 0.000126141
30 *3950:A1 *4410:RESET_B 0
31 *3950:A2 *4400:RESET_B 0.000269729
32 *3950:A2 *4402:RESET_B 0
33 *3950:A2 *703:90 0.000180777
34 *4361:A0 *4403:RESET_B 0
35 *4365:A2 *703:8 2.45881e-05
36 *4365:A2 *703:25 4.41329e-06
37 *4402:CLK *4400:RESET_B 0.000312775
38 *4403:D *4407:RESET_B 1.02504e-05
39 *4410:CLK *4407:RESET_B 0
40 *4410:D *4410:RESET_B 6.42338e-05
41 *4415:CLK *4410:RESET_B 0.000112152
42 *4427:D *4427:RESET_B 9.84729e-05
43 *4744:A *4403:RESET_B 0
44 *4757:A *4427:RESET_B 5.54817e-06
45 *4757:A *703:8 3.41848e-05
46 *4757:A *703:25 0.000118563
47 *90:10 *4400:RESET_B 0.000736836
48 *102:10 *4400:RESET_B 5.28656e-05
49 *102:34 *4400:RESET_B 0.000395471
50 *165:6 *4411:RESET_B 1.21258e-05
51 *165:8 *4411:RESET_B 1.60121e-05
52 *171:20 *4427:RESET_B 0.000140822
53 *171:20 *703:25 0.000215246
54 *449:13 *4407:RESET_B 0.000148851
55 *482:10 *4407:RESET_B 0
56 *482:12 *4407:RESET_B 0
57 *524:8 *703:90 9.41642e-05
58 *526:14 *4403:RESET_B 4.58402e-05
59 *526:14 *703:8 5.40835e-05
60 *527:21 *4403:RESET_B 0
61 *541:10 *4411:RESET_B 8.92486e-05
*RES
1 *4720:X *703:6 13.8 
2 *703:6 *703:8 2.25 
3 *703:8 *4403:RESET_B 11 
4 *703:8 *4411:RESET_B 5.38393 
5 *703:6 *703:25 3.16071 
6 *703:25 *4426:RESET_B 4.5 
7 *703:25 *4427:RESET_B 11.4554 
8 *4403:RESET_B *4407:RESET_B 14.7054 
9 *4403:RESET_B *4410:RESET_B 17.4911 
10 *4410:RESET_B *703:90 15.3304 
11 *703:90 *4402:RESET_B 0.366071 
12 *703:90 *4400:RESET_B 15.7411 
*END

*D_NET *704 0.0043737
*CONN
*I *4408:RESET_B I *D sky130_fd_sc_hd__dfrtp_2
*I *4415:RESET_B I *D sky130_fd_sc_hd__dfrtp_2
*I *4405:RESET_B I *D sky130_fd_sc_hd__dfrtp_2
*I *4413:RESET_B I *D sky130_fd_sc_hd__dfrtp_2
*I *4721:X O *D sky130_fd_sc_hd__clkdlybuf4s25_1
*CAP
1 *4408:RESET_B 0.000503794
2 *4415:RESET_B 0.00049741
3 *4405:RESET_B 0
4 *4413:RESET_B 0.00120281
5 *4721:X 0.000186325
6 *704:12 0.000387928
7 *4415:RESET_B *713:12 0
8 *704:12 *4721:A 2.84125e-05
9 *4413:CLK *4408:RESET_B 5.33005e-05
10 *4413:D *4408:RESET_B 0.000101859
11 *4413:D *4413:RESET_B 5.30555e-05
12 *453:8 *4415:RESET_B 0.000131261
13 *483:34 *4408:RESET_B 0.000141635
14 *498:14 *4415:RESET_B 9.42205e-05
15 *520:12 *4415:RESET_B 7.89362e-05
16 *521:10 *4415:RESET_B 0.000101915
17 *521:18 *4415:RESET_B 0.000283949
18 *521:22 *4415:RESET_B 0.000376277
19 *521:32 *4415:RESET_B 0.000150618
*RES
1 *4721:X *704:12 16.8179 
2 *704:12 *4413:RESET_B 8.625 
3 *704:12 *4405:RESET_B 4.5 
4 *4413:RESET_B *4415:RESET_B 22.0625 
5 *4413:RESET_B *4408:RESET_B 8.08929 
*END

*D_NET *705 0.0064508
*CONN
*I *4441:RESET_B I *D sky130_fd_sc_hd__dfrtp_2
*I *4442:RESET_B I *D sky130_fd_sc_hd__dfrtp_2
*I *4593:RESET_B I *D sky130_fd_sc_hd__dfrtp_2
*I *4592:RESET_B I *D sky130_fd_sc_hd__dfrtp_2
*I *4440:RESET_B I *D sky130_fd_sc_hd__dfrtp_2
*I *4591:RESET_B I *D sky130_fd_sc_hd__dfrtp_2
*I *4590:RESET_B I *D sky130_fd_sc_hd__dfrtp_2
*I *4589:RESET_B I *D sky130_fd_sc_hd__dfrtp_2
*I *4722:X O *D sky130_fd_sc_hd__clkdlybuf4s25_1
*CAP
1 *4441:RESET_B 0.000125068
2 *4442:RESET_B 8.0663e-05
3 *4593:RESET_B 0.000185181
4 *4592:RESET_B 3.59957e-05
5 *4440:RESET_B 0.000487173
6 *4591:RESET_B 0.000902486
7 *4590:RESET_B 0.000380683
8 *4589:RESET_B 4.71781e-05
9 *4722:X 0.000174702
10 *705:75 0.00031222
11 *705:52 0.000598953
12 *705:20 0.000704286
13 *705:10 0.000401457
14 *4442:RESET_B *3885:A 0.00022287
15 *4589:RESET_B *967:8 4.96155e-05
16 *4591:RESET_B *3969:B 0
17 *4593:RESET_B *3955:A 0
18 *4593:RESET_B *4342:A1 0
19 *4593:RESET_B *4593:D 0
20 *705:10 *713:46 0
21 *705:10 *967:10 0
22 *705:20 *3969:B 0
23 *705:20 *4812:A 0
24 *705:20 *713:46 0
25 *705:52 *4342:A1 0
26 *705:52 *4591:D 0
27 *705:52 *4593:D 0
28 *705:52 *4805:A 0.000153047
29 *705:75 *1008:6 9.60875e-05
30 *4336:B1 *705:10 0
31 *4338:A *705:52 5.33978e-05
32 *4339:A2 *4591:RESET_B 0.000227736
33 *4339:B1 *4591:RESET_B 0
34 *4339:B1 *705:52 0
35 *4340:A *4593:RESET_B 0
36 *4343:A1 *705:52 0.00012501
37 *4392:A1 *4441:RESET_B 0
38 *4392:B1 *4442:RESET_B 0.000175505
39 *4394:A2 *4441:RESET_B 0.00013966
40 *4394:A2 *4442:RESET_B 7.90803e-05
41 *4394:B1 *705:75 0.000180496
42 *4440:CLK *4440:RESET_B 0.000391449
43 *4440:D *4440:RESET_B 0.000120802
44 *189:10 *4591:RESET_B 0
45 *648:10 *4591:RESET_B 0
46 *648:18 *4591:RESET_B 0
47 *648:18 *705:10 0
48 *648:18 *705:20 0
*RES
1 *4722:X *705:10 16.6929 
2 *705:10 *4589:RESET_B 5.38393 
3 *705:10 *705:20 3.16071 
4 *705:20 *4590:RESET_B 4.5 
5 *705:20 *4591:RESET_B 14.6429 
6 *4590:RESET_B *4440:RESET_B 6.98214 
7 *4591:RESET_B *705:52 11.8839 
8 *705:52 *4592:RESET_B 4.97321 
9 *705:52 *4593:RESET_B 7.96429 
10 *4440:RESET_B *705:75 7.02679 
11 *705:75 *4442:RESET_B 7.66071 
12 *705:75 *4441:RESET_B 6.91964 
*END

*D_NET *706 0.0109874
*CONN
*I *4595:RESET_B I *D sky130_fd_sc_hd__dfrtp_2
*I *4594:RESET_B I *D sky130_fd_sc_hd__dfrtp_2
*I *4596:RESET_B I *D sky130_fd_sc_hd__dfrtp_2
*I *4722:A I *D sky130_fd_sc_hd__clkdlybuf4s25_1
*I *4721:A I *D sky130_fd_sc_hd__clkdlybuf4s25_1
*I *4720:A I *D sky130_fd_sc_hd__clkdlybuf4s25_1
*I *4723:X O *D sky130_fd_sc_hd__clkdlybuf4s25_1
*CAP
1 *4595:RESET_B 0.000244846
2 *4594:RESET_B 0.000141841
3 *4596:RESET_B 0.00135105
4 *4722:A 8.29961e-05
5 *4721:A 0.000782681
6 *4720:A 0.000281333
7 *4723:X 0.000328046
8 *706:16 0.00150479
9 *706:10 0.000838042
10 *706:8 0.00160667
11 *4595:RESET_B *3974:A 0
12 *4595:RESET_B *4781:A 0
13 *4595:RESET_B *974:8 4.70821e-05
14 *4596:RESET_B *3969:B 6.79735e-05
15 *4596:RESET_B *4346:B1 3.27526e-05
16 *4596:RESET_B *4723:A 1.08359e-05
17 *4720:A *713:12 0.000482362
18 *4720:A *984:8 0.000291009
19 *4722:A *713:6 4.58194e-05
20 *4722:A *713:12 6.05161e-06
21 *706:8 *4723:A 0.0001399
22 *706:10 *4723:A 0.000150857
23 *706:10 *713:46 0.000128941
24 *706:10 *714:69 2.41865e-05
25 *706:16 *713:12 0.000178531
26 *706:16 *714:69 0.00034321
27 *3974:B *4595:RESET_B 0.000134738
28 *3974:B *4596:RESET_B 0.000128161
29 *4348:A *4595:RESET_B 0.000123295
30 *4441:D *4596:RESET_B 0
31 *4638:A *4596:RESET_B 3.57405e-05
32 *4670:A *4596:RESET_B 5.83304e-05
33 *4671:A *4594:RESET_B 0.000107576
34 *4671:A *4596:RESET_B 3.00989e-05
35 *171:10 *4720:A 0.000260357
36 *189:10 *4596:RESET_B 0.000103041
37 *191:10 *4595:RESET_B 1.18064e-05
38 *449:125 *4721:A 0.000114753
39 *449:129 *4721:A 4.45114e-05
40 *485:10 *4596:RESET_B 1.40415e-05
41 *485:42 *4596:RESET_B 0.000230201
42 *521:66 *4720:A 0.000441008
43 *582:8 *4595:RESET_B 9.51514e-06
44 *704:12 *4721:A 2.84125e-05
*RES
1 *4723:X *706:8 18.8536 
2 *706:8 *706:10 7.10714 
3 *706:10 *706:16 9.5 
4 *706:16 *4720:A 24.6571 
5 *706:16 *4721:A 23.6929 
6 *706:10 *4722:A 15.175 
7 *706:8 *4596:RESET_B 32.625 
8 *4596:RESET_B *4594:RESET_B 11.8571 
9 *4596:RESET_B *4595:RESET_B 14.4554 
*END

*D_NET *707 0.00829292
*CONN
*I *4480:RESET_B I *D sky130_fd_sc_hd__dfrtp_2
*I *4478:SET_B I *D sky130_fd_sc_hd__dfstp_2
*I *4404:RESET_B I *D sky130_fd_sc_hd__dfrtp_2
*I *4446:RESET_B I *D sky130_fd_sc_hd__dfrtp_2
*I *4412:RESET_B I *D sky130_fd_sc_hd__dfrtp_2
*I *4428:RESET_B I *D sky130_fd_sc_hd__dfrtp_2
*I *4429:RESET_B I *D sky130_fd_sc_hd__dfrtp_2
*I *4476:RESET_B I *D sky130_fd_sc_hd__dfrtp_2
*I *4724:X O *D sky130_fd_sc_hd__clkdlybuf4s25_1
*CAP
1 *4480:RESET_B 0.000417309
2 *4478:SET_B 0.00121692
3 *4404:RESET_B 0.000139343
4 *4446:RESET_B 0.000451602
5 *4412:RESET_B 0.000170922
6 *4428:RESET_B 8.08447e-05
7 *4429:RESET_B 0.000874484
8 *4476:RESET_B 0.000370942
9 *4724:X 3.92359e-05
10 *707:37 0.000932966
11 *707:12 0.000513835
12 *707:10 0.000548717
13 *707:8 0.000610191
14 *4428:RESET_B *985:8 6.3321e-05
15 *4476:RESET_B *4476:D 0
16 *4476:RESET_B *987:14 0
17 *4480:RESET_B *3878:B 3.67142e-05
18 *4480:RESET_B *4077:A1 0
19 *4480:RESET_B *4480:D 0
20 *4480:RESET_B *998:36 0
21 *4480:RESET_B *999:6 4.60179e-05
22 *707:12 *987:14 0
23 *3873:A1 *707:10 0
24 *3873:A1 *707:37 0
25 *4082:A1 *4480:RESET_B 0.000153054
26 *4366:A1 *4476:RESET_B 0
27 *4366:A2 *707:10 0
28 *4412:CLK *4446:RESET_B 4.88537e-05
29 *4412:CLK *707:37 1.6806e-05
30 *4412:D *707:37 0.000126416
31 *4428:CLK *4428:RESET_B 0.000261742
32 *4428:D *4476:RESET_B 0.000177941
33 *4428:D *707:12 0.000340073
34 *4429:CLK *4478:SET_B 0.000227322
35 *90:45 *707:10 0
36 *90:45 *707:12 0
37 *112:8 *707:8 5.52238e-05
38 *115:12 *4476:RESET_B 2.82057e-05
39 *115:12 *707:10 5.01213e-05
40 *115:12 *707:12 2.58997e-05
41 *272:12 *4480:RESET_B 0
42 *272:20 *4480:RESET_B 0
43 *483:34 *4446:RESET_B 3.2033e-05
44 *487:33 *4478:SET_B 0.000187309
45 *529:6 *4404:RESET_B 4.85567e-05
46 *665:14 *707:37 0
*RES
1 *4724:X *707:8 14.3357 
2 *707:8 *707:10 3.76786 
3 *707:10 *707:12 4.98214 
4 *707:12 *4476:RESET_B 9.48214 
5 *707:12 *4429:RESET_B 5.38393 
6 *707:10 *4428:RESET_B 7.02679 
7 *707:8 *707:37 6.19643 
8 *707:37 *4412:RESET_B 7.02679 
9 *707:37 *4446:RESET_B 10.5625 
10 *4476:RESET_B *4404:RESET_B 11.5893 
11 *4429:RESET_B *4478:SET_B 11.375 
12 *4478:SET_B *4480:RESET_B 16.5089 
*END

*D_NET *708 0.00530102
*CONN
*I *4483:RESET_B I *D sky130_fd_sc_hd__dfrtp_2
*I *4482:SET_B I *D sky130_fd_sc_hd__dfstp_2
*I *4484:SET_B I *D sky130_fd_sc_hd__dfstp_2
*I *4481:SET_B I *D sky130_fd_sc_hd__dfstp_2
*I *4725:X O *D sky130_fd_sc_hd__clkdlybuf4s25_1
*CAP
1 *4483:RESET_B 0.000198241
2 *4482:SET_B 0.00030311
3 *4484:SET_B 5.31456e-05
4 *4481:SET_B 0.000948839
5 *4725:X 0.000208136
6 *708:10 0.00070877
7 *4481:SET_B *1003:35 8.91963e-06
8 *4482:SET_B *4085:A1_N 2.81497e-05
9 *4482:SET_B *1003:6 5.49995e-05
10 *4482:SET_B *1003:35 7.79481e-05
11 *4483:RESET_B *3879:A 5.57914e-05
12 *4483:RESET_B *4750:A 3.03498e-05
13 *4483:RESET_B *1003:35 0
14 *708:10 *4485:SET_B 0.000100823
15 *708:10 *4486:RESET_B 9.25014e-06
16 *3880:D *4483:RESET_B 0.000272984
17 *4083:A *4483:RESET_B 0
18 *4087:A2 *4482:SET_B 0.000263791
19 *4090:A1 *4481:SET_B 7.74068e-05
20 *4090:A1 *4484:SET_B 5.33005e-05
21 *4092:A1 *708:10 3.30352e-05
22 *4092:A2 *4481:SET_B 0.000120368
23 *4092:A2 *708:10 0.000420776
24 *117:41 *4483:RESET_B 0.000154762
25 *119:10 *4481:SET_B 0.000335947
26 *119:10 *4483:RESET_B 4.83849e-05
27 *119:25 *4481:SET_B 0.000387072
28 *123:10 *4481:SET_B 3.17203e-05
29 *123:10 *708:10 0.000141988
30 *272:12 *4482:SET_B 0.000173015
*RES
1 *4725:X *708:10 19.8357 
2 *708:10 *4481:SET_B 15.8571 
3 *708:10 *4484:SET_B 5.38393 
4 *4481:SET_B *4482:SET_B 16.3393 
5 *4481:SET_B *4483:RESET_B 14.7589 
*END

*D_NET *709 0.00870318
*CONN
*I *4436:RESET_B I *D sky130_fd_sc_hd__dfrtp_2
*I *4435:RESET_B I *D sky130_fd_sc_hd__dfrtp_2
*I *4437:RESET_B I *D sky130_fd_sc_hd__dfrtp_2
*I *4438:RESET_B I *D sky130_fd_sc_hd__dfrtp_2
*I *4439:RESET_B I *D sky130_fd_sc_hd__dfrtp_2
*I *4445:RESET_B I *D sky130_fd_sc_hd__dfrtp_2
*I *4447:RESET_B I *D sky130_fd_sc_hd__dfrtp_2
*I *4443:RESET_B I *D sky130_fd_sc_hd__dfrtp_2
*I *4726:X O *D sky130_fd_sc_hd__clkdlybuf4s25_1
*CAP
1 *4436:RESET_B 0.000149978
2 *4435:RESET_B 0.00029219
3 *4437:RESET_B 0
4 *4438:RESET_B 0.000531509
5 *4439:RESET_B 0.000123992
6 *4445:RESET_B 0
7 *4447:RESET_B 5.37945e-05
8 *4443:RESET_B 7.58591e-05
9 *4726:X 1.03356e-05
10 *709:76 0.000529146
11 *709:69 0.000344329
12 *709:40 0.000624253
13 *709:33 0.000491734
14 *709:21 0.000907404
15 *709:6 0.000674172
16 *4436:RESET_B *4762:A 4.73656e-05
17 *4436:RESET_B *939:46 0.000100735
18 *4438:RESET_B *715:75 8.32242e-05
19 *709:21 *4726:A 2.87485e-05
20 *709:21 *712:23 0.00058065
21 *709:33 *3887:B2 0.000363252
22 *709:33 *715:10 9.40167e-05
23 *709:33 *715:75 0.00028903
24 *709:40 *715:75 0.000504613
25 *709:69 *4767:A 7.40992e-05
26 *709:69 *715:75 0
27 *709:76 *4762:A 7.83659e-05
28 *3887:B1 *709:33 0.000173255
29 *4383:B *709:69 0
30 *4383:B *709:76 0
31 *4384:B1 *4435:RESET_B 0.000142856
32 *4384:B1 *4436:RESET_B 0.000103358
33 *4390:A2 *709:40 0.000100831
34 *4398:B_N *709:33 5.59013e-05
35 *4399:A1 *4443:RESET_B 0.00010326
36 *4399:A1 *709:6 5.52238e-05
37 *4399:A1 *709:21 5.52302e-05
38 *4399:B1 *4443:RESET_B 0
39 *4438:CLK *4438:RESET_B 4.08637e-05
40 *4439:D *709:40 0.00010326
41 *123:88 *709:33 5.83304e-05
42 *123:88 *709:40 2.31791e-05
43 *125:10 *709:33 0.000104002
44 *125:12 *709:33 6.5185e-05
45 *449:177 *709:6 3.18676e-05
46 *449:177 *709:21 9.47613e-05
47 *489:10 *4438:RESET_B 0
48 *489:21 *4438:RESET_B 0.000202835
49 *489:21 *709:69 0
50 *489:27 *4438:RESET_B 0.000136182
51 *489:27 *709:69 0
52 *489:42 *709:69 0
53 *489:42 *709:76 0
*RES
1 *4726:X *709:6 9.83571 
2 *709:6 *4443:RESET_B 10.6429 
3 *709:6 *709:21 9.30357 
4 *709:21 *4447:RESET_B 0.901786 
5 *709:21 *709:33 14.0357 
6 *709:33 *4445:RESET_B 4.5 
7 *709:33 *709:40 6.5 
8 *709:40 *4439:RESET_B 6.20536 
9 *709:40 *4438:RESET_B 11.1518 
10 *4438:RESET_B *709:69 9.17857 
11 *709:69 *4437:RESET_B 4.5 
12 *709:69 *709:76 1.64286 
13 *709:76 *4435:RESET_B 8.8125 
14 *709:76 *4436:RESET_B 8.92857 
*END

*D_NET *710 0.00778178
*CONN
*I *4434:RESET_B I *D sky130_fd_sc_hd__dfrtp_2
*I *4433:RESET_B I *D sky130_fd_sc_hd__dfrtp_2
*I *4432:RESET_B I *D sky130_fd_sc_hd__dfrtp_2
*I *4431:RESET_B I *D sky130_fd_sc_hd__dfrtp_2
*I *4430:RESET_B I *D sky130_fd_sc_hd__dfrtp_2
*I *4486:RESET_B I *D sky130_fd_sc_hd__dfrtp_2
*I *4485:SET_B I *D sky130_fd_sc_hd__dfstp_2
*I *4444:SET_B I *D sky130_fd_sc_hd__dfstp_2
*I *4727:X O *D sky130_fd_sc_hd__clkdlybuf4s25_1
*CAP
1 *4434:RESET_B 0.000342841
2 *4433:RESET_B 0.000630557
3 *4432:RESET_B 0.000492388
4 *4431:RESET_B 0
5 *4430:RESET_B 0.000722277
6 *4486:RESET_B 0.000669528
7 *4485:SET_B 3.87786e-05
8 *4444:SET_B 2.80259e-05
9 *4727:X 0.000130673
10 *710:62 0.000393259
11 *710:26 0.000761229
12 *710:12 0.000745312
13 *4430:RESET_B *3871:A1 0
14 *4430:RESET_B *3884:A 8.49707e-05
15 *4430:RESET_B *1007:19 4.57445e-05
16 *4430:RESET_B *1012:12 0.000128161
17 *4432:RESET_B *4375:A 0.000179656
18 *4434:RESET_B *4378:A1 0
19 *4434:RESET_B *4379:A 0
20 *4434:RESET_B *4766:A 2.52688e-05
21 *710:26 *4485:D 0.000140933
22 *710:62 *1013:10 0
23 uart_tx *4430:RESET_B 0
24 *3891:A1 *710:12 4.89264e-05
25 *4091:B *710:26 6.87574e-05
26 *4092:A1 *710:26 1.74352e-05
27 *4092:A2 *4486:RESET_B 1.08359e-05
28 *4092:A2 *710:26 0.00018077
29 *4092:B1 *710:26 7.25614e-05
30 *4371:B *4430:RESET_B 0
31 *4371:B *710:62 9.10431e-06
32 *4374:A2 *4432:RESET_B 0
33 *4375:B *4432:RESET_B 0.00014209
34 *4375:B *710:62 0.000254337
35 *4376:A2 *4434:RESET_B 0.000175526
36 *4376:B1 *4432:RESET_B 4.79842e-05
37 *4376:B1 *4433:RESET_B 3.34295e-05
38 *4377:B *4434:RESET_B 0
39 *4378:A2 *4434:RESET_B 2.79092e-05
40 *4378:A3 *4434:RESET_B 3.57844e-05
41 *4433:CLK *4434:RESET_B 8.71192e-05
42 *4433:D *4434:RESET_B 0.000200413
43 *4856:A *4434:RESET_B 0
44 *123:10 *4430:RESET_B 0
45 *123:10 *4485:SET_B 0.000100823
46 *123:10 *4486:RESET_B 0.000288316
47 *270:23 *710:12 5.98225e-05
48 *486:10 *710:12 0
49 *486:49 *4444:SET_B 2.51837e-05
50 *486:49 *710:26 9.92409e-05
51 *650:51 *710:62 0.000125731
52 *708:10 *4485:SET_B 0.000100823
53 *708:10 *4486:RESET_B 9.25014e-06
*RES
1 *4727:X *710:12 20.7821 
2 *710:12 *4444:SET_B 0.473214 
3 *710:12 *710:26 13.8036 
4 *710:26 *4485:SET_B 5.83929 
5 *710:26 *4486:RESET_B 8.26786 
6 *4486:RESET_B *4430:RESET_B 20.0268 
7 *4430:RESET_B *710:62 9.48214 
8 *710:62 *4431:RESET_B 4.5 
9 *710:62 *4432:RESET_B 9.77679 
10 *4432:RESET_B *4433:RESET_B 13.5804 
11 *4433:RESET_B *4434:RESET_B 16.5714 
*END

*D_NET *711 0.00791176
*CONN
*I *4111:A1 I *D sky130_fd_sc_hd__o21ai_2
*I *4108:A1 I *D sky130_fd_sc_hd__o21ai_2
*I *4098:A1 I *D sky130_fd_sc_hd__o21ai_2
*I *4106:A1 I *D sky130_fd_sc_hd__o21ai_2
*I *4044:A I *D sky130_fd_sc_hd__inv_2
*I *4103:A1 I *D sky130_fd_sc_hd__o21ai_2
*I *4100:A1 I *D sky130_fd_sc_hd__o21ai_2
*I *4095:A2 I *D sky130_fd_sc_hd__o21ai_2
*I *4728:X O *D sky130_fd_sc_hd__clkdlybuf4s25_1
*CAP
1 *4111:A1 0.000266022
2 *4108:A1 0.000444555
3 *4098:A1 0
4 *4106:A1 0.000230962
5 *4044:A 0.00015179
6 *4103:A1 7.8139e-05
7 *4100:A1 5.59559e-05
8 *4095:A2 0.000328177
9 *4728:X 0
10 *711:55 0.000603437
11 *711:29 0.000322131
12 *711:27 0.000788356
13 *711:23 0.000473228
14 *711:4 0.000600303
15 *4106:A1 *4032:A 0.000100165
16 *4108:A1 *4032:A 0.000138053
17 *4108:A1 *4558:D 0.000152433
18 *4111:A1 *4559:D 5.71472e-05
19 *711:23 *4554:D 0.000127439
20 *711:23 *793:18 0
21 *711:27 *793:18 0
22 *711:29 *4555:D 5.50052e-05
23 *711:55 *4031:B 0.000224582
24 *711:55 *796:16 0.00022367
25 *4032:B *711:55 0.000174918
26 *4095:A1 *4095:A2 8.69745e-05
27 *4095:A1 *711:23 1.36635e-05
28 *4097:A *711:27 6.74127e-05
29 *4099:B *711:27 4.6845e-05
30 *4100:A2 *4100:A1 2.26669e-05
31 *4100:A2 *711:29 0.000226272
32 *4100:B1 *711:29 2.12647e-05
33 *4103:A2 *4103:A1 0.000150773
34 *4105:B *4108:A1 2.11693e-05
35 *4106:B1 *4108:A1 0.000365547
36 *4107:B *4108:A1 0.00010012
37 *4108:A2 *4108:A1 8.24725e-05
38 *4108:A2 *4111:A1 5.80706e-06
39 *4111:B1 *4111:A1 0.000274294
40 *4557:CLK *4108:A1 6.14702e-06
41 *245:8 *711:55 0.000141935
42 *246:8 *4106:A1 2.12733e-05
43 *246:8 *711:55 6.05161e-06
44 *478:12 *4095:A2 0
45 *478:12 *711:23 8.15843e-05
46 *478:16 *711:23 9.97744e-05
47 *478:16 *711:27 0.000204299
48 *479:33 *4111:A1 0
49 *657:31 *711:29 6.3629e-05
50 *657:31 *711:55 0.000205308
51 *697:20 *711:23 0
52 *697:22 *711:23 0
*RES
1 *4728:X *711:4 9.3 
2 *711:4 *4095:A2 23.6393 
3 *711:4 *711:23 10.2321 
4 *711:23 *711:27 9.78571 
5 *711:27 *711:29 3.82143 
6 *711:29 *4100:A1 10.2643 
7 *711:29 *4103:A1 20.2464 
8 *711:27 *711:55 10.125 
9 *711:55 *4044:A 20.8536 
10 *711:55 *4106:A1 10.6571 
11 *711:23 *4098:A1 13.8 
12 *4106:A1 *4108:A1 34.4929 
13 *4108:A1 *4111:A1 33.2607 
*END

*D_NET *712 0.00742428
*CONN
*I *4725:A I *D sky130_fd_sc_hd__clkdlybuf4s25_1
*I *4727:A I *D sky130_fd_sc_hd__clkdlybuf4s25_1
*I *4724:A I *D sky130_fd_sc_hd__clkdlybuf4s25_1
*I *4726:A I *D sky130_fd_sc_hd__clkdlybuf4s25_1
*I *4729:X O *D sky130_fd_sc_hd__clkdlybuf4s25_1
*CAP
1 *4725:A 0.000525021
2 *4727:A 1.35287e-05
3 *4724:A 0.000554178
4 *4726:A 2.11142e-05
5 *4729:X 0.000336356
6 *712:42 0.00137571
7 *712:23 0.00160395
8 *712:10 0.000570087
9 *4724:A *3887:B2 0.000217914
10 *4725:A *4485:D 4.06094e-05
11 *712:10 *3886:A 0.000125731
12 *712:10 *1011:10 0.000148911
13 *3887:A2 *4724:A 0.000169903
14 *3887:B1 *4724:A 0.000390114
15 *4399:A1 *712:10 0
16 *4445:CLK *712:10 0
17 *4446:D *4724:A 0.000194389
18 *4447:CLK *712:10 0
19 *4447:CLK *712:23 9.71197e-05
20 *4447:D *4724:A 1.67073e-05
21 *112:25 *4724:A 0.000148651
22 *114:8 *4724:A 0.00011441
23 *123:10 *4725:A 7.76316e-05
24 *449:177 *712:10 6.26559e-05
25 *486:10 *4727:A 1.01912e-05
26 *709:21 *4726:A 2.87485e-05
27 *709:21 *712:23 0.00058065
*RES
1 *4729:X *712:10 24.8 
2 *712:10 *4726:A 9.83571 
3 *712:10 *712:23 10.3929 
4 *712:23 *4724:A 29.4607 
5 *712:23 *712:42 5.54693 
6 *712:42 *4727:A 17.4868 
7 *712:42 *4725:A 20.22 
*END

*D_NET *713 0.017821
*CONN
*I *4723:A I *D sky130_fd_sc_hd__clkdlybuf4s25_1
*I *4729:A I *D sky130_fd_sc_hd__clkdlybuf4s25_1
*I *4719:A I *D sky130_fd_sc_hd__clkdlybuf4s25_1
*I *4714:A I *D sky130_fd_sc_hd__clkdlybuf4s25_1
*I *4730:X O *D sky130_fd_sc_hd__clkdlybuf4s25_1
*CAP
1 *4723:A 0.00017557
2 *4729:A 0.00144168
3 *4719:A 0
4 *4714:A 0.000211114
5 *4730:X 0.000298954
6 *713:46 0.00174518
7 *713:37 0.00168786
8 *713:12 0.00342611
9 *713:6 0.00195402
10 *4714:A *4357:A 8.15095e-05
11 *4723:A *3969:B 0.000195555
12 *4723:A *4812:A 0.000119618
13 *4729:A *4393:C 2.14658e-05
14 *4729:A *4396:B1 0.000178847
15 *4729:A *4812:A 0.000120833
16 *4729:A *1010:6 0.000137983
17 *713:12 *3937:A 1.03904e-05
18 *713:12 *4336:A1 0
19 *713:12 *4357:A 0.000340059
20 *713:12 *714:69 5.0725e-05
21 *713:12 *984:8 1.65025e-05
22 *713:37 *746:8 3.40725e-05
23 *713:46 *4812:A 5.83304e-05
24 *713:46 *714:69 8.08022e-05
25 *3860:A1 *713:12 0.000170618
26 *3921:B1 *713:12 0.000410641
27 *3926:B1 *4714:A 0.000102207
28 *3926:B1 *713:37 1.42162e-05
29 *3926:B2 *713:37 3.16805e-05
30 *3929:C1 *713:37 0.000232352
31 *3934:A2 *713:12 0.000181134
32 *3945:A2 *4714:A 5.52302e-05
33 *3945:A3 *4714:A 0.000184745
34 *4139:A1 *713:37 5.52238e-05
35 *4139:B1 *713:37 0.000226146
36 *4336:B1 *713:12 0.000151333
37 *4336:B1 *713:46 0.000202842
38 *4361:S *713:12 4.38265e-05
39 *4415:RESET_B *713:12 0
40 *4442:CLK *4729:A 0.000258007
41 *4452:CLK *713:37 0.000184036
42 *4453:D *713:37 2.89016e-05
43 *4453:RESET_B *713:37 0.000168919
44 *4476:CLK *713:37 0
45 *4566:CLK *713:37 0
46 *4596:RESET_B *4723:A 1.08359e-05
47 *4680:A *713:37 2.94103e-05
48 *4685:A *713:12 0.000367467
49 *4720:A *713:12 0.000482362
50 *4722:A *713:6 4.58194e-05
51 *4722:A *713:12 6.05161e-06
52 *4783:A *713:12 0.000125724
53 *17:10 *713:12 7.92879e-05
54 *104:38 *713:12 0
55 *157:10 *4714:A 0
56 *157:10 *713:12 0
57 *480:8 *713:37 0
58 *480:10 *713:37 0
59 *498:14 *713:12 0.000270236
60 *521:18 *713:12 8.91963e-06
61 *521:32 *713:12 0
62 *584:10 *713:12 0.000188713
63 *659:21 *713:37 0
64 *660:51 *713:37 0.000198738
65 *664:25 *713:12 7.44918e-05
66 *664:27 *713:12 6.8646e-06
67 *664:43 *713:12 0
68 *664:45 *713:12 0
69 *696:10 *4714:A 1.98839e-05
70 *703:90 *713:12 0.000218734
71 *705:10 *713:46 0
72 *705:20 *713:46 0
73 *706:8 *4723:A 0.0001399
74 *706:10 *4723:A 0.000150857
75 *706:10 *713:46 0.000128941
76 *706:16 *713:12 0.000178531
*RES
1 *4730:X *713:6 12.7107 
2 *713:6 *713:12 45.3393 
3 *713:12 *4714:A 19.0679 
4 *713:12 *713:37 43.1786 
5 *713:37 *4719:A 9.3 
6 *713:6 *713:46 8.57143 
7 *713:46 *4729:A 31.8 
8 *713:46 *4723:A 19.2286 
*END

*D_NET *714 0.0227279
*CONN
*I *4730:A I *D sky130_fd_sc_hd__clkdlybuf4s25_1
*I *4710:A I *D sky130_fd_sc_hd__clkdlybuf4s25_1
*I *4701:A I *D sky130_fd_sc_hd__clkdlybuf4s25_1
*I *4697:A I *D sky130_fd_sc_hd__clkdlybuf4s25_1
*I *4731:X O *D sky130_fd_sc_hd__clkdlybuf4s25_1
*CAP
1 *4730:A 0
2 *4710:A 5.75988e-05
3 *4701:A 0.00177619
4 *4697:A 0
5 *4731:X 0.000568275
6 *714:69 0.00202927
7 *714:61 0.00369819
8 *714:44 0.00172652
9 *714:20 0.00329118
10 *714:10 0.00208326
11 *4701:A *3912:A1 3.47255e-05
12 *4701:A *3912:A2 5.52238e-05
13 *4701:A *3914:A 6.17358e-05
14 *4701:A *4806:A 5.33433e-05
15 *714:61 *4051:B1 0.000143566
16 *3912:A3 *4701:A 1.21289e-05
17 *3912:B1 *4701:A 0.000830717
18 *3918:B *4701:A 0.000161947
19 *3996:D *714:10 0
20 *4048:A *714:10 0
21 *4048:A *714:61 0.00069962
22 *4049:A *714:61 0.000569201
23 *4049:B *714:61 4.88637e-05
24 *4054:B1 *714:61 1.39841e-05
25 *4058:A1 *714:69 0.000534222
26 *4058:A2 *714:69 0.000228558
27 *4058:A3 *714:69 0.000227532
28 *4058:B1 *714:69 5.52302e-05
29 *4061:A *714:69 2.14658e-05
30 *4062:A *714:69 0.000129595
31 *4062:B *714:69 0.000276211
32 *4063:A2 *714:61 2.95726e-05
33 *4067:A *714:20 0.000123419
34 *4277:A *4701:A 5.33005e-05
35 *4277:A *714:20 1.98839e-05
36 *4277:B *714:20 9.4736e-05
37 *4336:B1 *714:69 7.4826e-05
38 *4356:A1 *4701:A 9.90431e-05
39 *4356:A2 *4701:A 7.03295e-05
40 *4423:D *4701:A 6.20656e-05
41 *4449:RESET_B *4701:A 4.81734e-05
42 *4463:D *714:20 3.17784e-05
43 *4466:D *714:61 0.00014183
44 *4467:D *714:20 0
45 *4468:CLK *714:20 0.00011503
46 *4468:D *714:61 8.25843e-06
47 *4472:CLK *714:20 0.000366682
48 *4472:D *714:20 6.74815e-05
49 *4695:A *714:20 2.72545e-05
50 *4702:A *714:10 0.00016495
51 *4702:A *714:20 9.56968e-05
52 *4704:A *714:10 0
53 *4706:A *714:69 9.60875e-05
54 *4753:A *714:69 2.89114e-05
55 *4754:A *714:61 0.000122091
56 *259:38 *714:61 8.31169e-05
57 *265:12 *714:61 9.31893e-05
58 *265:12 *714:69 5.52302e-05
59 *496:88 *714:20 0.00015304
60 *497:35 *714:20 0.000120654
61 *497:44 *714:20 8.44646e-05
62 *642:45 *4701:A 0.000156592
63 *642:45 *714:20 2.89016e-05
64 *642:57 *714:20 0
65 *675:10 *714:20 0.00012401
66 *692:10 *714:10 0
67 *706:10 *714:69 2.41865e-05
68 *706:16 *714:69 0.00034321
69 *713:12 *714:69 5.0725e-05
70 *713:46 *714:69 8.08022e-05
*RES
1 *4731:X *714:10 22.4786 
2 *714:10 *714:20 39.8214 
3 *714:20 *4697:A 9.3 
4 *714:20 *4701:A 37.9607 
5 *714:10 *714:44 4.5 
6 *714:44 *4710:A 10.2464 
7 *714:44 *714:61 29.875 
8 *714:61 *714:69 48.3036 
9 *714:69 *4730:A 9.3 
*END

*D_NET *715 0.0124843
*CONN
*I *4382:A1 I *D sky130_fd_sc_hd__a31o_2
*I *4384:A1 I *D sky130_fd_sc_hd__a31o_2
*I *4386:A1 I *D sky130_fd_sc_hd__a31o_2
*I *4398:D I *D sky130_fd_sc_hd__and4bb_2
*I *4395:A1 I *D sky130_fd_sc_hd__a21bo_2
*I *4393:C I *D sky130_fd_sc_hd__and4b_2
*I *3834:A I *D sky130_fd_sc_hd__inv_2
*I *3887:B2 I *D sky130_fd_sc_hd__a22o_2
*I *4732:X O *D sky130_fd_sc_hd__clkdlybuf4s25_1
*CAP
1 *4382:A1 8.90514e-05
2 *4384:A1 0
3 *4386:A1 0.000236908
4 *4398:D 1.99857e-05
5 *4395:A1 0
6 *4393:C 0.000232187
7 *3834:A 3.33044e-05
8 *3887:B2 0.000408489
9 *4732:X 4.91556e-05
10 *715:89 0.00104927
11 *715:75 0.00175658
12 *715:44 0.000289892
13 *715:31 0.000538616
14 *715:25 0.000551
15 *715:10 0.000524676
16 *715:8 0.000937102
17 *4382:A1 *939:46 1.5424e-05
18 *4393:C *3885:B 6.82922e-05
19 *4393:C *3885:C 3.17148e-05
20 *4393:C *4396:B1 0.000168334
21 *4393:C *1008:31 2.14757e-05
22 *4393:C *1010:6 5.33005e-05
23 *4398:D *4398:A_N 1.04232e-05
24 *715:25 *4398:A_N 5.96516e-05
25 *715:31 *4398:A_N 0.00029576
26 *715:31 *4749:A 5.33005e-05
27 *715:75 *716:52 0
28 *715:89 *939:46 0.000212645
29 *3887:A1 *3887:B2 2.85234e-05
30 *3887:B1 *3887:B2 4.038e-06
31 *3889:B1 *715:8 1.58163e-05
32 *4368:A2 *3887:B2 0
33 *4382:A3 *4382:A1 9.90367e-05
34 *4382:A3 *715:75 0.000168549
35 *4383:B *715:75 0.000413047
36 *4384:A3 *4386:A1 0.000132282
37 *4384:A3 *715:89 1.41029e-05
38 *4386:A2 *4386:A1 6.15071e-05
39 *4386:B1 *715:75 0.000177948
40 *4388:A3 *715:75 3.65627e-05
41 *4388:B1 *715:75 0
42 *4392:A1 *4393:C 8.5896e-05
43 *4392:A2 *3834:A 2.42082e-05
44 *4392:A2 *715:44 4.16114e-05
45 *4393:B *4393:C 5.52238e-05
46 *4395:B1_N *4393:C 2.75386e-05
47 *4398:C *715:25 1.24368e-05
48 *4398:C *715:31 5.52238e-05
49 *4399:B1 *715:31 0.000187783
50 *4436:CLK *715:89 2.63652e-05
51 *4436:D *715:89 0.000150625
52 *4438:RESET_B *715:75 8.32242e-05
53 *4596:CLK *4386:A1 2.27416e-05
54 *4642:A *715:75 0
55 *4724:A *3887:B2 0.000217914
56 *4729:A *4393:C 2.14658e-05
57 *83:10 *715:31 5.52302e-05
58 *124:10 *3834:A 5.7616e-05
59 *124:10 *715:31 2.89016e-05
60 *124:10 *715:44 0.000153047
61 *431:10 *715:75 0
62 *443:23 *715:44 9.69119e-06
63 *444:8 *4393:C 5.03772e-05
64 *456:12 *3887:B2 0.000220455
65 *456:12 *715:10 0.000101545
66 *456:12 *715:75 0.000412333
67 *489:27 *4386:A1 5.2509e-05
68 *489:42 *4386:A1 9.97648e-05
69 *489:55 *4386:A1 4.56594e-05
70 *489:55 *715:89 4.48583e-05
71 *651:16 *4386:A1 3.12239e-05
72 *709:33 *3887:B2 0.000363252
73 *709:33 *715:10 9.40167e-05
74 *709:33 *715:75 0.00028903
75 *709:40 *715:75 0.000504613
76 *709:69 *715:75 0
*RES
1 *4732:X *715:8 14.3357 
2 *715:8 *715:10 1.33929 
3 *715:10 *3887:B2 24.4786 
4 *715:10 *715:25 5.85714 
5 *715:25 *715:31 13.6786 
6 *715:31 *3834:A 14.5321 
7 *715:31 *715:44 6.44643 
8 *715:44 *4393:C 24.0857 
9 *715:44 *4395:A1 9.3 
10 *715:25 *4398:D 9.72857 
11 *715:8 *715:75 27.6964 
12 *715:75 *715:89 17.7143 
13 *715:89 *4386:A1 20.2286 
14 *715:89 *4384:A1 13.8 
15 *715:75 *4382:A1 11.0857 
*END

*D_NET *716 0.0105663
*CONN
*I *4368:B2 I *D sky130_fd_sc_hd__a221o_2
*I *4378:A1 I *D sky130_fd_sc_hd__a31o_2
*I *4376:A1 I *D sky130_fd_sc_hd__a31o_2
*I *4372:A1 I *D sky130_fd_sc_hd__a31o_2
*I *4374:A1 I *D sky130_fd_sc_hd__a31o_2
*I *4388:A1 I *D sky130_fd_sc_hd__a31o_2
*I *4732:A I *D sky130_fd_sc_hd__clkdlybuf4s25_1
*I *4073:A I *D sky130_fd_sc_hd__or3_2
*I *4733:X O *D sky130_fd_sc_hd__clkdlybuf4s25_1
*CAP
1 *4368:B2 0
2 *4378:A1 0.000182727
3 *4376:A1 8.68158e-05
4 *4372:A1 0.000276734
5 *4374:A1 0
6 *4388:A1 9.27009e-05
7 *4732:A 0
8 *4073:A 0.000309034
9 *4733:X 0.000460834
10 *716:89 0.000393007
11 *716:69 0.000459934
12 *716:65 0.00111235
13 *716:52 0.00136616
14 *716:41 0.00054445
15 *716:28 0.000449372
16 *716:22 0.000524501
17 *4073:A *4073:C 5.33005e-05
18 *4073:A *1025:6 1.21258e-05
19 *716:22 *4368:C1 2.08464e-05
20 *716:22 *4398:A_N 2.0328e-05
21 *716:22 *4733:A 0.0001827
22 *716:22 *1024:44 5.41794e-05
23 *716:22 *1025:34 4.76184e-05
24 *716:28 *4398:A_N 5.47797e-05
25 *3891:B1 *716:22 0.000127944
26 *4368:B1 *716:22 1.77538e-05
27 *4372:A3 *4372:A1 0.000201995
28 *4372:B1 *4372:A1 1.99099e-05
29 *4374:A2 *716:69 7.32535e-05
30 *4374:B1 *4372:A1 0
31 *4375:B *4372:A1 0
32 *4376:A3 *4376:A1 6.05161e-06
33 *4378:A2 *4378:A1 1.02504e-05
34 *4378:A3 *4376:A1 2.04825e-05
35 *4378:A3 *4378:A1 0.000164974
36 *4378:A3 *716:89 2.04866e-05
37 *4388:A2 *4388:A1 0.00014285
38 *4388:A2 *716:65 8.46829e-05
39 *4388:A3 *716:52 0
40 *4388:B1 *716:52 0
41 *4389:A1_N *4073:A 2.39876e-05
42 *4389:A1_N *716:41 9.4736e-05
43 *4389:A1_N *716:52 0.000311655
44 *4389:B2 *716:65 2.17375e-05
45 *4432:D *4376:A1 3.80953e-06
46 *4434:CLK *4378:A1 5.4763e-05
47 *4434:RESET_B *4378:A1 0
48 *4444:D *4073:A 0.000149911
49 *4639:A *716:22 9.11365e-06
50 *4642:A *716:52 0.000250201
51 *4856:A *4378:A1 4.25523e-05
52 *122:8 *716:22 0.000111439
53 *123:67 *4073:A 0.000410634
54 *123:67 *716:41 4.56437e-05
55 *123:88 *716:41 0.000128154
56 *123:88 *716:52 0.000187733
57 *126:10 *4073:A 0.000109957
58 *431:10 *716:52 0
59 *432:10 *716:65 0
60 *433:14 *716:52 0
61 *490:30 *4372:A1 0
62 *490:39 *716:65 4.03318e-05
63 *490:39 *716:89 9.27685e-05
64 *490:52 *4378:A1 4.69464e-05
65 *490:52 *716:89 1.12301e-05
66 *650:10 *716:52 0.000210525
67 *650:51 *4372:A1 0
68 *651:66 *4376:A1 6.12326e-06
69 *651:66 *716:65 3.34366e-05
70 *651:66 *716:89 0.000216764
71 *651:86 *716:69 0.000357054
72 *715:75 *716:52 0
*RES
1 *4733:X *716:22 27.3759 
2 *716:22 *716:28 5.56696 
3 *716:28 *4073:A 21.675 
4 *716:28 *716:41 2.25 
5 *716:41 *4732:A 13.8 
6 *716:41 *716:52 17.6786 
7 *716:52 *4388:A1 10.6571 
8 *716:52 *716:65 14.4821 
9 *716:65 *716:69 8.91071 
10 *716:69 *4374:A1 9.3 
11 *716:69 *4372:A1 23.8893 
12 *716:65 *716:89 3.61607 
13 *716:89 *4376:A1 15.1482 
14 *716:89 *4378:A1 18.6304 
15 *716:22 *4368:B2 9.3 
*END

*D_NET *717 0.0011141
*CONN
*I *4454:D I *D sky130_fd_sc_hd__dfrtp_2
*I *4455:HI O *D sky130_fd_sc_hd__conb_1
*CAP
1 *4454:D 0.000338722
2 *4455:HI 0.000338722
3 *4292:A2 *4454:D 0.000128154
4 *4454:CLK *4454:D 2.89016e-05
5 *208:14 *4454:D 1.17968e-05
6 *467:44 *4454:D 0.000162358
7 *467:46 *4454:D 0.000105449
*RES
1 *4455:HI *4454:D 34.1 
*END

*D_NET *718 0.000648757
*CONN
*I *4456:D I *D sky130_fd_sc_hd__dfrtp_2
*I *4839:X O *D sky130_fd_sc_hd__dlygate4sd3_1
*CAP
1 *4456:D 0.000259602
2 *4839:X 0.000259602
3 *4454:RESET_B *4456:D 2.49666e-05
4 *530:18 *4456:D 8.877e-05
5 *630:44 *4456:D 1.58163e-05
*RES
1 *4839:X *4456:D 31.3143 
*END

*D_NET *719 0.00112422
*CONN
*I *4050:B1 I *D sky130_fd_sc_hd__o21a_2
*I *4840:X O *D sky130_fd_sc_hd__dlygate4sd3_1
*CAP
1 *4050:B1 0.00016028
2 *4840:X 0.00016028
3 *3902:C_N *4050:B1 0.000449539
4 *131:17 *4050:B1 1.98839e-05
5 *131:26 *4050:B1 0.000170964
6 *259:50 *4050:B1 9.90367e-05
7 *691:19 *4050:B1 6.42338e-05
*RES
1 *4840:X *4050:B1 33.475 
*END

*D_NET *720 0.0114884
*CONN
*I *4135:A1 I *D sky130_fd_sc_hd__o21ai_2
*I *4127:A1 I *D sky130_fd_sc_hd__o21ai_2
*I *4130:A1 I *D sky130_fd_sc_hd__o21ai_2
*I *4132:A1 I *D sky130_fd_sc_hd__o21ai_2
*I *4122:A1 I *D sky130_fd_sc_hd__o21ai_2
*I *4146:A1 I *D sky130_fd_sc_hd__o21ai_2
*I *4144:A1 I *D sky130_fd_sc_hd__o21ai_2
*I *4124:A1 I *D sky130_fd_sc_hd__o21ai_2
*I *4734:X O *D sky130_fd_sc_hd__clkdlybuf4s25_1
*CAP
1 *4135:A1 0
2 *4127:A1 0.000452275
3 *4130:A1 0.000169943
4 *4132:A1 0.00105332
5 *4122:A1 0.000312012
6 *4146:A1 0
7 *4144:A1 0.000474165
8 *4124:A1 0.000519253
9 *4734:X 0.000718784
10 *720:92 0.000598177
11 *720:61 0.00133641
12 *720:45 0.000312012
13 *720:43 0.000391113
14 *720:26 0.000805762
15 *4144:A1 *4145:A 9.71197e-05
16 *720:26 *4572:D 6.19181e-05
17 *720:43 *4572:D 0.000198738
18 *4124:B1 *4122:A1 9.80173e-05
19 *4127:B1 *4127:A1 0.000201067
20 *4130:A2 *4132:A1 0
21 *4132:A2 *4132:A1 0.000317311
22 *4143:A *4144:A1 2.89016e-05
23 *4144:A2 *4144:A1 1.97695e-05
24 *4144:B1 *4144:A1 9.80173e-05
25 *4145:B *4144:A1 3.08382e-05
26 *4146:A2 *4144:A1 0.00010096
27 *4146:A2 *720:43 0.000369818
28 *4477:RESET_B *4132:A1 0
29 *4563:RESET_B *4144:A1 0.000184745
30 *4567:RESET_B *4132:A1 0.000133447
31 *4572:RESET_B *720:26 0
32 *4717:A *4132:A1 0.000247778
33 *4718:A *4132:A1 0
34 *251:40 *4127:A1 0.00055575
35 *251:40 *720:92 0.000232399
36 *531:32 *4124:A1 6.05161e-06
37 *531:32 *720:26 3.30309e-05
38 *659:21 *4132:A1 5.03772e-05
39 *659:27 *4132:A1 1.18064e-05
40 *659:27 *720:43 1.41029e-05
41 *659:27 *720:61 0.000292715
42 *659:46 *4122:A1 4.35567e-05
43 *659:57 *4122:A1 0.00050277
44 *659:81 *4132:A1 2.28598e-05
45 *659:98 *4130:A1 1.92905e-05
46 *659:98 *4132:A1 1.39726e-05
47 *659:98 *720:92 6.42095e-05
48 *699:22 *4132:A1 2.8833e-05
49 *699:24 *720:43 0
50 *699:26 *720:26 0
51 *702:27 *720:43 0
52 *702:27 *720:61 0.000264966
*RES
1 *4734:X *4124:A1 27.0821 
2 *4734:X *720:26 16.8 
3 *720:26 *4144:A1 22.7107 
4 *720:26 *720:43 5.28571 
5 *720:43 *720:45 4.5 
6 *720:45 *4146:A1 9.3 
7 *720:45 *4122:A1 16.4071 
8 *720:43 *720:61 11.6071 
9 *720:61 *4132:A1 36.7286 
10 *720:61 *4130:A1 9.83571 
11 *4130:A1 *720:92 12.7107 
12 *720:92 *4127:A1 18.6214 
13 *720:92 *4135:A1 9.3 
*END

*D_NET *721 0.00202886
*CONN
*I *4051:B1 I *D sky130_fd_sc_hd__o21a_2
*I *4841:X O *D sky130_fd_sc_hd__dlygate4sd3_1
*CAP
1 *4051:B1 0.000686655
2 *4841:X 0.000686655
3 *4047:B *4051:B1 0
4 *4051:A1 *4051:B1 4.94362e-05
5 *4063:A1 *4051:B1 3.34366e-05
6 *4063:A2 *4051:B1 9.90431e-05
7 *4457:D *4051:B1 1.98839e-05
8 *4465:CLK *4051:B1 0
9 *4465:D *4051:B1 0.000128154
10 *4465:RESET_B *4051:B1 0.000129868
11 *4466:D *4051:B1 0
12 *4466:RESET_B *4051:B1 0
13 *259:44 *4051:B1 5.21676e-05
14 *259:50 *4051:B1 0
15 *471:51 *4051:B1 0
16 *714:61 *4051:B1 0.000143566
*RES
1 *4841:X *4051:B1 41.1893 
*END

*D_NET *722 0.000456234
*CONN
*I *4355:B1 I *D sky130_fd_sc_hd__o21a_2
*I *4842:X O *D sky130_fd_sc_hd__dlygate4sd3_1
*CAP
1 *4355:B1 0.000162287
2 *4842:X 0.000162287
3 *4355:B1 *4842:A 5.33334e-05
4 *4355:A2 *4355:B1 7.8327e-05
5 *4422:D *4355:B1 0
*RES
1 *4842:X *4355:B1 30.4929 
*END

*D_NET *723 0.000317226
*CONN
*I *4053:B1 I *D sky130_fd_sc_hd__o21a_2
*I *4843:X O *D sky130_fd_sc_hd__dlygate4sd3_1
*CAP
1 *4053:B1 8.18796e-05
2 *4843:X 8.18796e-05
3 *4053:A1 *4053:B1 5.49995e-05
4 *4053:A2 *4053:B1 9.84673e-05
*RES
1 *4843:X *4053:B1 20.3679 
*END

*D_NET *724 0.00018017
*CONN
*I *4350:B1 I *D sky130_fd_sc_hd__o31a_2
*I *4844:X O *D sky130_fd_sc_hd__dlygate4sd3_1
*CAP
1 *4350:B1 4.05636e-05
2 *4844:X 4.05636e-05
3 *4350:A2 *4350:B1 9.90431e-05
*RES
1 *4844:X *4350:B1 19.5464 
*END

*D_NET *725 0.000174201
*CONN
*I *4354:B1 I *D sky130_fd_sc_hd__o31a_2
*I *4845:X O *D sky130_fd_sc_hd__dlygate4sd3_1
*CAP
1 *4354:B1 3.75792e-05
2 *4845:X 3.75792e-05
3 *4354:A2 *4354:B1 9.90431e-05
*RES
1 *4845:X *4354:B1 19.5464 
*END

*D_NET *726 0.000535478
*CONN
*I *4356:B1 I *D sky130_fd_sc_hd__o21a_2
*I *4846:X O *D sky130_fd_sc_hd__dlygate4sd3_1
*CAP
1 *4356:B1 0.000180451
2 *4846:X 0.000180451
3 *4352:B1 *4356:B1 4.88515e-05
4 *4354:A3 *4356:B1 0.000115474
5 *4419:D *4356:B1 0
6 *107:47 *4356:B1 1.02504e-05
*RES
1 *4846:X *4356:B1 30.6 
*END

*D_NET *727 0.000362929
*CONN
*I *4351:B1 I *D sky130_fd_sc_hd__o21a_2
*I *4847:X O *D sky130_fd_sc_hd__dlygate4sd3_1
*CAP
1 *4351:B1 9.10793e-05
2 *4847:X 9.10793e-05
3 *4351:B1 *3909:A 0.00018077
*RES
1 *4847:X *4351:B1 20.3679 
*END

*D_NET *728 0.00217622
*CONN
*I *4064:B1 I *D sky130_fd_sc_hd__o31a_2
*I *4848:X O *D sky130_fd_sc_hd__dlygate4sd3_1
*CAP
1 *4064:B1 0.000409862
2 *4848:X 0.000409862
3 *3896:B *4064:B1 0.000149214
4 *3906:B *4064:B1 1.12578e-05
5 *3906:C *4064:B1 0.000168503
6 *3913:A2 *4064:B1 9.84673e-05
7 *4064:A1 *4064:B1 9.41642e-05
8 *4064:A2 *4064:B1 1.62025e-05
9 *4064:A3 *4064:B1 4.63219e-05
10 *4457:RESET_B *4064:B1 0.000247845
11 *86:8 *4064:B1 1.03904e-05
12 *86:65 *4064:B1 1.25366e-05
13 *668:44 *4064:B1 0.000398154
14 *686:10 *4064:B1 0.000103437
*RES
1 *4848:X *4064:B1 39.7429 
*END

*D_NET *729 0.000454538
*CONN
*I *4307:A I *D sky130_fd_sc_hd__nor2_2
*I *4849:X O *D sky130_fd_sc_hd__dlygate4sd3_1
*CAP
1 *4307:A 6.25065e-05
2 *4849:X 6.25065e-05
3 *4307:A *4308:A 0.000230482
4 *4307:A *4308:B 9.90431e-05
*RES
1 *4849:X *4307:A 20.7786 
*END

*D_NET *730 0.000210934
*CONN
*I *4264:A I *D sky130_fd_sc_hd__nor2_2
*I *4850:X O *D sky130_fd_sc_hd__dlygate4sd3_1
*CAP
1 *4264:A 0.000105467
2 *4850:X 0.000105467
*RES
1 *4850:X *4264:A 20.3679 
*END

*D_NET *731 0.000430791
*CONN
*I *4731:A I *D sky130_fd_sc_hd__clkdlybuf4s25_1
*I *4456:Q O *D sky130_fd_sc_hd__dfrtp_2
*CAP
1 *4731:A 0.000167525
2 *4456:Q 0.000167525
3 *4731:A *4501:D 3.2006e-05
4 *4704:A *4731:A 0
5 *685:8 *4731:A 5.62995e-05
6 *685:21 *4731:A 0
7 *685:50 *4731:A 7.43578e-06
*RES
1 *4456:Q *4731:A 31.1 
*END

*D_NET *732 0.00187106
*CONN
*I *3910:C I *D sky130_fd_sc_hd__or4_2
*I *4736:A I *D sky130_fd_sc_hd__dlygate4sd3_1
*I *4416:Q O *D sky130_fd_sc_hd__dfrtp_2
*CAP
1 *3910:C 6.27929e-05
2 *4736:A 0.000133003
3 *4416:Q 0.000110643
4 *732:10 0.000306439
5 *3895:D *732:10 5.52238e-05
6 *4068:B *4736:A 0.000484511
7 *4068:C *4736:A 7.95313e-05
8 *4349:A3 *732:10 5.74562e-05
9 *4349:B1 *4736:A 0.000112995
10 *4349:B2 *3910:C 9.0573e-05
11 *4349:B2 *732:10 5.83304e-05
12 *261:69 *3910:C 0
13 *264:8 *3910:C 0.000148189
14 *264:8 *732:10 0.000171375
*RES
1 *4416:Q *732:10 16.5857 
2 *732:10 *4736:A 18.8714 
3 *732:10 *3910:C 15.7464 
*END

*D_NET *733 0.000527683
*CONN
*I *4844:A I *D sky130_fd_sc_hd__dlygate4sd3_1
*I *3911:C I *D sky130_fd_sc_hd__or4_2
*I *4417:Q O *D sky130_fd_sc_hd__dfrtp_2
*CAP
1 *4844:A 9.70922e-05
2 *3911:C 0.000174616
3 *4417:Q 7.75236e-05
4 *4844:A *3911:D 5.80706e-06
5 *3892:A *4844:A 6.07532e-05
6 *86:25 *3911:C 4.70048e-05
7 *670:29 *4844:A 6.48863e-05
*RES
1 *4417:Q *3911:C 19.9571 
2 *3911:C *4844:A 29.85 
*END

*D_NET *734 0.00288391
*CONN
*I *3909:A I *D sky130_fd_sc_hd__or3_2
*I *4847:A I *D sky130_fd_sc_hd__dlygate4sd3_1
*I *4418:Q O *D sky130_fd_sc_hd__dfrtp_2
*CAP
1 *3909:A 0.000306938
2 *4847:A 0.000924199
3 *4418:Q 0.000617262
4 *3909:A *3909:B 7.3237e-05
5 *4847:A *735:12 4.01768e-05
6 *3909:C *3909:A 4.43256e-05
7 *4351:A2 *3909:A 1.04232e-05
8 *4351:B1 *3909:A 0.00018077
9 *4419:RESET_B *4847:A 2.29097e-05
10 *4644:A *4847:A 0.000373913
11 *138:40 *3909:A 0.000163313
12 *676:18 *4847:A 0.000126439
*RES
1 *4418:Q *4847:A 37.7071 
2 *4847:A *3909:A 25.4393 
*END

*D_NET *735 0.00163785
*CONN
*I *4739:A I *D sky130_fd_sc_hd__dlygate4sd3_1
*I *3912:A1 I *D sky130_fd_sc_hd__o311a_2
*I *4419:Q O *D sky130_fd_sc_hd__dfrtp_2
*CAP
1 *4739:A 7.36131e-05
2 *3912:A1 6.17883e-05
3 *4419:Q 0.000302272
4 *735:12 0.000437674
5 *3912:A1 *3912:A2 5.52238e-05
6 *735:12 *739:8 6.09476e-05
7 *3912:A3 *3912:A1 0.00010946
8 *3912:B1 *3912:A1 3.28977e-05
9 *3912:B1 *4739:A 0.000195396
10 *3913:B2 *3912:A1 4.43256e-05
11 *3913:B2 *4739:A 0.000189345
12 *4701:A *3912:A1 3.47255e-05
13 *4847:A *735:12 4.01768e-05
14 *107:47 *735:12 0
15 *138:25 *735:12 0
16 *676:16 *735:12 0
*RES
1 *4419:Q *735:12 23.3179 
2 *735:12 *3912:A1 11.4964 
3 *735:12 *4739:A 12.7107 
*END

*D_NET *736 0.00277713
*CONN
*I *3910:D I *D sky130_fd_sc_hd__or4_2
*I *4740:A I *D sky130_fd_sc_hd__dlygate4sd3_1
*I *4420:Q O *D sky130_fd_sc_hd__dfrtp_2
*CAP
1 *3910:D 0.000210197
2 *4740:A 0.000267631
3 *4420:Q 0
4 *736:6 0.000477829
5 *4740:A *4693:A 5.52238e-05
6 *4349:B2 *3910:D 1.58163e-05
7 *4353:B1 *4740:A 1.39841e-05
8 *4474:D *4740:A 0
9 *4475:CLK *3910:D 0.000129868
10 *4475:CLK *4740:A 0.000396016
11 *264:8 *3910:D 0.000514241
12 *264:8 *4740:A 0.000301703
13 *470:20 *3910:D 0.000394623
*RES
1 *4420:Q *736:6 13.8 
2 *736:6 *4740:A 20.9964 
3 *736:6 *3910:D 21.1393 
*END

*D_NET *737 0.00121518
*CONN
*I *4845:A I *D sky130_fd_sc_hd__dlygate4sd3_1
*I *3911:D I *D sky130_fd_sc_hd__or4_2
*I *4421:Q O *D sky130_fd_sc_hd__dfrtp_2
*CAP
1 *4845:A 0.000157055
2 *3911:D 0.00012867
3 *4421:Q 0.000161504
4 *737:6 0.000447229
5 *3892:A *3911:D 0.000227021
6 *3892:B *4845:A 6.05161e-06
7 *3912:C1 *3911:D 0
8 *3912:C1 *4845:A 6.42242e-05
9 *4350:A3 *3911:D 0
10 *4844:A *3911:D 5.80706e-06
11 *127:8 *3911:D 1.76135e-05
12 *127:8 *4845:A 0
13 *670:29 *3911:D 0
14 *670:31 *3911:D 0
*RES
1 *4421:Q *737:6 11.0679 
2 *737:6 *3911:D 21.7643 
3 *737:6 *4845:A 20.8893 
*END

*D_NET *738 0.00160805
*CONN
*I *3909:B I *D sky130_fd_sc_hd__or3_2
*I *4842:A I *D sky130_fd_sc_hd__dlygate4sd3_1
*I *4422:Q O *D sky130_fd_sc_hd__dfrtp_2
*CAP
1 *3909:B 0.000284584
2 *4842:A 0.000505183
3 *4422:Q 0.000220599
4 *3909:A *3909:B 7.3237e-05
5 *4261:A1 *3909:B 5.33005e-05
6 *4261:A1 *4842:A 6.05161e-06
7 *4262:B *3909:B 2.8266e-06
8 *4355:B1 *4842:A 5.33334e-05
9 *107:24 *3909:B 1.92905e-05
10 *107:24 *4842:A 2.59355e-05
11 *111:18 *3909:B 3.92757e-05
12 *494:12 *3909:B 0.000196269
13 *494:23 *3909:B 0.000128161
*RES
1 *4422:Q *4842:A 22.4214 
2 *4842:A *3909:B 33.5643 
*END

*D_NET *739 0.000750144
*CONN
*I *4846:A I *D sky130_fd_sc_hd__dlygate4sd3_1
*I *3912:A2 I *D sky130_fd_sc_hd__o311a_2
*I *4423:Q O *D sky130_fd_sc_hd__dfrtp_2
*CAP
1 *4846:A 0.000104981
2 *3912:A2 1.1624e-05
3 *4423:Q 0.000105268
4 *739:8 0.000221873
5 *3912:A1 *3912:A2 5.52238e-05
6 *3912:C1 *4846:A 5.94737e-05
7 *3912:C1 *739:8 2.8266e-06
8 *4701:A *3912:A2 5.52238e-05
9 *107:47 *739:8 0
10 *127:12 *4846:A 6.07626e-05
11 *127:12 *739:8 1.19402e-05
12 *735:12 *739:8 6.09476e-05
*RES
1 *4423:Q *739:8 15.7464 
2 *739:8 *3912:A2 14.3357 
3 *739:8 *4846:A 16.05 
*END

*D_NET *740 0.00102981
*CONN
*I *4839:A I *D sky130_fd_sc_hd__dlygate4sd3_1
*I *4454:Q O *D sky130_fd_sc_hd__dfrtp_2
*CAP
1 *4839:A 0.000231474
2 *4454:Q 0.000231474
3 *4501:RESET_B *4839:A 7.83659e-05
4 *208:24 *4839:A 0.000246837
5 *685:21 *4839:A 0.000241658
*RES
1 *4454:Q *4839:A 33.0286 
*END

*D_NET *741 0.00695528
*CONN
*I *3924:A I *D sky130_fd_sc_hd__nand2_2
*I *3920:A I *D sky130_fd_sc_hd__nand2_2
*I *3934:A1 I *D sky130_fd_sc_hd__a32o_2
*I *3925:A1 I *D sky130_fd_sc_hd__a31oi_2
*I *3945:A1 I *D sky130_fd_sc_hd__a32o_2
*I *3921:A1 I *D sky130_fd_sc_hd__a31oi_2
*I *4476:Q O *D sky130_fd_sc_hd__dfrtp_2
*CAP
1 *3924:A 4.10875e-05
2 *3920:A 1.23576e-05
3 *3934:A1 0.000167484
4 *3925:A1 0
5 *3945:A1 0.000249037
6 *3921:A1 4.85479e-05
7 *4476:Q 0.000970058
8 *741:46 0.000167484
9 *741:31 0.000689225
10 *741:14 0.00053974
11 *741:12 0.000435263
12 *741:6 0.00138305
13 *3920:B *741:12 1.21258e-05
14 *3921:A2 *3920:A 4.80729e-05
15 *3921:A2 *3921:A1 0.000123288
16 *3921:A2 *741:14 0.000218486
17 *3921:B1 *3920:A 5.83304e-05
18 *3921:B1 *3921:A1 0.000123288
19 *3921:B1 *741:14 0.000226021
20 *3924:B *741:12 5.20751e-05
21 *3925:A2 *3945:A1 5.80706e-06
22 *3925:A2 *741:31 6.09476e-05
23 *3925:A3 *3934:A1 0
24 *3934:A2 *3934:A1 0.00035013
25 *3934:A3 *3934:A1 0.000161868
26 *3945:A2 *3945:A1 7.53826e-05
27 *3945:A3 *3945:A1 0.000269428
28 *4414:D *3945:A1 5.44049e-05
29 *449:222 *3945:A1 0.00012169
30 *449:222 *741:31 5.74562e-05
31 *664:43 *741:12 3.69047e-06
32 *696:10 *3945:A1 0.000229456
*RES
1 *4476:Q *741:6 25.0321 
2 *741:6 *741:12 9.98214 
3 *741:12 *741:14 2.85714 
4 *741:14 *3921:A1 15.4429 
5 *741:14 *741:31 14.4643 
6 *741:31 *3945:A1 20.8 
7 *741:31 *741:46 4.5 
8 *741:46 *3925:A1 9.3 
9 *741:46 *3934:A1 13.9786 
10 *741:12 *3920:A 14.5321 
11 *741:6 *3924:A 10.2643 
*END

*D_NET *742 0.00740947
*CONN
*I *3866:A I *D sky130_fd_sc_hd__nand2_2
*I *4363:B2 I *D sky130_fd_sc_hd__a221o_2
*I *4364:A I *D sky130_fd_sc_hd__nand2_2
*I *3867:A I *D sky130_fd_sc_hd__and3_2
*I *3859:A I *D sky130_fd_sc_hd__and3_2
*I *3858:A I *D sky130_fd_sc_hd__nand2_2
*I *4426:Q O *D sky130_fd_sc_hd__dfrtp_2
*CAP
1 *3866:A 0.000301406
2 *4363:B2 0.000151163
3 *4364:A 0
4 *3867:A 0
5 *3859:A 0.000306131
6 *3858:A 0
7 *4426:Q 0.000334944
8 *742:26 0.000707944
9 *742:18 0.000704713
10 *742:12 0.00104603
11 *742:6 0.000927827
12 *3858:B *3859:A 0.000190983
13 *3866:B *3866:A 0.0001661
14 *3894:B *742:26 0.000184626
15 *3925:A2 *3859:A 2.51343e-06
16 *3949:A1 *3866:A 8.39228e-05
17 *3950:A1 *3859:A 0
18 *4362:A *742:18 0.000144933
19 *4363:A1 *4363:B2 3.51552e-06
20 *4363:B1 *4363:B2 3.51552e-06
21 *4363:B1 *742:18 0.000279153
22 *4363:C1 *4363:B2 1.01454e-05
23 *4364:B *742:18 0.000173336
24 *4365:B2 *4363:B2 1.26678e-07
25 *4410:CLK *742:26 0.000200413
26 *4410:RESET_B *3859:A 1.00375e-05
27 *4426:CLK *742:12 4.41588e-05
28 *4426:D *742:12 3.75868e-05
29 *4757:A *3866:A 8.59435e-05
30 *4757:A *4363:B2 9.8126e-05
31 *4757:A *742:6 2.85321e-05
32 *4757:A *742:12 2.59355e-05
33 *4800:A *742:26 0.000312209
34 *171:10 *4363:B2 9.21611e-05
35 *171:20 *4363:B2 2.85234e-05
36 *482:10 *742:18 3.41599e-05
37 *482:10 *742:26 0.000142797
38 *482:12 *742:26 0.000194299
39 *482:69 *742:12 1.78393e-05
40 *482:69 *742:18 8.91963e-06
41 *521:66 *4363:B2 0.000221538
42 *583:10 *3859:A 0.000103267
43 *687:26 *742:18 0
*RES
1 *4426:Q *742:6 9.83571 
2 *742:6 *742:12 13.25 
3 *742:12 *742:18 13.4643 
4 *742:18 *742:26 20.0357 
5 *742:26 *3858:A 9.3 
6 *742:26 *3859:A 23.7821 
7 *742:18 *3867:A 9.3 
8 *742:12 *4364:A 13.8 
9 *742:6 *4363:B2 22.2509 
10 *4426:Q *3866:A 33.85 
*END

*D_NET *743 0.00557559
*CONN
*I *4760:A I *D sky130_fd_sc_hd__dlygate4sd3_1
*I *4357:A I *D sky130_fd_sc_hd__or3b_2
*I *3928:B I *D sky130_fd_sc_hd__and2b_2
*I *4452:Q O *D sky130_fd_sc_hd__dfrtp_2
*CAP
1 *4760:A 0.000395891
2 *4357:A 0.000689681
3 *3928:B 0
4 *4452:Q 0
5 *743:10 0.00141338
6 *743:4 0.00111959
7 *4760:A *3927:B 1.08359e-05
8 *4760:A *744:34 0.000180496
9 *3926:A2 *4357:A 0
10 *3934:A2 *4357:A 0.000151333
11 *4358:A2 *4760:A 5.26062e-05
12 *4358:B2 *4760:A 8.6229e-06
13 *4452:CLK *743:10 7.32173e-05
14 *4452:D *743:10 9.99644e-06
15 *4452:RESET_B *4760:A 0.000310236
16 *4452:RESET_B *743:10 8.84327e-05
17 *4713:A *4760:A 0.000101545
18 *4713:A *743:10 4.17437e-05
19 *4714:A *4357:A 8.15095e-05
20 *154:16 *4357:A 0.000206307
21 *154:16 *743:10 5.33882e-05
22 *157:10 *4357:A 0
23 *695:14 *4760:A 5.33005e-05
24 *695:26 *4760:A 0.000193424
25 *696:10 *4357:A 0
26 *696:10 *743:10 0
27 *713:12 *4357:A 0.000340059
*RES
1 *4452:Q *743:4 9.3 
2 *743:4 *743:10 13.7679 
3 *743:10 *3928:B 13.8 
4 *743:10 *4357:A 28.1036 
5 *743:4 *4760:A 27.175 
*END

*D_NET *744 0.00587594
*CONN
*I *3856:B1 I *D sky130_fd_sc_hd__o31ai_2
*I *3855:A I *D sky130_fd_sc_hd__nor2_2
*I *4793:A I *D sky130_fd_sc_hd__dlygate4sd3_1
*I *4424:Q O *D sky130_fd_sc_hd__dfrtp_2
*CAP
1 *3856:B1 0
2 *3855:A 0.000132899
3 *4793:A 0.000187457
4 *4424:Q 0.00144022
5 *744:34 0.00138567
6 *4793:A *3927:B 1.0033e-05
7 *3927:A_N *4793:A 0
8 *3929:B1 *4793:A 0.000262657
9 *3941:B *744:34 2.59093e-05
10 *4358:A1 *744:34 0.000505342
11 *4400:RESET_B *3855:A 4.85984e-05
12 *4402:CLK *3855:A 6.33334e-05
13 *4404:D *744:34 0.000337637
14 *4453:D *4793:A 0
15 *4453:RESET_B *744:34 9.30093e-05
16 *4752:A *3855:A 0
17 *4760:A *744:34 0.000180496
18 *100:14 *3855:A 0.000221818
19 *102:34 *3855:A 2.14658e-05
20 *476:12 *744:34 0
21 *476:34 *744:34 0.000254572
22 *523:22 *744:34 2.95726e-05
23 *529:23 *744:34 0.000208322
24 *529:27 *744:34 0.000119125
25 *695:14 *744:34 0.000340147
26 *695:26 *4793:A 7.65336e-06
*RES
1 *4424:Q *4793:A 31.6714 
2 *4424:Q *744:34 44.9429 
3 *744:34 *3855:A 21.6036 
4 *744:34 *3856:B1 9.3 
*END

*D_NET *745 0.00352508
*CONN
*I *3929:A1 I *D sky130_fd_sc_hd__a311o_2
*I *3926:A1 I *D sky130_fd_sc_hd__a22o_2
*I *3923:A1 I *D sky130_fd_sc_hd__a22o_2
*I *4451:Q O *D sky130_fd_sc_hd__dfstp_2
*CAP
1 *3929:A1 0.000469601
2 *3926:A1 0
3 *3923:A1 0.000283983
4 *4451:Q 5.90249e-05
5 *745:27 0.000633935
6 *745:6 0.000507342
7 *3923:A2 *3923:A1 0.00020563
8 *3923:B2 *3923:A1 0
9 *3926:A2 *745:27 4.13122e-06
10 *3926:B1 *3929:A1 6.34274e-05
11 *3926:B2 *3929:A1 0.000162065
12 *3929:A2 *3929:A1 2.84109e-05
13 *3929:A3 *3929:A1 3.34295e-05
14 *3929:C1 *3929:A1 0
15 *4357:B *3929:A1 2.59093e-05
16 *4451:D *3929:A1 0
17 *4451:SET_B *745:6 9.41642e-05
18 *4451:SET_B *745:27 8.59075e-05
19 *4452:CLK *3929:A1 0.000109431
20 *4452:D *3923:A1 0.000268521
21 *4452:D *745:27 4.56587e-05
22 *4453:D *3923:A1 3.70397e-05
23 *154:16 *3923:A1 0.000300305
24 *154:38 *3929:A1 2.95726e-05
25 *476:70 *3929:A1 7.7591e-05
*RES
1 *4451:Q *745:6 10.2464 
2 *745:6 *3923:A1 25.8714 
3 *745:6 *745:27 11.8929 
4 *745:27 *3926:A1 9.3 
5 *745:27 *3929:A1 27.1214 
*END

*D_NET *746 0.00522154
*CONN
*I *4357:C_N I *D sky130_fd_sc_hd__or3b_2
*I *3922:A I *D sky130_fd_sc_hd__nand2_2
*I *4790:A I *D sky130_fd_sc_hd__dlygate4sd3_1
*I *3927:B I *D sky130_fd_sc_hd__and2b_2
*I *4453:Q O *D sky130_fd_sc_hd__dfrtp_2
*CAP
1 *4357:C_N 0.000229354
2 *3922:A 5.55896e-05
3 *4790:A 0.00012819
4 *3927:B 0.000399158
5 *4453:Q 0.000162708
6 *746:32 0.000432793
7 *746:10 0.000597752
8 *746:8 0.000380961
9 *3929:A2 *4357:C_N 5.42961e-05
10 *3929:B1 *3922:A 9.83388e-05
11 *3929:B1 *3927:B 0.000734261
12 *3929:B1 *4357:C_N 2.21254e-05
13 *3929:B1 *746:10 0.000114248
14 *3929:B1 *746:32 0.000254898
15 *3929:C1 *746:10 0
16 *3929:C1 *746:32 0
17 *4358:A1 *3922:A 5.33005e-05
18 *4358:B1 *4357:C_N 2.2816e-05
19 *4358:B1 *746:32 0
20 *4451:CLK *4790:A 0.000304387
21 *4451:D *3922:A 1.83053e-05
22 *4453:RESET_B *746:8 0.000133233
23 *4629:A *4357:C_N 0.000225989
24 *4713:A *3927:B 4.80522e-05
25 *4713:A *4790:A 0.000257619
26 *4713:A *746:10 1.19402e-05
27 *4760:A *3927:B 1.08359e-05
28 *4793:A *3927:B 1.0033e-05
29 *476:70 *4790:A 6.87574e-05
30 *695:26 *3927:B 0.000357523
31 *713:37 *746:8 3.40725e-05
*RES
1 *4453:Q *746:8 15.9786 
2 *746:8 *746:10 1.64286 
3 *746:10 *3927:B 23.9071 
4 *746:10 *4790:A 17.6214 
5 *746:8 *746:32 3.46429 
6 *746:32 *3922:A 15.1571 
7 *746:32 *4357:C_N 18.6393 
*END

*D_NET *747 0.00961652
*CONN
*I *3847:B1 I *D sky130_fd_sc_hd__o21ai_2
*I *3862:A I *D sky130_fd_sc_hd__or3_2
*I *3851:A2 I *D sky130_fd_sc_hd__a31oi_2
*I *3849:A2 I *D sky130_fd_sc_hd__a21oi_2
*I *4360:A1 I *D sky130_fd_sc_hd__a22o_2
*I *4359:A I *D sky130_fd_sc_hd__nand2_2
*I *3861:A I *D sky130_fd_sc_hd__nor2_2
*I *3919:A1 I *D sky130_fd_sc_hd__a221o_2
*I *4448:Q O *D sky130_fd_sc_hd__dfstp_2
*CAP
1 *3847:B1 0.000241896
2 *3862:A 0
3 *3851:A2 4.19926e-05
4 *3849:A2 0.00112591
5 *4360:A1 0.000165729
6 *4359:A 0.000101403
7 *3861:A 8.95943e-06
8 *3919:A1 0.000113666
9 *4448:Q 0
10 *747:55 0.00137187
11 *747:53 0.000270338
12 *747:40 0.000628895
13 *747:34 0.000402573
14 *747:25 0.000151369
15 *747:19 0.000398582
16 *747:4 0.000151139
17 *3861:A *3862:C 5.52238e-05
18 *747:25 *3942:A_N 0
19 *747:34 *3862:C 0.000140933
20 *3846:B *3847:B1 6.05161e-06
21 *3851:A1 *3849:A2 0
22 *3851:A3 *3847:B1 1.39726e-05
23 *3851:A3 *747:25 0
24 *3851:A3 *747:40 0.000310384
25 *3862:B *747:40 0.000126439
26 *3870:B1 *3851:A2 4.49293e-05
27 *3870:B1 *747:40 0
28 *3870:B1 *747:55 0.000101545
29 *3942:B *3847:B1 1.40034e-05
30 *3942:C *3847:B1 0.000312222
31 *3942:C *747:25 1.76039e-05
32 *4353:A3 *3919:A1 0.000169449
33 *4359:B *3851:A2 5.33005e-05
34 *4359:B *4359:A 3.22063e-05
35 *4359:B *747:53 0.000225609
36 *4360:B1 *4360:A1 3.18676e-05
37 *4360:B1 *747:40 1.19309e-05
38 *4360:B1 *747:55 0
39 *4360:B2 *4360:A1 9.71197e-05
40 *4409:CLK *3849:A2 0.0003377
41 *4409:D *3849:A2 3.39935e-05
42 *4449:CLK *3847:B1 0.000171375
43 *4471:CLK *4360:A1 0.00013146
44 *4471:CLK *747:55 3.17148e-05
45 *4529:CLK *3849:A2 5.33005e-05
46 *3:14 *747:25 0.000126118
47 *3:14 *747:40 0
48 *107:111 *3849:A2 0.000456632
49 *111:10 *747:25 0
50 *111:18 *3847:B1 0.000354111
51 *111:18 *3919:A1 9.41642e-05
52 *111:18 *747:19 9.71197e-05
53 *150:18 *3861:A 5.71472e-05
54 *150:18 *747:34 0.000129515
55 *150:37 *3919:A1 0.000168735
56 *160:10 *3847:B1 0.000148911
57 *160:27 *3847:B1 1.31516e-05
58 *449:226 *3851:A2 2.59355e-05
59 *449:226 *4359:A 2.47724e-05
60 *495:33 *3851:A2 5.41794e-05
61 *495:33 *747:55 0.000164554
62 *519:26 *3849:A2 2.8266e-06
*RES
1 *4448:Q *747:4 9.3 
2 *747:4 *3919:A1 21.4964 
3 *747:4 *747:19 0.946429 
4 *747:19 *747:25 11.8571 
5 *747:25 *3861:A 9.83571 
6 *747:25 *747:34 1.35714 
7 *747:34 *747:40 17.3214 
8 *747:40 *4359:A 10.9786 
9 *747:40 *747:53 6.67857 
10 *747:53 *747:55 2.55357 
11 *747:55 *4360:A1 17.3536 
12 *747:55 *3849:A2 38.8179 
13 *747:53 *3851:A2 15.0679 
14 *747:34 *3862:A 9.3 
15 *747:19 *3847:B1 25.6036 
*END

*D_NET *748 0.00335634
*CONN
*I *4045:C_N I *D sky130_fd_sc_hd__or3b_2
*I *4796:A I *D sky130_fd_sc_hd__dlygate4sd3_1
*I *3931:B I *D sky130_fd_sc_hd__or3_2
*I *3942:A_N I *D sky130_fd_sc_hd__and4b_2
*I *4838:A I *D sky130_fd_sc_hd__dlygate4sd3_1
*I *4449:Q O *D sky130_fd_sc_hd__dfrtp_2
*CAP
1 *4045:C_N 0.000122166
2 *4796:A 8.61506e-05
3 *3931:B 0
4 *3942:A_N 0.000114552
5 *4838:A 6.3247e-05
6 *4449:Q 0.00029728
7 *748:52 0.000392824
8 *748:23 0.0007487
9 *748:6 0.000810167
10 *4045:C_N *750:14 0
11 *4838:A *749:8 0
12 *3851:A3 *3942:A_N 5.71472e-05
13 *3919:B2 *748:23 0
14 *3919:C1 *748:23 4.38243e-05
15 *3942:C *3942:A_N 5.52238e-05
16 *4045:B *4045:C_N 0
17 *4045:B *4838:A 7.6644e-05
18 *4045:B *748:52 0
19 *4349:A3 *748:23 0.00013651
20 *4353:A3 *4838:A 6.42242e-05
21 *4449:RESET_B *748:6 3.42876e-05
22 *4449:RESET_B *748:52 0.00010096
23 *4700:A *748:52 0
24 *3:14 *748:23 1.08301e-05
25 *84:8 *3942:A_N 0
26 *111:10 *3942:A_N 3.69697e-05
27 *111:61 *3942:A_N 3.48235e-05
28 *111:61 *748:23 6.98068e-05
29 *149:18 *4045:C_N 0
30 *149:18 *748:52 0
31 *681:10 *748:52 0
32 *681:12 *748:52 0
33 *747:25 *3942:A_N 0
*RES
1 *4449:Q *748:6 10.6571 
2 *748:6 *4838:A 19.9429 
3 *748:6 *748:23 14.125 
4 *748:23 *3942:A_N 16.2821 
5 *748:23 *3931:B 13.8 
6 *4449:Q *748:52 16.6929 
7 *748:52 *4796:A 15.1571 
8 *748:52 *4045:C_N 16.05 
*END

*D_NET *749 0.00542683
*CONN
*I *3914:A I *D sky130_fd_sc_hd__and2_2
*I *3931:A I *D sky130_fd_sc_hd__or3_2
*I *3835:A I *D sky130_fd_sc_hd__inv_2
*I *3862:C I *D sky130_fd_sc_hd__or3_2
*I *3861:B I *D sky130_fd_sc_hd__nor2_2
*I *4450:Q O *D sky130_fd_sc_hd__dfrtp_2
*CAP
1 *3914:A 0.000239517
2 *3931:A 0.000105619
3 *3835:A 4.81573e-05
4 *3862:C 0.00013513
5 *3861:B 0
6 *4450:Q 0
7 *749:42 0.000538814
8 *749:14 0.00050111
9 *749:8 0.000910616
10 *749:6 0.000399115
11 *3846:B *3862:C 0
12 *3861:A *3862:C 5.52238e-05
13 *3916:A *749:8 0
14 *3918:A *749:42 0.000386816
15 *3918:B *3914:A 0.000271345
16 *3918:B *749:42 6.05161e-06
17 *3919:A2 *3862:C 0.000400888
18 *3919:A2 *749:8 0
19 *3919:A2 *749:14 4.59075e-05
20 *3919:C1 *3835:A 4.70488e-05
21 *3919:C1 *3931:A 2.65105e-05
22 *3919:C1 *749:8 2.62984e-05
23 *3919:C1 *749:42 6.33806e-06
24 *3931:C *3931:A 2.89114e-05
25 *4045:B *3914:A 0
26 *4045:B *749:8 0
27 *4353:A3 *749:8 0
28 *4448:D *749:42 0.000230482
29 *4448:SET_B *749:8 8.86354e-05
30 *4448:SET_B *749:14 7.17509e-05
31 *4449:RESET_B *3914:A 6.87574e-05
32 *4701:A *3914:A 6.17358e-05
33 *4838:A *749:8 0
34 *107:24 *749:14 0.000238911
35 *150:18 *3862:C 9.79995e-05
36 *150:18 *749:14 4.58194e-05
37 *150:37 *749:8 0
38 *681:12 *3914:A 4.16114e-05
39 *681:12 *749:8 1.88048e-05
40 *681:53 *749:14 0
41 *682:8 *3914:A 0.000141975
42 *682:14 *749:14 0
43 *747:34 *3862:C 0.000140933
*RES
1 *4450:Q *749:6 13.8 
2 *749:6 *749:8 3.76786 
3 *749:8 *749:14 12.2857 
4 *749:14 *3861:B 9.3 
5 *749:14 *3862:C 13.9786 
6 *749:8 *749:42 11.8929 
7 *749:42 *3835:A 10.8625 
8 *749:42 *3931:A 11.4964 
9 *749:6 *3914:A 20.0857 
*END

*D_NET *750 0.00406425
*CONN
*I *3953:B I *D sky130_fd_sc_hd__nor2_2
*I *3954:B I *D sky130_fd_sc_hd__nor2_2
*I *4450:D I *D sky130_fd_sc_hd__dfrtp_2
*I *4045:A I *D sky130_fd_sc_hd__or3b_2
*I *3848:Y O *D sky130_fd_sc_hd__inv_2
*CAP
1 *3953:B 0
2 *3954:B 7.35069e-05
3 *4450:D 0.000182511
4 *4045:A 0
5 *3848:Y 0.000314592
6 *750:27 0.000256018
7 *750:25 0.000582802
8 *750:14 0.000897394
9 *3912:B1 *4450:D 0
10 *4045:B *750:14 0.000154762
11 *4045:C_N *750:14 0
12 *4353:A3 *750:14 0.000121606
13 *111:28 *4450:D 0.000442063
14 *148:12 *3954:B 0.000177234
15 *148:12 *4450:D 0.000393991
16 *149:12 *4450:D 8.00806e-05
17 *258:12 *750:25 0.000276211
18 *494:32 *3954:B 5.85228e-05
19 *494:32 *4450:D 5.29554e-05
*RES
1 *3848:Y *750:14 24.6929 
2 *750:14 *4045:A 9.3 
3 *750:14 *750:25 10.0179 
4 *750:25 *750:27 4.5 
5 *750:27 *4450:D 21.2107 
6 *750:27 *3954:B 16.05 
7 *750:25 *3953:B 9.3 
*END

*D_NET *751 0.00242908
*CONN
*I *4057:B I *D sky130_fd_sc_hd__or3b_2
*I *4069:B I *D sky130_fd_sc_hd__nor3_2
*I *4070:B I *D sky130_fd_sc_hd__or3_2
*I *4449:D I *D sky130_fd_sc_hd__dfrtp_2
*I *3917:X O *D sky130_fd_sc_hd__a21o_2
*CAP
1 *4057:B 8.24412e-05
2 *4069:B 9.79803e-05
3 *4070:B 4.99408e-05
4 *4449:D 4.53801e-05
5 *3917:X 0.00013569
6 *751:23 0.000354297
7 *751:12 0.000251756
8 *751:10 0.000218131
9 *4069:C *4069:B 9.60939e-05
10 *4071:A3 *4069:B 0.000125724
11 *4349:A3 *4057:B 0.000216064
12 *4349:A3 *751:10 0.000248493
13 *4449:CLK *751:10 0.000106552
14 *4688:A *4069:B 0
15 *4688:A *4070:B 0
16 *3:22 *751:10 5.64107e-05
17 *96:12 *751:23 4.58194e-05
18 *96:18 *4069:B 0.000141382
19 *96:18 *4070:B 5.66157e-05
20 *160:27 *4070:B 2.72449e-05
21 *160:27 *751:10 0
22 *160:38 *4057:B 0
23 *160:38 *751:10 0
24 *264:8 *4057:B 7.30641e-05
*RES
1 *3917:X *751:10 17.9071 
2 *751:10 *751:12 4.5 
3 *751:12 *4449:D 9.83571 
4 *751:12 *751:23 7.5 
5 *751:23 *4070:B 15.1393 
6 *751:23 *4069:B 16.6929 
7 *751:10 *4057:B 16.6571 
*END

*D_NET *752 0.0030381
*CONN
*I *3930:A2 I *D sky130_fd_sc_hd__a21bo_2
*I *3850:A_N I *D sky130_fd_sc_hd__nand2b_2
*I *4771:A I *D sky130_fd_sc_hd__dlygate4sd3_1
*I *4425:Q O *D sky130_fd_sc_hd__dfrtp_2
*CAP
1 *3930:A2 0.000171295
2 *3850:A_N 0.000151803
3 *4771:A 0.000113657
4 *4425:Q 0
5 *752:19 0.000514676
6 *752:6 0.000305235
7 *3851:A1 *4771:A 0.00012334
8 *3851:A1 *752:19 0.000159462
9 *3915:A0 *3850:A_N 9.60875e-05
10 *3915:A1 *3850:A_N 2.14757e-05
11 *3932:A *3930:A2 9.90367e-05
12 *3933:A2 *3930:A2 0.000137224
13 *3933:A2 *752:19 0.000383281
14 *3944:B1 *3850:A_N 5.33005e-05
15 *4406:CLK *3930:A2 0
16 *4406:CLK *752:19 0
17 *4688:A *3850:A_N 6.36254e-05
18 *150:18 *3850:A_N 0.000104803
19 *161:10 *3930:A2 3.17148e-05
20 *167:35 *3930:A2 9.02232e-05
21 *449:226 *4771:A 7.48091e-05
22 *518:38 *3930:A2 0.000149942
23 *519:38 *3850:A_N 6.9276e-05
24 *669:46 *4771:A 7.32333e-05
25 *669:46 *752:19 5.06044e-05
*RES
1 *4425:Q *752:6 13.8 
2 *752:6 *4771:A 17.1036 
3 *752:6 *752:19 6.19643 
4 *752:19 *3850:A_N 17.7643 
5 *752:19 *3930:A2 18.6393 
*END

*D_NET *753 0.00105974
*CONN
*I *4471:D I *D sky130_fd_sc_hd__dfrtp_2
*I *3851:Y O *D sky130_fd_sc_hd__a31oi_2
*CAP
1 *4471:D 0.00031593
2 *3851:Y 0.00031593
3 *3870:A1 *4471:D 0.000123295
4 *3870:C1 *4471:D 7.80714e-06
5 *4425:D *4471:D 0.000228627
6 *4471:CLK *4471:D 0
7 *4677:A *4471:D 0
8 *162:16 *4471:D 6.81459e-05
*RES
1 *3851:Y *4471:D 34.3321 
*END

*D_NET *754 0.000288526
*CONN
*I *4689:A I *D sky130_fd_sc_hd__clkdlybuf4s25_1
*I *4471:Q O *D sky130_fd_sc_hd__dfrtp_2
*CAP
1 *4689:A 0.000144263
2 *4471:Q 0.000144263
3 *4677:A *4689:A 0
*RES
1 *4471:Q *4689:A 29.7786 
*END

*D_NET *755 0.00105878
*CONN
*I *4469:D I *D sky130_fd_sc_hd__dfrtp_2
*I *3953:Y O *D sky130_fd_sc_hd__nor2_2
*CAP
1 *4469:D 0.000183604
2 *3953:Y 0.000183604
3 *3913:B2 *4469:D 0.000346639
4 *494:32 *4469:D 0.000344932
*RES
1 *3953:Y *4469:D 33.3321 
*END

*D_NET *756 0.00077955
*CONN
*I *4470:D I *D sky130_fd_sc_hd__dfrtp_2
*I *3954:Y O *D sky130_fd_sc_hd__nor2_2
*CAP
1 *4470:D 0.000142933
2 *3954:Y 0.000142933
3 *4046:A *4470:D 5.52238e-05
4 *4470:CLK *4470:D 4.25716e-05
5 *148:12 *4470:D 0.000320031
6 *494:32 *4470:D 7.58571e-05
*RES
1 *3954:Y *4470:D 32.2071 
*END

*D_NET *757 0.00467431
*CONN
*I *4692:A I *D sky130_fd_sc_hd__clkdlybuf4s25_1
*I *4693:A I *D sky130_fd_sc_hd__clkdlybuf4s25_1
*I *4469:Q O *D sky130_fd_sc_hd__dfrtp_2
*CAP
1 *4692:A 0.000407329
2 *4693:A 0.00110474
3 *4469:Q 0.00151207
4 *4692:A *4690:A 7.2754e-05
5 *4071:A1 *4693:A 0
6 *4071:A3 *4693:A 0
7 *4353:A2 *4693:A 0.000573169
8 *4353:A3 *4693:A 1.56e-05
9 *4469:RESET_B *4692:A 0
10 *4474:D *4693:A 3.56976e-05
11 *4740:A *4693:A 5.52238e-05
12 *259:8 *4692:A 0
13 *261:12 *4692:A 0.000195237
14 *261:22 *4692:A 0.000397918
15 *264:8 *4693:A 0.000170513
16 *666:8 *4692:A 1.07719e-05
17 *671:12 *4692:A 0.000123288
*RES
1 *4469:Q *4693:A 43.7071 
2 *4469:Q *4692:A 38.0464 
*END

*D_NET *758 0.0017024
*CONN
*I *4690:A I *D sky130_fd_sc_hd__clkdlybuf4s25_1
*I *4691:A I *D sky130_fd_sc_hd__clkdlybuf4s25_1
*I *4470:Q O *D sky130_fd_sc_hd__dfrtp_2
*CAP
1 *4690:A 0.000236849
2 *4691:A 6.8128e-05
3 *4470:Q 0.000204657
4 *758:12 0.000509634
5 *3893:C1 *4690:A 2.85234e-05
6 *3895:D *4691:A 0.000102197
7 *3895:D *758:12 0.000139028
8 *3913:B1 *4690:A 2.89016e-05
9 *4420:CLK *758:12 0
10 *4687:A *4690:A 0.000225149
11 *4692:A *4690:A 7.2754e-05
12 *259:8 *4690:A 0
13 *261:12 *758:12 8.15939e-05
14 *469:10 *758:12 0
15 *671:12 *4690:A 4.98055e-06
*RES
1 *4470:Q *758:12 22.8357 
2 *758:12 *4691:A 11.0679 
3 *758:12 *4690:A 23.8179 
*END

*D_NET *759 0.00090768
*CONN
*I *4597:A I *D sky130_fd_sc_hd__buf_2
*I *4044:Y O *D sky130_fd_sc_hd__inv_2
*CAP
1 *4597:A 0.000295937
2 *4044:Y 0.000295937
3 *4557:RESET_B *4597:A 0.000315806
*RES
1 *4044:Y *4597:A 32.2429 
*END

*D_NET *760 0.000490013
*CONN
*I *4553:D I *D sky130_fd_sc_hd__dfrtp_2
*I *4095:Y O *D sky130_fd_sc_hd__o21ai_2
*CAP
1 *4553:D 0.000185001
2 *4095:Y 0.000185001
3 *4095:B1 *4553:D 0.000120011
*RES
1 *4095:Y *4553:D 21.1045 
*END

*D_NET *761 0.00103765
*CONN
*I *4563:D I *D sky130_fd_sc_hd__dfrtp_2
*I *4122:Y O *D sky130_fd_sc_hd__o21ai_2
*CAP
1 *4563:D 0.000235273
2 *4122:Y 0.000235273
3 *4122:A2 *4563:D 1.64329e-05
4 *4124:B1 *4563:D 0.000381258
5 *452:14 *4563:D 7.6644e-05
6 *481:20 *4563:D 2.6949e-05
7 *481:24 *4563:D 6.58195e-05
*RES
1 *4122:Y *4563:D 33.4571 
*END

*D_NET *762 0.000785795
*CONN
*I *4564:D I *D sky130_fd_sc_hd__dfrtp_2
*I *4124:Y O *D sky130_fd_sc_hd__o21ai_2
*CAP
1 *4564:D 0.000158363
2 *4124:Y 0.000158363
3 *4124:A2 *4564:D 0.000126582
4 *4124:B1 *4564:D 0.000342488
*RES
1 *4124:Y *4564:D 32.5107 
*END

*D_NET *763 0.000742461
*CONN
*I *4565:D I *D sky130_fd_sc_hd__dfrtp_2
*I *4127:Y O *D sky130_fd_sc_hd__o21ai_2
*CAP
1 *4565:D 0.000163183
2 *4127:Y 0.000163183
3 *4127:A2 *4565:D 0.000366668
4 *481:12 *4565:D 4.94268e-05
5 *701:37 *4565:D 0
*RES
1 *4127:Y *4565:D 32.2786 
*END

*D_NET *764 0.000251488
*CONN
*I *4566:D I *D sky130_fd_sc_hd__dfrtp_2
*I *4130:Y O *D sky130_fd_sc_hd__o21ai_2
*CAP
1 *4566:D 6.87844e-05
2 *4130:Y 6.87844e-05
3 *4717:A *4566:D 4.29272e-05
4 *659:27 *4566:D 4.46186e-06
5 *702:27 *4566:D 6.65302e-05
*RES
1 *4130:Y *4566:D 29.2429 
*END

*D_NET *765 0.000662693
*CONN
*I *4567:D I *D sky130_fd_sc_hd__dfrtp_2
*I *4132:Y O *D sky130_fd_sc_hd__o21ai_2
*CAP
1 *4567:D 0.000146595
2 *4132:Y 0.000146595
3 *4567:D *4569:D 0
4 *4139:A1 *4567:D 5.26091e-05
5 *4680:A *4567:D 0.000188741
6 *660:51 *4567:D 0.000128154
*RES
1 *4132:Y *4567:D 31.6714 
*END

*D_NET *766 0.00110388
*CONN
*I *4568:D I *D sky130_fd_sc_hd__dfrtp_2
*I *4135:Y O *D sky130_fd_sc_hd__o21ai_2
*CAP
1 *4568:D 0.000176645
2 *4135:Y 0.000176645
3 *4568:D *4133:B1 2.59355e-05
4 *4633:A *4568:D 0.000335929
5 *481:53 *4568:D 0.0003335
6 *659:98 *4568:D 5.52238e-05
*RES
1 *4135:Y *4568:D 33.0464 
*END

*D_NET *767 0.00132352
*CONN
*I *4569:D I *D sky130_fd_sc_hd__dfrtp_2
*I *4139:Y O *D sky130_fd_sc_hd__o21ai_2
*CAP
1 *4569:D 0.000393892
2 *4139:Y 0.000393892
3 *4139:A2 *4569:D 0.000535738
4 *4567:D *4569:D 0
5 *4569:CLK *4569:D 0
6 *480:31 *4569:D 0
*RES
1 *4139:Y *4569:D 36.3679 
*END

*D_NET *768 0.000644683
*CONN
*I *4570:D I *D sky130_fd_sc_hd__dfrtp_2
*I *4141:Y O *D sky130_fd_sc_hd__o21ai_2
*CAP
1 *4570:D 0.000206823
2 *4141:Y 0.000206823
3 *4143:B *4570:D 0.000129868
4 *449:340 *4570:D 0.000101169
5 *531:46 *4570:D 0
*RES
1 *4141:Y *4570:D 31.8321 
*END

*D_NET *769 0.000431481
*CONN
*I *4571:D I *D sky130_fd_sc_hd__dfrtp_2
*I *4144:Y O *D sky130_fd_sc_hd__o21ai_2
*CAP
1 *4571:D 0.000185528
2 *4144:Y 0.000185528
3 *4143:B *4571:D 0
4 *255:10 *4571:D 6.04256e-05
5 *660:14 *4571:D 0
*RES
1 *4144:Y *4571:D 30.6893 
*END

*D_NET *770 0.00133848
*CONN
*I *4572:D I *D sky130_fd_sc_hd__dfrtp_2
*I *4146:Y O *D sky130_fd_sc_hd__o21ai_2
*CAP
1 *4572:D 0.000311153
2 *4146:Y 0.000311153
3 *4572:RESET_B *4572:D 0
4 *531:32 *4572:D 0.000150618
5 *702:27 *4572:D 0.000304896
6 *720:26 *4572:D 6.19181e-05
7 *720:43 *4572:D 0.000198738
*RES
1 *4146:Y *4572:D 36.8321 
*END

*D_NET *771 0.000370377
*CONN
*I *4554:D I *D sky130_fd_sc_hd__dfrtp_2
*I *4098:Y O *D sky130_fd_sc_hd__o21ai_2
*CAP
1 *4554:D 8.24829e-05
2 *4098:Y 8.24829e-05
3 *4097:A *4554:D 2.27416e-05
4 *4097:B *4554:D 5.52302e-05
5 *697:22 *4554:D 0
6 *711:23 *4554:D 0.000127439
*RES
1 *4098:Y *4554:D 29.7786 
*END

*D_NET *772 0.000403327
*CONN
*I *4573:D I *D sky130_fd_sc_hd__dfrtp_2
*I *4149:X O *D sky130_fd_sc_hd__or2_2
*CAP
1 *4573:D 8.84104e-05
2 *4149:X 8.84104e-05
3 *4148:A1 *4573:D 0.000226507
*RES
1 *4149:X *4573:D 20.7786 
*END

*D_NET *773 0.000539887
*CONN
*I *4574:D I *D sky130_fd_sc_hd__dfrtp_2
*I *4150:X O *D sky130_fd_sc_hd__a21bo_2
*CAP
1 *4574:D 0.000190762
2 *4150:X 0.000190762
3 *4150:B1_N *4574:D 0.000104974
4 *478:10 *4574:D 5.80706e-06
5 *478:54 *4574:D 4.75812e-05
*RES
1 *4150:X *4574:D 31.1179 
*END

*D_NET *774 0.000801784
*CONN
*I *4555:D I *D sky130_fd_sc_hd__dfrtp_2
*I *4100:Y O *D sky130_fd_sc_hd__o21ai_2
*CAP
1 *4555:D 0.00022178
2 *4100:Y 0.00022178
3 *4103:A2 *4555:D 0.00015244
4 *4555:CLK *4555:D 0.00015078
5 *711:29 *4555:D 5.50052e-05
*RES
1 *4100:Y *4555:D 32.5107 
*END

*D_NET *775 0.000411923
*CONN
*I *4556:D I *D sky130_fd_sc_hd__dfrtp_2
*I *4103:Y O *D sky130_fd_sc_hd__o21ai_2
*CAP
1 *4556:D 0.000136296
2 *4103:Y 0.000136296
3 *4555:CLK *4556:D 0.000139331
*RES
1 *4103:Y *4556:D 21.1893 
*END

*D_NET *776 0.000250221
*CONN
*I *4557:D I *D sky130_fd_sc_hd__dfrtp_2
*I *4106:Y O *D sky130_fd_sc_hd__o21ai_2
*CAP
1 *4557:D 6.8839e-05
2 *4106:Y 6.8839e-05
3 *4557:CLK *4557:D 0.000112543
*RES
1 *4106:Y *4557:D 29.1223 
*END

*D_NET *777 0.000597402
*CONN
*I *4558:D I *D sky130_fd_sc_hd__dfrtp_2
*I *4108:Y O *D sky130_fd_sc_hd__o21ai_2
*CAP
1 *4558:D 0.000106209
2 *4108:Y 0.000106209
3 *4105:B *4558:D 2.85321e-05
4 *4108:A1 *4558:D 0.000152433
5 *4108:A2 *4558:D 0.000150718
6 *4108:B1 *4558:D 5.33005e-05
*RES
1 *4108:Y *4558:D 30.6179 
*END

*D_NET *778 0.000457453
*CONN
*I *4559:D I *D sky130_fd_sc_hd__dfrtp_2
*I *4111:Y O *D sky130_fd_sc_hd__o21ai_2
*CAP
1 *4559:D 0.000178396
2 *4111:Y 0.000178396
3 *4110:B *4559:D 4.35141e-05
4 *4111:A1 *4559:D 5.71472e-05
*RES
1 *4111:Y *4559:D 30.725 
*END

*D_NET *779 0.00154142
*CONN
*I *4560:D I *D sky130_fd_sc_hd__dfrtp_2
*I *4114:Y O *D sky130_fd_sc_hd__o21ai_2
*CAP
1 *4560:D 0.000207843
2 *4114:Y 0.000207843
3 *4560:D *4561:D 0.000225307
4 *4113:A *4560:D 0
5 *4114:A1 *4560:D 2.89114e-05
6 *4114:A2 *4560:D 0.000509725
7 *4115:B *4560:D 0
8 *4562:CLK *4560:D 4.16899e-05
9 *531:95 *4560:D 6.8646e-06
10 *658:36 *4560:D 0.000313241
*RES
1 *4114:Y *4560:D 35.5821 
*END

*D_NET *780 0.0011181
*CONN
*I *4561:D I *D sky130_fd_sc_hd__dfrtp_2
*I *4116:Y O *D sky130_fd_sc_hd__o21ai_2
*CAP
1 *4561:D 0.00024503
2 *4116:Y 0.00024503
3 *4561:D *4562:D 0.000127439
4 *4115:B *4561:D 0
5 *4116:A2 *4561:D 0.000175519
6 *4116:B1 *4561:D 9.97744e-05
7 *4560:D *4561:D 0.000225307
8 *531:95 *4561:D 0
*RES
1 *4116:Y *4561:D 34.4036 
*END

*D_NET *781 0.000640253
*CONN
*I *4562:D I *D sky130_fd_sc_hd__dfrtp_2
*I *4119:Y O *D sky130_fd_sc_hd__o21ai_2
*CAP
1 *4562:D 0.000157073
2 *4119:Y 0.000157073
3 *4561:D *4562:D 0.000127439
4 *4562:CLK *4562:D 4.01768e-05
5 *658:36 *4562:D 0.00015849
*RES
1 *4119:Y *4562:D 31.4214 
*END

*D_NET *782 0.00340069
*CONN
*I *4780:A I *D sky130_fd_sc_hd__dlygate4sd3_1
*I *4096:A I *D sky130_fd_sc_hd__and2_2
*I *4101:A1 I *D sky130_fd_sc_hd__o31ai_2
*I *4030:A I *D sky130_fd_sc_hd__nor2_2
*I *4031:A I *D sky130_fd_sc_hd__or4_2
*I *4553:Q O *D sky130_fd_sc_hd__dfrtp_2
*CAP
1 *4780:A 0
2 *4096:A 5.5939e-05
3 *4101:A1 0
4 *4030:A 6.40422e-05
5 *4031:A 0.000143728
6 *4553:Q 0.00027708
7 *782:29 0.000241982
8 *782:14 0.000435303
9 *782:12 0.000454227
10 *782:10 0.000561733
11 *4030:A *4030:B 0.000268842
12 *4031:A *4101:B1 4.87841e-05
13 *4031:A *797:10 3.67279e-06
14 *4096:A *793:12 0.00014285
15 *782:12 *793:12 0
16 *782:29 *4030:B 3.11361e-05
17 *4095:B1 *782:10 8.55687e-05
18 *4102:B *782:29 0.000100074
19 *4103:A2 *4030:A 8.90899e-05
20 *4103:A2 *782:29 0.000396641
21 *4678:A *782:10 0
22 *4678:A *782:12 0
23 *531:22 *782:10 0
24 *657:31 *782:14 0
25 *697:20 *782:10 0
26 *697:20 *782:12 0
27 *697:22 *782:12 0
28 *697:22 *782:14 0
*RES
1 *4553:Q *782:10 17.925 
2 *782:10 *782:12 4.98214 
3 *782:12 *782:14 1.94643 
4 *782:14 *4031:A 16.6571 
5 *782:14 *782:29 9.46429 
6 *782:29 *4030:A 11.8893 
7 *782:29 *4101:A1 9.3 
8 *782:12 *4096:A 15.1571 
9 *782:10 *4780:A 13.8 
*END

*D_NET *783 0.00192581
*CONN
*I *4036:A I *D sky130_fd_sc_hd__nor2_2
*I *4125:A1 I *D sky130_fd_sc_hd__o31ai_2
*I *4037:A I *D sky130_fd_sc_hd__or4_2
*I *4120:A I *D sky130_fd_sc_hd__and2_2
*I *4563:Q O *D sky130_fd_sc_hd__dfrtp_2
*CAP
1 *4036:A 3.33894e-05
2 *4125:A1 0.000106065
3 *4037:A 0
4 *4120:A 0.000147591
5 *4563:Q 0
6 *783:32 0.000182738
7 *783:23 0.000231138
8 *783:6 0.000335445
9 *4036:A *4037:C 4.88637e-05
10 *783:23 *4037:B 0.000126639
11 *783:23 *784:26 2.59355e-05
12 *783:32 *4037:C 1.33343e-05
13 *4120:B *4120:A 5.52238e-05
14 *4121:B *4120:A 0.000153047
15 *4121:B *4125:A1 0
16 *4121:B *783:23 0.000200406
17 *4123:B *4125:A1 0
18 *4125:A3 *4125:A1 5.26091e-05
19 *250:10 *4036:A 9.60939e-05
20 *250:10 *4125:A1 0
21 *250:10 *783:23 5.62995e-05
22 *250:10 *783:32 4.88637e-05
23 *251:10 *783:23 1.21258e-05
*RES
1 *4563:Q *783:6 13.8 
2 *783:6 *4120:A 16.8893 
3 *783:6 *783:23 9.64286 
4 *783:23 *4037:A 9.3 
5 *783:23 *783:32 1.375 
6 *783:32 *4125:A1 20.2464 
7 *783:32 *4036:A 10.675 
*END

*D_NET *784 0.00207465
*CONN
*I *4125:A2 I *D sky130_fd_sc_hd__o31ai_2
*I *4123:A I *D sky130_fd_sc_hd__xnor2_2
*I *4037:B I *D sky130_fd_sc_hd__or4_2
*I *4564:Q O *D sky130_fd_sc_hd__dfrtp_2
*CAP
1 *4125:A2 0.000266468
2 *4123:A 0
3 *4037:B 8.64875e-05
4 *4564:Q 0.000353431
5 *784:26 0.000533411
6 *4121:B *784:26 0
7 *4122:A2 *4125:A2 0.000102207
8 *4123:B *4125:A2 0.000372337
9 *4564:RESET_B *784:26 4.48206e-05
10 *251:10 *4037:B 0.000142856
11 *251:10 *784:26 2.00529e-05
12 *783:23 *4037:B 0.000126639
13 *783:23 *784:26 2.59355e-05
*RES
1 *4564:Q *4037:B 21.2071 
2 *4564:Q *784:26 22.1214 
3 *784:26 *4123:A 9.3 
4 *784:26 *4125:A2 15.6214 
*END

*D_NET *785 0.000960521
*CONN
*I *4125:B1 I *D sky130_fd_sc_hd__o31ai_2
*I *4037:C I *D sky130_fd_sc_hd__or4_2
*I *4565:Q O *D sky130_fd_sc_hd__dfrtp_2
*CAP
1 *4125:B1 0
2 *4037:C 0.000311358
3 *4565:Q 0.000105048
4 *785:8 0.000416406
5 *4036:A *4037:C 4.88637e-05
6 *4036:B *4037:C 5.52302e-05
7 *4125:A3 *4037:C 0
8 *4126:B *785:8 0
9 *249:41 *4037:C 0
10 *250:10 *4037:C 1.02821e-05
11 *783:32 *4037:C 1.33343e-05
*RES
1 *4565:Q *785:8 15.7464 
2 *785:8 *4037:C 19.3536 
3 *785:8 *4125:B1 13.8 
*END

*D_NET *786 0.00294957
*CONN
*I *4039:A I *D sky130_fd_sc_hd__or4_2
*I *4133:A1 I *D sky130_fd_sc_hd__o31ai_2
*I *4128:A I *D sky130_fd_sc_hd__and2_2
*I *4038:A I *D sky130_fd_sc_hd__nor2_2
*I *4566:Q O *D sky130_fd_sc_hd__dfrtp_2
*CAP
1 *4039:A 9.4064e-05
2 *4133:A1 0.000144555
3 *4128:A 0
4 *4038:A 0.000157085
5 *4566:Q 0
6 *786:10 0.000225731
7 *786:8 0.000401787
8 *786:4 0.000282649
9 *4039:A *4039:B 6.94127e-05
10 *4133:A1 *4039:B 5.10822e-05
11 *4133:A1 *4131:A 1.76039e-05
12 *4133:A1 *787:8 3.69047e-06
13 *4133:A1 *787:21 3.17163e-05
14 *786:8 *4039:B 0.000223102
15 *4038:B *4038:A 4.22908e-05
16 *4130:A2 *4038:A 4.1331e-06
17 *4130:A2 *4133:A1 1.5942e-05
18 *4130:A2 *786:10 6.76178e-05
19 *4568:CLK *4133:A1 9.71197e-05
20 *4568:RESET_B *4039:A 0.000221634
21 *4568:RESET_B *786:8 6.34478e-05
22 *252:10 *4038:A 0.000174805
23 *252:10 *4133:A1 0.000223592
24 *252:10 *786:10 0.000200413
25 *253:12 *4038:A 7.77751e-05
26 *253:46 *4038:A 5.83233e-05
27 *481:53 *4038:A 0
28 *702:27 *4038:A 0
*RES
1 *4566:Q *786:4 9.3 
2 *786:4 *786:8 8.73214 
3 *786:8 *786:10 2.55357 
4 *786:10 *4038:A 18.1393 
5 *786:10 *4128:A 13.8 
6 *786:8 *4133:A1 18.0321 
7 *786:4 *4039:A 11.9071 
*END

*D_NET *787 0.00317541
*CONN
*I *4133:A2 I *D sky130_fd_sc_hd__o31ai_2
*I *4131:A I *D sky130_fd_sc_hd__xnor2_2
*I *4039:B I *D sky130_fd_sc_hd__or4_2
*I *4567:Q O *D sky130_fd_sc_hd__dfrtp_2
*CAP
1 *4133:A2 3.98601e-05
2 *4131:A 0.000198076
3 *4039:B 0.000627578
4 *4567:Q 0.000154591
5 *787:21 0.00025135
6 *787:8 0.000795581
7 *4039:A *4039:B 6.94127e-05
8 *4130:A2 *4039:B 0.00010326
9 *4130:A2 *4131:A 0.000355758
10 *4130:A2 *787:21 4.90803e-05
11 *4133:A1 *4039:B 5.10822e-05
12 *4133:A1 *4131:A 1.76039e-05
13 *4133:A1 *787:8 3.69047e-06
14 *4133:A1 *787:21 3.17163e-05
15 *4477:RESET_B *787:8 5.76121e-05
16 *4568:CLK *787:8 2.39999e-05
17 *252:10 *4131:A 0.000122053
18 *786:8 *4039:B 0.000223102
*RES
1 *4567:Q *787:8 16.3893 
2 *787:8 *4039:B 22.2464 
3 *787:8 *787:21 0.732143 
4 *787:21 *4131:A 19.3179 
5 *787:21 *4133:A2 14.3357 
*END

*D_NET *788 0.00209319
*CONN
*I *4039:C I *D sky130_fd_sc_hd__or4_2
*I *4133:B1 I *D sky130_fd_sc_hd__o31ai_2
*I *4568:Q O *D sky130_fd_sc_hd__dfrtp_2
*CAP
1 *4039:C 4.26326e-05
2 *4133:B1 0.00050508
3 *4568:Q 0.000352674
4 *788:6 0.000900387
5 *4039:C *4477:D 6.74815e-05
6 *4134:B *4133:B1 5.52302e-05
7 *4568:CLK *4133:B1 1.56216e-05
8 *4568:D *4133:B1 2.59355e-05
9 *4568:RESET_B *4039:C 0.000128146
*RES
1 *4568:Q *788:6 13.1214 
2 *788:6 *4133:B1 15.5143 
3 *788:6 *4039:C 19.9429 
*END

*D_NET *789 0.00273175
*CONN
*I *4137:A I *D sky130_fd_sc_hd__nand2_2
*I *4040:A I *D sky130_fd_sc_hd__or3_2
*I *4136:A I *D sky130_fd_sc_hd__nor2_2
*I *4142:A1 I *D sky130_fd_sc_hd__o31a_2
*I *4569:Q O *D sky130_fd_sc_hd__dfrtp_2
*CAP
1 *4137:A 0.000224964
2 *4040:A 0
3 *4136:A 0.000189538
4 *4142:A1 7.12027e-05
5 *4569:Q 0.000179294
6 *789:27 0.00022778
7 *789:25 0.000301875
8 *789:10 0.000289165
9 *4137:A *4040:C 7.34839e-06
10 *4142:A1 *4040:B 5.74562e-05
11 *4142:A1 *4140:A 5.52302e-05
12 *4142:A1 *790:12 4.46186e-06
13 *789:10 *4040:B 6.42338e-05
14 *4136:B *4136:A 0.000155055
15 *4136:B *4137:A 6.25544e-05
16 *4137:B *4137:A 0
17 *4138:A_N *4136:A 9.7659e-05
18 *4138:B *4136:A 0.000487473
19 *4138:B *4137:A 3.72171e-05
20 *4569:RESET_B *789:10 1.40306e-05
21 *254:8 *4142:A1 0.000127446
22 *307:6 *4136:A 7.77652e-05
23 *660:12 *789:10 0
24 *699:22 *789:10 0
*RES
1 *4569:Q *789:10 16.8893 
2 *789:10 *4142:A1 15.9786 
3 *789:10 *789:25 5.03571 
4 *789:25 *789:27 0.732143 
5 *789:27 *4136:A 15.5857 
6 *789:27 *4040:A 9.3 
7 *789:25 *4137:A 13.5679 
*END

*D_NET *790 0.00186682
*CONN
*I *4040:B I *D sky130_fd_sc_hd__or3_2
*I *4140:A I *D sky130_fd_sc_hd__xnor2_2
*I *4142:A2 I *D sky130_fd_sc_hd__o31a_2
*I *4570:Q O *D sky130_fd_sc_hd__dfrtp_2
*CAP
1 *4040:B 0.0001586
2 *4140:A 0.000239337
3 *4142:A2 0
4 *4570:Q 0.000208301
5 *790:14 0.000239337
6 *790:12 0.000366901
7 *4040:B *4040:C 0.000150625
8 *4040:B *791:14 0
9 *4140:A *4040:C 1.97695e-05
10 *790:12 *791:14 0
11 *4142:A1 *4040:B 5.74562e-05
12 *4142:A1 *4140:A 5.52302e-05
13 *4142:A1 *790:12 4.46186e-06
14 *4143:B *4140:A 8.55687e-05
15 *254:8 *790:12 0.000152771
16 *449:362 *790:12 6.42242e-05
17 *699:22 *4040:B 0
18 *789:10 *4040:B 6.42338e-05
*RES
1 *4570:Q *790:12 18.8357 
2 *790:12 *790:14 4.5 
3 *790:14 *4142:A2 9.3 
4 *790:14 *4140:A 13.5679 
5 *790:12 *4040:B 16.9607 
*END

*D_NET *791 0.00251058
*CONN
*I *4040:C I *D sky130_fd_sc_hd__or3_2
*I *4142:B1 I *D sky130_fd_sc_hd__o31a_2
*I *4571:Q O *D sky130_fd_sc_hd__dfrtp_2
*CAP
1 *4040:C 0.000134375
2 *4142:B1 0
3 *4571:Q 0.00032669
4 *791:14 0.000461064
5 *4040:B *4040:C 0.000150625
6 *4040:B *791:14 0
7 *4137:A *4040:C 7.34839e-06
8 *4138:B *4040:C 1.51018e-05
9 *4140:A *4040:C 1.97695e-05
10 *4142:A3 *4040:C 2.44318e-05
11 *4142:A3 *791:14 9.90367e-05
12 *4571:RESET_B *791:14 5.52302e-05
13 *4572:RESET_B *791:14 9.25014e-06
14 *449:362 *791:14 7.79781e-06
15 *451:8 *791:14 0.000484585
16 *699:22 *4040:C 0
17 *699:22 *791:14 0.000406212
18 *699:24 *791:14 0.000215056
19 *699:26 *791:14 9.40095e-05
20 *790:12 *791:14 0
*RES
1 *4571:Q *791:14 29.0143 
2 *791:14 *4142:B1 9.3 
3 *791:14 *4040:C 21.3625 
*END

*D_NET *792 0.00275027
*CONN
*I *4145:A I *D sky130_fd_sc_hd__xnor2_2
*I *4042:A I *D sky130_fd_sc_hd__or4_2
*I *4147:A1 I *D sky130_fd_sc_hd__o31a_2
*I *4572:Q O *D sky130_fd_sc_hd__dfrtp_2
*CAP
1 *4145:A 0.000183715
2 *4042:A 0.00037478
3 *4147:A1 1.99857e-05
4 *4572:Q 0
5 *792:12 0.000572541
6 *792:6 0.000361491
7 *4042:D *4042:A 0.000108091
8 *4144:A1 *4145:A 9.71197e-05
9 *4144:B1 *4145:A 9.25014e-06
10 *4145:B *4145:A 5.52302e-05
11 *4147:A2 *4042:A 0.000279558
12 *4147:A2 *4147:A1 1.04232e-05
13 *4149:A *792:12 2.65105e-05
14 *254:8 *4145:A 0.000202806
15 *254:14 *4042:A 1.21289e-05
16 *254:14 *4145:A 3.17067e-05
17 *254:14 *792:12 0.000124994
18 *660:14 *4145:A 0.000224244
19 *660:14 *792:12 5.56943e-05
*RES
1 *4572:Q *792:6 13.8 
2 *792:6 *792:12 8.42857 
3 *792:12 *4147:A1 9.72857 
4 *792:12 *4042:A 16.425 
5 *792:6 *4145:A 20.3357 
*END

*D_NET *793 0.00393433
*CONN
*I *4096:B I *D sky130_fd_sc_hd__and2_2
*I *4101:A2 I *D sky130_fd_sc_hd__o31ai_2
*I *4030:B I *D sky130_fd_sc_hd__nor2_2
*I *4031:B I *D sky130_fd_sc_hd__or4_2
*I *4554:Q O *D sky130_fd_sc_hd__dfrtp_2
*CAP
1 *4096:B 0
2 *4101:A2 0
3 *4030:B 0.000160758
4 *4031:B 0.000280729
5 *4554:Q 0.000221013
6 *793:31 0.000160758
7 *793:18 0.000433858
8 *793:12 0.000374142
9 *4031:B *4101:A3 0.000172147
10 *793:18 *4101:A3 1.00887e-05
11 *4030:A *4030:B 0.000268842
12 *4096:A *793:12 0.00014285
13 *4097:A *4031:B 5.51716e-05
14 *4097:A *793:18 0.000162037
15 *4098:B1 *793:12 0.00044468
16 *4098:B1 *793:18 0.000140933
17 *4099:B *4031:B 0.000146254
18 *4103:A2 *4030:B 2.33087e-05
19 *244:8 *4030:B 0.00035408
20 *657:10 *793:12 0
21 *657:31 *793:12 3.17148e-05
22 *697:22 *4031:B 2.20111e-05
23 *697:22 *793:18 7.32366e-05
24 *711:23 *793:18 0
25 *711:27 *793:18 0
26 *711:55 *4031:B 0.000224582
27 *782:12 *793:12 0
28 *782:29 *4030:B 3.11361e-05
*RES
1 *4554:Q *793:12 24.175 
2 *793:12 *793:18 8.71429 
3 *793:18 *4031:B 19.1393 
4 *793:18 *793:31 4.5 
5 *793:31 *4030:B 14.3893 
6 *793:31 *4101:A2 9.3 
7 *793:12 *4096:B 9.3 
*END

*D_NET *794 0.000720134
*CONN
*I *4821:A I *D sky130_fd_sc_hd__dlygate4sd3_1
*I *4042:B I *D sky130_fd_sc_hd__or4_2
*I *4573:Q O *D sky130_fd_sc_hd__dfrtp_2
*CAP
1 *4821:A 9.80814e-05
2 *4042:B 7.82297e-05
3 *4573:Q 3.53023e-05
4 *794:6 0.000211613
5 *4147:B1 *794:6 5.62995e-05
6 *4148:A1 *4821:A 0.000117621
7 *4148:A1 *794:6 7.7233e-05
8 *256:8 *4042:B 4.57538e-05
9 *531:32 *4042:B 0
*RES
1 *4573:Q *794:6 10.6571 
2 *794:6 *4042:B 19.9429 
3 *794:6 *4821:A 11.4786 
*END

*D_NET *795 0.00211567
*CONN
*I *3845:A I *D sky130_fd_sc_hd__inv_2
*I *4043:A I *D sky130_fd_sc_hd__nor2_2
*I *4792:A I *D sky130_fd_sc_hd__dlygate4sd3_1
*I *4574:Q O *D sky130_fd_sc_hd__dfrtp_2
*CAP
1 *3845:A 0.000254719
2 *4043:A 0.000216674
3 *4792:A 0
4 *4574:Q 0.000262686
5 *795:19 0.000496687
6 *795:10 0.000287981
7 *4043:B *4043:A 5.71472e-05
8 *4114:A2 *3845:A 0
9 *4114:B1 *3845:A 0.000211205
10 *4114:B1 *4043:A 0.000176234
11 *256:8 *3845:A 0
12 *479:23 *795:10 9.90367e-05
13 *479:23 *795:19 5.33005e-05
14 *479:27 *4043:A 0
15 *531:95 *3845:A 0
*RES
1 *4574:Q *795:10 13.675 
2 *795:10 *4792:A 9.3 
3 *795:10 *795:19 5.03571 
4 *795:19 *4043:A 18.2286 
5 *795:19 *3845:A 18.7821 
*END

*D_NET *796 0.00155395
*CONN
*I *4031:C I *D sky130_fd_sc_hd__or4_2
*I *4099:A I *D sky130_fd_sc_hd__xnor2_2
*I *4101:A3 I *D sky130_fd_sc_hd__o31ai_2
*I *4555:Q O *D sky130_fd_sc_hd__dfrtp_2
*CAP
1 *4031:C 0
2 *4099:A 0
3 *4101:A3 6.26677e-05
4 *4555:Q 0.000233033
5 *796:16 0.000140116
6 *796:12 0.000310482
7 *796:12 *797:10 0.000120368
8 *4031:B *4101:A3 0.000172147
9 *4555:RESET_B *796:12 3.37618e-05
10 *657:31 *796:16 0.000121466
11 *697:22 *4101:A3 9.04756e-05
12 *697:22 *796:12 3.56785e-05
13 *711:55 *796:16 0.00022367
14 *793:18 *4101:A3 1.00887e-05
*RES
1 *4555:Q *796:12 22.9071 
2 *796:12 *796:16 2.60714 
3 *796:16 *4101:A3 20.55 
4 *796:16 *4099:A 9.3 
5 *796:12 *4031:C 9.3 
*END

*D_NET *797 0.00119212
*CONN
*I *4101:B1 I *D sky130_fd_sc_hd__o31ai_2
*I *4031:D I *D sky130_fd_sc_hd__or4_2
*I *4556:Q O *D sky130_fd_sc_hd__dfrtp_2
*CAP
1 *4101:B1 6.36232e-05
2 *4031:D 0
3 *4556:Q 0.000357585
4 *797:10 0.000421208
5 *4031:A *4101:B1 4.87841e-05
6 *4031:A *797:10 3.67279e-06
7 *4557:RESET_B *797:10 3.45253e-05
8 *697:22 *4101:B1 7.14533e-05
9 *697:22 *797:10 7.09043e-05
10 *796:12 *797:10 0.000120368
*RES
1 *4556:Q *797:10 19.1571 
2 *797:10 *4031:D 13.8 
3 *797:10 *4101:B1 15.7464 
*END

*D_NET *798 0.00437718
*CONN
*I *4033:A I *D sky130_fd_sc_hd__or4_2
*I *4109:A1 I *D sky130_fd_sc_hd__o31ai_2
*I *4032:A I *D sky130_fd_sc_hd__nor2_2
*I *4104:A I *D sky130_fd_sc_hd__and2_2
*I *4557:Q O *D sky130_fd_sc_hd__dfrtp_2
*CAP
1 *4033:A 0.000255944
2 *4109:A1 2.50978e-05
3 *4032:A 0.000521922
4 *4104:A 0.000263227
5 *4557:Q 0.000119157
6 *798:40 0.000308363
7 *798:21 0.000615802
8 *798:8 0.000448943
9 *4032:A *4107:A 0.000272338
10 *4033:A *4033:B 6.34034e-05
11 *4033:A *4033:C 5.66971e-05
12 *4033:A *799:6 1.58163e-05
13 *4109:A1 *4107:A 5.49995e-05
14 *4033:D *4033:A 0.000141941
15 *4106:A1 *4032:A 0.000100165
16 *4107:B *4032:A 0.000167128
17 *4108:A1 *4032:A 0.000138053
18 *4110:B *4033:A 0.000173614
19 *4110:B *798:21 9.15842e-06
20 *4110:B *798:40 5.36422e-05
21 *245:27 *4104:A 0.000444292
22 *245:27 *798:21 2.73164e-05
23 *246:8 *4032:A 0.000100165
*RES
1 *4557:Q *798:8 15.1571 
2 *798:8 *4104:A 20.3714 
3 *798:8 *798:21 1.33929 
4 *798:21 *4032:A 24.8893 
5 *798:21 *798:40 0.732143 
6 *798:40 *4109:A1 14.3357 
7 *798:40 *4033:A 19.8714 
*END

*D_NET *799 0.00172769
*CONN
*I *4033:B I *D sky130_fd_sc_hd__or4_2
*I *4109:A2 I *D sky130_fd_sc_hd__o31ai_2
*I *4107:A I *D sky130_fd_sc_hd__xnor2_2
*I *4558:Q O *D sky130_fd_sc_hd__dfrtp_2
*CAP
1 *4033:B 0.000126691
2 *4109:A2 0
3 *4107:A 0.00016738
4 *4558:Q 4.91556e-05
5 *799:12 0.000257692
6 *799:6 0.000266158
7 *4032:A *4107:A 0.000272338
8 *4033:A *4033:B 6.34034e-05
9 *4033:A *799:6 1.58163e-05
10 *4033:D *799:12 0.000142351
11 *4109:A1 *4107:A 5.49995e-05
12 *4110:B *4107:A 5.50052e-05
13 *4110:B *799:12 0.000246611
14 *245:27 *799:12 1.00887e-05
*RES
1 *4558:Q *799:6 9.83571 
2 *799:6 *799:12 12.1607 
3 *799:12 *4107:A 13.5679 
4 *799:12 *4109:A2 9.3 
5 *799:6 *4033:B 11.0679 
*END

*D_NET *800 0.00128242
*CONN
*I *4033:C I *D sky130_fd_sc_hd__or4_2
*I *4109:B1 I *D sky130_fd_sc_hd__o31ai_2
*I *4559:Q O *D sky130_fd_sc_hd__dfrtp_2
*CAP
1 *4033:C 0.000168182
2 *4109:B1 0.000347532
3 *4559:Q 9.71489e-05
4 *800:8 0.000612863
5 *4033:A *4033:C 5.66971e-05
6 *247:12 *800:8 0
*RES
1 *4559:Q *800:8 15.4429 
2 *800:8 *4109:B1 19.4607 
3 *800:8 *4033:C 16.8 
*END

*D_NET *801 0.00353895
*CONN
*I *4034:A I *D sky130_fd_sc_hd__nor2_2
*I *4117:A1 I *D sky130_fd_sc_hd__o31ai_2
*I *4035:A I *D sky130_fd_sc_hd__or4_2
*I *4112:A I *D sky130_fd_sc_hd__and2_2
*I *4560:Q O *D sky130_fd_sc_hd__dfrtp_2
*CAP
1 *4034:A 0.00014578
2 *4117:A1 0.00042414
3 *4035:A 0.000191282
4 *4112:A 0.000123338
5 *4560:Q 0
6 *801:19 0.000720209
7 *801:6 0.000228125
8 *801:4 0.00014578
9 *4035:A *4035:C 2.27416e-05
10 *4117:A1 *4035:C 0
11 *4117:A1 *4117:A2 2.43274e-05
12 *4117:A1 *4117:B1 0
13 *4035:D *4035:A 4.27935e-05
14 *4112:B *4112:A 0.00010096
15 *4113:A *4112:A 0
16 *4113:A *801:19 0
17 *4115:B *4117:A1 0
18 *4115:B *801:19 0
19 *4117:A3 *4035:A 0.000137983
20 *4117:A3 *4117:A1 0.00060785
21 *4118:B *4117:A1 8.06427e-05
22 *4559:RESET_B *801:19 1.17968e-05
23 *4560:RESET_B *4034:A 1.98839e-05
24 *4716:A *4117:A1 5.7836e-06
25 *247:31 *4034:A 9.60939e-05
26 *247:31 *4112:A 0.000176234
27 *247:31 *801:19 3.34366e-05
28 *698:23 *4117:A1 0.000116183
29 *698:25 *4117:A1 2.61337e-05
30 *698:25 *801:19 5.74562e-05
*RES
1 *4560:Q *801:4 9.3 
2 *801:4 *801:6 4.5 
3 *801:6 *4112:A 16.9964 
4 *801:6 *801:19 2.25 
5 *801:19 *4035:A 17.2286 
6 *801:19 *4117:A1 24.7286 
7 *801:4 *4034:A 11.9071 
*END

*D_NET *802 0.00182952
*CONN
*I *4035:B I *D sky130_fd_sc_hd__or4_2
*I *4117:A2 I *D sky130_fd_sc_hd__o31ai_2
*I *4115:A I *D sky130_fd_sc_hd__xnor2_2
*I *4561:Q O *D sky130_fd_sc_hd__dfrtp_2
*CAP
1 *4035:B 0.000110667
2 *4117:A2 0.000165941
3 *4115:A 2.52229e-05
4 *4561:Q 0
5 *802:10 0.000454782
6 *802:4 0.000374285
7 *4035:D *4035:B 1.92905e-05
8 *4115:B *802:10 0
9 *4117:A1 *4117:A2 2.43274e-05
10 *4117:A3 *4035:B 1.21258e-05
11 *4117:A3 *4117:A2 0.000173804
12 *4117:A3 *802:10 0.000320738
13 *4119:A2 *4115:A 5.52238e-05
14 *4561:RESET_B *4035:B 2.14658e-05
15 *4561:RESET_B *802:10 7.16452e-05
*RES
1 *4561:Q *802:4 9.3 
2 *802:4 *802:10 9.92857 
3 *802:10 *4115:A 14.3357 
4 *802:10 *4117:A2 17.3179 
5 *802:4 *4035:B 10.6571 
*END

*D_NET *803 0.00137815
*CONN
*I *4117:B1 I *D sky130_fd_sc_hd__o31ai_2
*I *4035:C I *D sky130_fd_sc_hd__or4_2
*I *4562:Q O *D sky130_fd_sc_hd__dfrtp_2
*CAP
1 *4117:B1 0.000346508
2 *4035:C 0.000177404
3 *4562:Q 0
4 *803:6 0.000523912
5 *4035:A *4035:C 2.27416e-05
6 *4117:A1 *4035:C 0
7 *4117:A1 *4117:B1 0
8 *4118:B *4117:B1 0
9 *249:8 *4035:C 0.000108848
10 *249:8 *4117:B1 6.74911e-05
11 *249:17 *4117:B1 0.000131247
12 *698:23 *4035:C 0
*RES
1 *4562:Q *803:6 13.8 
2 *803:6 *4035:C 17.6214 
3 *803:6 *4117:B1 20.6571 
*END

*D_NET *804 0.000666412
*CONN
*I *4598:A I *D sky130_fd_sc_hd__buf_2
*I *4029:Y O *D sky130_fd_sc_hd__inv_2
*CAP
1 *4598:A 0.000158489
2 *4029:Y 0.000158489
3 *4853:A *4598:A 5.79792e-05
4 *542:10 *4598:A 7.89362e-05
5 *564:30 *4598:A 1.34741e-05
6 *564:38 *4598:A 0.000199045
*RES
1 *4029:Y *4598:A 31.975 
*END

*D_NET *805 0.00144445
*CONN
*I *4531:D I *D sky130_fd_sc_hd__dfrtp_2
*I *4152:Y O *D sky130_fd_sc_hd__o21ai_2
*CAP
1 *4531:D 0.000325039
2 *4152:Y 0.000325039
3 *4531:D *4153:B 0.000449546
4 *4531:D *838:8 5.01213e-05
5 *4532:RESET_B *4531:D 5.10822e-05
6 *4552:RESET_B *4531:D 1.31516e-05
7 *4660:A *4531:D 0.000230475
8 *553:10 *4531:D 0
9 *696:16 *4531:D 0
*RES
1 *4152:Y *4531:D 35.9036 
*END

*D_NET *806 0.000292505
*CONN
*I *4541:D I *D sky130_fd_sc_hd__dfrtp_2
*I *4179:Y O *D sky130_fd_sc_hd__o21ai_2
*CAP
1 *4541:D 0.000107525
2 *4179:Y 0.000107525
3 *4541:D *828:6 1.29901e-05
4 *652:56 *4541:D 6.44649e-05
*RES
1 *4179:Y *4541:D 29.7786 
*END

*D_NET *807 0.000980159
*CONN
*I *4542:D I *D sky130_fd_sc_hd__dfrtp_2
*I *4181:Y O *D sky130_fd_sc_hd__o21ai_2
*CAP
1 *4542:D 0.000301155
2 *4181:Y 0.000301155
3 *4021:D *4542:D 0.000163714
4 *4181:A2 *4542:D 0.000107067
5 *542:35 *4542:D 0.000107067
*RES
1 *4181:Y *4542:D 34.975 
*END

*D_NET *808 0.000804381
*CONN
*I *4543:D I *D sky130_fd_sc_hd__dfrtp_2
*I *4184:Y O *D sky130_fd_sc_hd__o21ai_2
*CAP
1 *4543:D 0.000231442
2 *4184:Y 0.000231442
3 *4182:A3 *4543:D 0
4 *473:24 *4543:D 0
5 *542:43 *4543:D 4.87953e-05
6 *652:56 *4543:D 0.000292701
*RES
1 *4184:Y *4543:D 32.3143 
*END

*D_NET *809 0.0012597
*CONN
*I *4544:D I *D sky130_fd_sc_hd__dfrtp_2
*I *4187:Y O *D sky130_fd_sc_hd__o21ai_2
*CAP
1 *4544:D 0.000451788
2 *4187:Y 0.000451788
3 *4544:D *831:10 6.05161e-06
4 *4544:D *832:10 0.000149959
5 *4187:A2 *4544:D 7.8195e-05
6 *4544:RESET_B *4544:D 0.000121922
*RES
1 *4187:Y *4544:D 36.6357 
*END

*D_NET *810 0.00137887
*CONN
*I *4545:D I *D sky130_fd_sc_hd__dfrtp_2
*I *4189:Y O *D sky130_fd_sc_hd__o21ai_2
*CAP
1 *4545:D 0.000343859
2 *4189:Y 0.000343859
3 *4187:A1 *4545:D 3.39181e-05
4 *4187:B1 *4545:D 0.000119003
5 *4545:CLK *4545:D 0.000248255
6 *236:10 *4545:D 0.000139202
7 *474:31 *4545:D 0.000150773
*RES
1 *4189:Y *4545:D 35.8143 
*END

*D_NET *811 0.000449281
*CONN
*I *4546:D I *D sky130_fd_sc_hd__dfrtp_2
*I *4192:Y O *D sky130_fd_sc_hd__o21ai_2
*CAP
1 *4546:D 0.000172012
2 *4192:Y 0.000172012
3 *4192:A2 *4546:D 4.77058e-05
4 *474:25 *4546:D 5.38783e-05
5 *474:31 *4546:D 3.67279e-06
*RES
1 *4192:Y *4546:D 30.9036 
*END

*D_NET *812 0.000388882
*CONN
*I *4547:D I *D sky130_fd_sc_hd__dfrtp_2
*I *4196:Y O *D sky130_fd_sc_hd__o21ai_2
*CAP
1 *4547:D 0.000108656
2 *4196:Y 0.000108656
3 *4547:D *4025:A 1.46624e-05
4 *4547:D *834:23 2.34204e-05
5 *4196:A1 *4547:D 2.11419e-05
6 *4196:A2 *4547:D 5.54183e-05
7 *474:82 *4547:D 5.69278e-05
8 *696:81 *4547:D 0
*RES
1 *4196:Y *4547:D 30.1536 
*END

*D_NET *813 0.000593079
*CONN
*I *4548:D I *D sky130_fd_sc_hd__dfrtp_2
*I *4199:Y O *D sky130_fd_sc_hd__o21ai_2
*CAP
1 *4548:D 9.35951e-05
2 *4199:Y 9.35951e-05
3 *4195:B *4548:D 0.00022609
4 *4196:A2 *4548:D 4.0597e-05
5 *4548:CLK *4548:D 0.000139202
*RES
1 *4199:Y *4548:D 21.7429 
*END

*D_NET *814 0.000475121
*CONN
*I *4549:D I *D sky130_fd_sc_hd__dfrtp_2
*I *4201:Y O *D sky130_fd_sc_hd__o21ai_2
*CAP
1 *4549:D 0.000196764
2 *4201:Y 0.000196764
3 *4627:A *4549:D 8.15939e-05
*RES
1 *4201:Y *4549:D 31.3143 
*END

*D_NET *815 0.0010913
*CONN
*I *4550:D I *D sky130_fd_sc_hd__dfrtp_2
*I *4203:Y O *D sky130_fd_sc_hd__o21ai_2
*CAP
1 *4550:D 0.000380472
2 *4203:Y 0.000380472
3 *4203:A2 *4550:D 0.000219896
4 *4661:A *4550:D 1.77867e-05
5 *464:10 *4550:D 8.66228e-05
6 *564:14 *4550:D 6.05161e-06
*RES
1 *4203:Y *4550:D 34.1 
*END

*D_NET *816 0.00108432
*CONN
*I *4532:D I *D sky130_fd_sc_hd__dfrtp_2
*I *4155:Y O *D sky130_fd_sc_hd__o21ai_2
*CAP
1 *4532:D 0.000286507
2 *4155:Y 0.000286507
3 *4532:D *4158:A1 0.000103253
4 *4532:D *827:10 0.000202128
5 *4532:D *827:12 0.000128154
6 *4155:A2 *4532:D 7.77751e-05
7 *4156:B *4532:D 0
8 *553:10 *4532:D 0
9 *553:16 *4532:D 0
*RES
1 *4155:Y *4532:D 34.2429 
*END

*D_NET *817 0.00143666
*CONN
*I *4551:D I *D sky130_fd_sc_hd__dfrtp_2
*I *4205:Y O *D sky130_fd_sc_hd__o211ai_2
*CAP
1 *4551:D 0.000371311
2 *4205:Y 0.000371311
3 *4551:D *4791:A 5.83304e-05
4 *4551:D *840:8 6.05161e-06
5 *4551:D *840:12 0.000414762
6 *4028:B *4551:D 1.02504e-05
7 *4551:CLK *4551:D 0.000204644
8 *464:10 *4551:D 0
*RES
1 *4205:Y *4551:D 35.6714 
*END

*D_NET *818 0.00117405
*CONN
*I *4552:D I *D sky130_fd_sc_hd__dfrtp_2
*I *4206:X O *D sky130_fd_sc_hd__a21bo_2
*CAP
1 *4552:D 0.000207267
2 *4206:X 0.000207267
3 *4532:RESET_B *4552:D 5.10822e-05
4 *4552:RESET_B *4552:D 8.28057e-05
5 *475:8 *4552:D 5.66157e-05
6 *475:12 *4552:D 0.000126439
7 *475:43 *4552:D 9.76491e-05
8 *696:16 *4552:D 0.000344925
*RES
1 *4206:X *4552:D 34.1536 
*END

*D_NET *819 0.000742707
*CONN
*I *4533:D I *D sky130_fd_sc_hd__dfrtp_2
*I *4157:Y O *D sky130_fd_sc_hd__o21ai_2
*CAP
1 *4533:D 0.000207802
2 *4157:Y 0.000207802
3 *4157:A2 *4533:D 0.000106488
4 *4160:A2 *4533:D 0.00014285
5 *473:16 *4533:D 7.77652e-05
6 *473:22 *4533:D 0
7 *473:24 *4533:D 0
*RES
1 *4157:Y *4533:D 32.725 
*END

*D_NET *820 0.000755541
*CONN
*I *4534:D I *D sky130_fd_sc_hd__dfrtp_2
*I *4160:Y O *D sky130_fd_sc_hd__o21ai_2
*CAP
1 *4534:D 0.000350155
2 *4160:Y 0.000350155
3 *4157:B1 *4534:D 0
4 *4166:A3 *4534:D 0
5 *4534:CLK *4534:D 5.52302e-05
6 *232:8 *4534:D 0
*RES
1 *4160:Y *4534:D 33.0643 
*END

*D_NET *821 0.000519852
*CONN
*I *4535:D I *D sky130_fd_sc_hd__dfrtp_2
*I *4163:Y O *D sky130_fd_sc_hd__o21ai_2
*CAP
1 *4535:D 0.000123484
2 *4163:Y 0.000123484
3 *4163:B1 *4535:D 5.52238e-05
4 *4165:A1 *4535:D 9.60875e-05
5 *4165:A2 *4535:D 0
6 *4165:B1 *4535:D 0.000121573
*RES
1 *4163:Y *4535:D 30.1893 
*END

*D_NET *822 0.000953485
*CONN
*I *4536:D I *D sky130_fd_sc_hd__dfrtp_2
*I *4165:Y O *D sky130_fd_sc_hd__o21ai_2
*CAP
1 *4536:D 0.000330593
2 *4165:Y 0.000330593
3 *4536:D *4166:A1 0.000106488
4 *4165:A2 *4536:D 0
5 *4535:RESET_B *4536:D 0.000185811
*RES
1 *4165:Y *4536:D 33.5464 
*END

*D_NET *823 0.000791406
*CONN
*I *4537:D I *D sky130_fd_sc_hd__dfrtp_2
*I *4168:Y O *D sky130_fd_sc_hd__o21ai_2
*CAP
1 *4537:D 0.000276764
2 *4168:Y 0.000276764
3 *4168:A1 *4537:D 0
4 *4537:CLK *4537:D 7.3237e-05
5 *493:12 *4537:D 4.57538e-05
6 *542:43 *4537:D 0.000118887
*RES
1 *4168:Y *4537:D 33.0643 
*END

*D_NET *824 0.000357449
*CONN
*I *4538:D I *D sky130_fd_sc_hd__dfrtp_2
*I *4171:Y O *D sky130_fd_sc_hd__o21ai_2
*CAP
1 *4538:D 4.42518e-05
2 *4171:Y 4.42518e-05
3 *4176:A1 *4538:D 0.000125679
4 *4176:B1 *4538:D 9.15842e-06
5 *652:10 *4538:D 1.00887e-05
6 *652:12 *4538:D 0.000124019
*RES
1 *4171:Y *4538:D 29.2429 
*END

*D_NET *825 0.000947604
*CONN
*I *4539:D I *D sky130_fd_sc_hd__dfrtp_2
*I *4173:Y O *D sky130_fd_sc_hd__o21ai_2
*CAP
1 *4539:D 0.000369979
2 *4173:Y 0.000369979
3 *4173:A1 *4539:D 0
4 *493:14 *4539:D 2.58997e-05
5 *493:16 *4539:D 0.000181747
6 *542:45 *4539:D 0
*RES
1 *4173:Y *4539:D 34.7607 
*END

*D_NET *826 0.00039679
*CONN
*I *4540:D I *D sky130_fd_sc_hd__dfrtp_2
*I *4176:Y O *D sky130_fd_sc_hd__o21ai_2
*CAP
1 *4540:D 0.000198395
2 *4176:Y 0.000198395
*RES
1 *4176:Y *4540:D 30.725 
*END

*D_NET *827 0.0042615
*CONN
*I *4153:A I *D sky130_fd_sc_hd__and2_2
*I *4777:A I *D sky130_fd_sc_hd__dlygate4sd3_1
*I *4015:A I *D sky130_fd_sc_hd__or4_2
*I *4014:A I *D sky130_fd_sc_hd__nor2_2
*I *4158:A1 I *D sky130_fd_sc_hd__o31ai_2
*I *4531:Q O *D sky130_fd_sc_hd__dfrtp_2
*CAP
1 *4153:A 0
2 *4777:A 0.000244383
3 *4015:A 9.08086e-05
4 *4014:A 0
5 *4158:A1 0.000206104
6 *4531:Q 0.000213777
7 *827:33 0.000147402
8 *827:27 0.000642781
9 *827:12 0.000585298
10 *827:10 0.000251167
11 *4015:A *4014:B 1.33343e-05
12 *4015:A *4015:C 0.000184745
13 *4015:A *838:21 1.38323e-05
14 *4777:A *4153:B 0.000119193
15 *4777:A *838:12 0
16 *827:33 *4014:B 3.4855e-05
17 *4152:A1 *4777:A 5.52302e-05
18 *4152:B1 *4777:A 0.000101545
19 *4154:A *827:27 0.000310292
20 *4155:A2 *4158:A1 5.59013e-05
21 *4155:A2 *827:12 9.30093e-05
22 *4155:B1 *827:27 2.14658e-05
23 *4156:B *4158:A1 0
24 *4532:CLK *4158:A1 0.000113868
25 *4532:CLK *827:10 0.000103041
26 *4532:CLK *827:12 1.31516e-05
27 *4532:D *4158:A1 0.000103253
28 *4532:D *827:10 0.000202128
29 *4532:D *827:12 0.000128154
30 *4660:A *4777:A 1.15281e-05
31 *229:6 *827:27 9.90431e-05
32 *230:27 *4158:A1 0.000102207
33 *553:10 *827:10 0
*RES
1 *4531:Q *827:10 18.7107 
2 *827:10 *827:12 1.64286 
3 *827:12 *4158:A1 19.0321 
4 *827:12 *827:27 9.14286 
5 *827:27 *827:33 1.39286 
6 *827:33 *4014:A 9.3 
7 *827:33 *4015:A 11.4786 
8 *827:27 *4777:A 23.0679 
9 *827:10 *4153:A 13.8 
*END

*D_NET *828 0.00448188
*CONN
*I *4021:A I *D sky130_fd_sc_hd__or4_2
*I *4182:A1 I *D sky130_fd_sc_hd__o31ai_2
*I *4177:A I *D sky130_fd_sc_hd__and2_2
*I *4020:A I *D sky130_fd_sc_hd__nor2_2
*I *4541:Q O *D sky130_fd_sc_hd__dfrtp_2
*CAP
1 *4021:A 0.000293892
2 *4182:A1 0.000359889
3 *4177:A 0
4 *4020:A 4.92961e-05
5 *4541:Q 0
6 *828:17 0.000476285
7 *828:6 0.000923225
8 *828:4 0.00105143
9 *4021:A *4021:C 1.90223e-05
10 *4020:B *4020:A 1.02301e-05
11 *4020:B *828:6 1.16543e-05
12 *4180:B *828:17 0.000149392
13 *4182:A3 *4182:A1 0.000269422
14 *4541:CLK *828:6 2.59355e-05
15 *4541:CLK *828:17 0.00014852
16 *4541:D *828:6 1.29901e-05
17 *4541:RESET_B *828:6 1.86681e-05
18 *4544:RESET_B *4021:A 6.99261e-05
19 *4544:RESET_B *828:6 3.15815e-05
20 *232:16 *4182:A1 0
21 *473:24 *4182:A1 0.000167691
22 *473:26 *4182:A1 0.000228382
23 *473:26 *828:17 0.000164455
*RES
1 *4541:Q *828:4 9.3 
2 *828:4 *828:6 8.75 
3 *828:6 *4020:A 10.3357 
4 *828:6 *828:17 8.57143 
5 *828:17 *4177:A 13.8 
6 *828:17 *4182:A1 22.1929 
7 *828:4 *4021:A 22.8357 
*END

*D_NET *829 0.00213621
*CONN
*I *4182:A2 I *D sky130_fd_sc_hd__o31ai_2
*I *4180:A I *D sky130_fd_sc_hd__xnor2_2
*I *4021:B I *D sky130_fd_sc_hd__or4_2
*I *4542:Q O *D sky130_fd_sc_hd__dfrtp_2
*CAP
1 *4182:A2 0.000284849
2 *4180:A 9.53131e-05
3 *4021:B 6.80789e-05
4 *4542:Q 0.000411411
5 *829:22 0.000723494
6 *4182:A2 *4182:B1 5.33882e-05
7 *4021:D *4021:B 2.68557e-05
8 *4021:D *829:22 0.000117178
9 *4178:A *4180:A 5.49995e-05
10 *4178:B *4180:A 7.15503e-05
11 *4181:A2 *829:22 7.74135e-05
12 *4182:A3 *4182:A2 4.22908e-05
13 *542:35 *4182:A2 0
14 *693:16 *4182:A2 5.90443e-06
15 *693:18 *4182:A2 8.42554e-05
16 *693:18 *829:22 1.92303e-05
*RES
1 *4542:Q *4021:B 19.5464 
2 *4542:Q *829:22 18.7464 
3 *829:22 *4180:A 15.9964 
4 *829:22 *4182:A2 19.9607 
*END

*D_NET *830 0.00136741
*CONN
*I *4182:B1 I *D sky130_fd_sc_hd__o31ai_2
*I *4021:C I *D sky130_fd_sc_hd__or4_2
*I *4543:Q O *D sky130_fd_sc_hd__dfrtp_2
*CAP
1 *4182:B1 0.00026514
2 *4021:C 0.00033073
3 *4543:Q 0.00059587
4 *4021:A *4021:C 1.90223e-05
5 *4182:A2 *4182:B1 5.33882e-05
6 *4189:B1 *4021:C 0
7 *693:16 *4182:B1 0.00010326
8 *693:18 *4021:C 0
*RES
1 *4543:Q *4021:C 32.9214 
2 *4543:Q *4182:B1 31.5286 
*END

*D_NET *831 0.00415649
*CONN
*I *4022:A I *D sky130_fd_sc_hd__nor2_2
*I *4185:A I *D sky130_fd_sc_hd__and2_2
*I *4024:A I *D sky130_fd_sc_hd__or3_2
*I *4026:A I *D sky130_fd_sc_hd__or4_2
*I *4190:A1 I *D sky130_fd_sc_hd__o31ai_2
*I *4544:Q O *D sky130_fd_sc_hd__dfrtp_2
*CAP
1 *4022:A 2.30719e-05
2 *4185:A 0
3 *4024:A 0.000427331
4 *4026:A 0
5 *4190:A1 0.000127538
6 *4544:Q 0
7 *831:55 0.000149321
8 *831:25 0.000548907
9 *831:10 0.000861893
10 *831:4 0.000739028
11 *831:10 *832:10 0.000146208
12 *831:10 *832:21 0.000329514
13 *831:25 *4023:A 9.22594e-05
14 *831:25 *4190:A2 2.51845e-05
15 *831:25 *832:21 9.97164e-05
16 *4022:B *4022:A 5.14783e-05
17 *4026:B *4024:A 2.42564e-05
18 *4026:B *831:25 8.46259e-06
19 *4185:B *4022:A 1.32693e-05
20 *4186:A *831:55 0.00012249
21 *4188:B *4022:A 7.48833e-07
22 *4190:A3 *4190:A1 6.05161e-06
23 *4192:A2 *4190:A1 9.82345e-05
24 *4200:A1 *4024:A 1.46148e-05
25 *4200:A2 *4024:A 1.24368e-05
26 *4200:B1_N *4024:A 8.20547e-05
27 *4544:D *831:10 6.05161e-06
28 *237:8 *4022:A 6.03873e-05
29 *239:14 *4024:A 3.96245e-05
30 *241:8 *4024:A 4.6361e-05
31 *474:25 *4024:A 0
32 *474:25 *831:25 0
*RES
1 *4544:Q *831:4 9.3 
2 *831:4 *831:10 14.5179 
3 *831:10 *4190:A1 16.425 
4 *831:10 *831:25 2.85714 
5 *831:25 *4026:A 13.8 
6 *831:25 *4024:A 20.425 
7 *831:4 *831:55 11.1786 
8 *831:55 *4185:A 9.3 
9 *831:55 *4022:A 10.4429 
*END

*D_NET *832 0.00302392
*CONN
*I *4023:A I *D sky130_fd_sc_hd__or2_2
*I *4190:A2 I *D sky130_fd_sc_hd__o31ai_2
*I *4188:A I *D sky130_fd_sc_hd__xnor2_2
*I *4545:Q O *D sky130_fd_sc_hd__dfrtp_2
*CAP
1 *4023:A 0.000156009
2 *4190:A2 0.00014392
3 *4188:A 3.04135e-05
4 *4545:Q 0.000227978
5 *832:21 0.00047675
6 *832:10 0.000435213
7 *4024:C *4023:A 6.05161e-06
8 *4026:B *4023:A 4.72217e-05
9 *4026:B *832:21 4.30904e-05
10 *4026:D *4023:A 0.000142856
11 *4192:A2 *4190:A2 0.000137561
12 *4544:D *832:10 0.000149959
13 *4545:RESET_B *832:10 5.66472e-05
14 *236:10 *4188:A 5.33005e-05
15 *236:14 *832:10 1.41642e-05
16 *236:14 *832:21 0.000171627
17 *238:6 *4023:A 3.8274e-05
18 *474:25 *4190:A2 0
19 *831:10 *832:10 0.000146208
20 *831:10 *832:21 0.000329514
21 *831:25 *4023:A 9.22594e-05
22 *831:25 *4190:A2 2.51845e-05
23 *831:25 *832:21 9.97164e-05
*RES
1 *4545:Q *832:10 18.7107 
2 *832:10 *4188:A 14.3357 
3 *832:10 *832:21 5.58929 
4 *832:21 *4190:A2 24.8893 
5 *832:21 *4023:A 17.3179 
*END

*D_NET *833 0.00116771
*CONN
*I *4023:B I *D sky130_fd_sc_hd__or2_2
*I *4190:B1 I *D sky130_fd_sc_hd__o31ai_2
*I *4546:Q O *D sky130_fd_sc_hd__dfrtp_2
*CAP
1 *4023:B 7.49681e-05
2 *4190:B1 8.6243e-05
3 *4546:Q 0.00021303
4 *833:10 0.000374241
5 *4026:B *4023:B 0
6 *4191:A *4023:B 7.68486e-05
7 *4191:A *833:10 1.28585e-05
8 *4191:B *4190:B1 0.000186669
9 *4192:A2 *4190:B1 0.000142856
10 *236:14 *833:10 0
*RES
1 *4546:Q *833:10 16.8446 
2 *833:10 *4190:B1 16.3804 
3 *833:10 *4023:B 15.5946 
*END

*D_NET *834 0.00511052
*CONN
*I *4193:A I *D sky130_fd_sc_hd__nor2_2
*I *4197:A I *D sky130_fd_sc_hd__or3_2
*I *4025:A I *D sky130_fd_sc_hd__or3_2
*I *4194:A I *D sky130_fd_sc_hd__nand2_2
*I *4547:Q O *D sky130_fd_sc_hd__dfrtp_2
*CAP
1 *4193:A 3.35478e-05
2 *4197:A 0.00012482
3 *4025:A 0.000297119
4 *4194:A 8.4999e-05
5 *4547:Q 0.00029621
6 *834:38 0.000460551
7 *834:23 0.000847634
8 *834:6 0.00062954
9 *4025:A *4025:B 0.000583446
10 *4025:A *4025:C 0.00036496
11 *4025:A *4198:A 0.000164841
12 *4194:B *4197:A 1.02504e-05
13 *4195:B *4194:A 0.000198698
14 *4196:A2 *4025:A 1.24548e-05
15 *4202:B *4194:A 0.000271797
16 *4547:D *4025:A 1.46624e-05
17 *4547:D *834:23 2.34204e-05
18 *4547:RESET_B *834:6 9.49958e-05
19 *4549:RESET_B *4025:A 0
20 *239:46 *4197:A 0.000179656
21 *342:12 *834:38 0.000269428
22 *474:82 *4197:A 2.26424e-05
23 *696:81 *4025:A 0.000103313
24 *696:81 *834:23 2.1527e-05
*RES
1 *4547:Q *834:6 12.7107 
2 *834:6 *4194:A 21.7643 
3 *834:6 *834:23 7.71429 
4 *834:23 *4025:A 24.2464 
5 *834:23 *834:38 8.64286 
6 *834:38 *4197:A 21.1571 
7 *834:38 *4193:A 9.83571 
*END

*D_NET *835 0.00278245
*CONN
*I *4197:B I *D sky130_fd_sc_hd__or3_2
*I *4198:A I *D sky130_fd_sc_hd__xnor2_2
*I *4025:B I *D sky130_fd_sc_hd__or3_2
*I *4548:Q O *D sky130_fd_sc_hd__dfrtp_2
*CAP
1 *4197:B 6.99743e-05
2 *4198:A 0.000226253
3 *4025:B 0.000247298
4 *4548:Q 0.000152049
5 *835:8 0.000555626
6 *4025:A *4025:B 0.000583446
7 *4025:A *4198:A 0.000164841
8 *4026:D *4025:B 5.80706e-06
9 *4191:A *4025:B 4.38604e-05
10 *4196:A2 *4025:B 8.15095e-05
11 *4196:A2 *4198:A 0.000173384
12 *4196:A2 *835:8 1.58163e-05
13 *4196:B1 *4198:A 0.000213841
14 *239:31 *4025:B 0.000160291
15 *239:31 *4197:B 2.77173e-05
16 *239:31 *835:8 1.33343e-05
17 *239:46 *4197:B 6.05161e-06
18 *342:12 *4198:A 4.13496e-05
*RES
1 *4548:Q *835:8 15.1571 
2 *835:8 *4025:B 22.1214 
3 *835:8 *4198:A 19.4786 
4 *4548:Q *4197:B 19.5464 
*END

*D_NET *836 0.00134324
*CONN
*I *4789:A I *D sky130_fd_sc_hd__dlygate4sd3_1
*I *4025:C I *D sky130_fd_sc_hd__or3_2
*I *4549:Q O *D sky130_fd_sc_hd__dfrtp_2
*CAP
1 *4789:A 0.00017922
2 *4025:C 0.000130398
3 *4549:Q 6.81387e-05
4 *836:6 0.000377757
5 *4025:A *4025:C 0.00036496
6 *4200:A1 *4025:C 0.00016495
7 *4200:A1 *836:6 5.03772e-05
8 *4549:RESET_B *836:6 7.43578e-06
*RES
1 *4549:Q *836:6 10.6571 
2 *836:6 *4025:C 22.9786 
3 *836:6 *4789:A 11.8893 
*END

*D_NET *837 0.0030631
*CONN
*I *4027:A I *D sky130_fd_sc_hd__or3_2
*I *4204:A1 I *D sky130_fd_sc_hd__o21ai_2
*I *4202:A I *D sky130_fd_sc_hd__xor2_2
*I *4550:Q O *D sky130_fd_sc_hd__dfrtp_2
*CAP
1 *4027:A 6.50037e-05
2 *4204:A1 0.000404531
3 *4202:A 0.000156208
4 *4550:Q 0
5 *837:6 0.000560739
6 *837:4 6.50037e-05
7 *4204:A1 *4027:B 4.57445e-05
8 *4204:A1 *4742:A 4.98055e-06
9 *4027:C *4027:A 9.90431e-05
10 *4204:A2 *4202:A 3.34366e-05
11 *4204:A2 *4204:A1 0.000891243
12 *4570:CLK *4204:A1 0.000184635
13 *4629:A *4204:A1 2.80632e-05
14 *4743:A *4204:A1 5.49489e-05
15 *241:40 *4202:A 0.000339925
16 *242:12 *4202:A 0.000129595
*RES
1 *4550:Q *837:4 9.3 
2 *837:4 *837:6 4.5 
3 *837:6 *4202:A 18.5321 
4 *837:6 *4204:A1 25.2643 
5 *837:4 *4027:A 10.6571 
*END

*D_NET *838 0.0037626
*CONN
*I *4153:B I *D sky130_fd_sc_hd__and2_2
*I *4014:B I *D sky130_fd_sc_hd__nor2_2
*I *4158:A2 I *D sky130_fd_sc_hd__o31ai_2
*I *4015:B I *D sky130_fd_sc_hd__or4_2
*I *4532:Q O *D sky130_fd_sc_hd__dfrtp_2
*CAP
1 *4153:B 0.00026581
2 *4014:B 5.61906e-05
3 *4158:A2 0.000149505
4 *4015:B 0
5 *4532:Q 6.85798e-05
6 *838:21 0.000340175
7 *838:12 0.000331333
8 *838:8 0.000531244
9 *4158:A2 *4015:C 0.000137224
10 *4158:A2 *4158:A3 9.90431e-05
11 *4158:A2 *841:21 9.25014e-06
12 *838:12 *4015:C 0
13 *838:12 *4015:D 0.000102545
14 *838:21 *4015:C 0.000184745
15 *4015:A *4014:B 1.33343e-05
16 *4015:A *838:21 1.38323e-05
17 *4152:A1 *4153:B 0.000232399
18 *4152:B1 *4153:B 0.000139097
19 *4152:B1 *838:12 0
20 *4154:B *4153:B 0
21 *4155:A2 *4153:B 2.59355e-05
22 *4531:D *4153:B 0.000449546
23 *4531:D *838:8 5.01213e-05
24 *4660:A *4153:B 4.58976e-05
25 *4777:A *4153:B 0.000119193
26 *4777:A *838:12 0
27 *230:8 *838:12 5.80706e-06
28 *230:27 *4158:A2 0.00018077
29 *653:70 *4158:A2 7.50601e-05
30 *653:70 *838:12 0
31 *696:16 *838:8 4.25809e-05
32 *696:16 *838:12 5.85228e-05
33 *827:33 *4014:B 3.4855e-05
*RES
1 *4532:Q *838:8 15.4429 
2 *838:8 *838:12 7.96429 
3 *838:12 *4015:B 9.3 
4 *838:12 *838:21 2.60714 
5 *838:21 *4158:A2 22.4429 
6 *838:21 *4014:B 10.6929 
7 *838:8 *4153:B 22.1571 
*END

*D_NET *839 0.00108893
*CONN
*I *4742:A I *D sky130_fd_sc_hd__dlygate4sd3_1
*I *4027:B I *D sky130_fd_sc_hd__or3_2
*I *4551:Q O *D sky130_fd_sc_hd__dfrtp_2
*CAP
1 *4742:A 9.92487e-05
2 *4027:B 7.72952e-05
3 *4551:Q 0.000211521
4 *839:8 0.000388065
5 *4204:A1 *4027:B 4.57445e-05
6 *4204:A1 *4742:A 4.98055e-06
7 *4551:RESET_B *839:8 2.89016e-05
8 *4570:CLK *4742:A 0.000177948
9 *4570:CLK *839:8 5.52238e-05
*RES
1 *4551:Q *839:8 17.2107 
2 *839:8 *4027:B 15.4429 
3 *839:8 *4742:A 16.3536 
*END

*D_NET *840 0.00388307
*CONN
*I *4791:A I *D sky130_fd_sc_hd__dlygate4sd3_1
*I *3844:A I *D sky130_fd_sc_hd__inv_2
*I *4028:A I *D sky130_fd_sc_hd__nor2_2
*I *4552:Q O *D sky130_fd_sc_hd__dfrtp_2
*CAP
1 *4791:A 0.000297394
2 *3844:A 0.000306924
3 *4028:A 0
4 *4552:Q 4.06461e-05
5 *840:12 0.000505621
6 *840:8 0.000536738
7 *4028:B *840:12 8.56716e-05
8 *4203:A2 *3844:A 0.000101987
9 *4203:B1 *3844:A 7.2261e-05
10 *4205:A1 *840:12 0.000224592
11 *4206:A1 *4791:A 5.03772e-05
12 *4551:D *4791:A 5.83304e-05
13 *4551:D *840:8 6.05161e-06
14 *4551:D *840:12 0.000414762
15 *4660:A *3844:A 0.000174012
16 *4661:A *3844:A 0.000237164
17 *4676:A *4791:A 0.000187009
18 *4676:A *840:12 0.00019198
19 *449:296 *4791:A 0.000143566
20 *449:300 *4791:A 0
21 *449:322 *4791:A 0.000117621
22 *464:10 *3844:A 6.44241e-05
23 *564:95 *3844:A 6.59408e-05
*RES
1 *4552:Q *840:8 14.3357 
2 *840:8 *840:12 11.9107 
3 *840:12 *4028:A 9.3 
4 *840:12 *3844:A 25.6929 
5 *840:8 *4791:A 20.9964 
*END

*D_NET *841 0.00251184
*CONN
*I *4015:C I *D sky130_fd_sc_hd__or4_2
*I *4158:A3 I *D sky130_fd_sc_hd__o31ai_2
*I *4156:A I *D sky130_fd_sc_hd__xnor2_2
*I *4533:Q O *D sky130_fd_sc_hd__dfrtp_2
*CAP
1 *4015:C 0.00014856
2 *4158:A3 8.63419e-05
3 *4156:A 3.04135e-05
4 *4533:Q 0.00027909
5 *841:21 0.000314786
6 *841:10 0.000389388
7 *4015:C *4015:D 6.05161e-06
8 *4158:A3 *4158:B1 1.24368e-05
9 *4015:A *4015:C 0.000184745
10 *4158:A2 *4015:C 0.000137224
11 *4158:A2 *4158:A3 9.90431e-05
12 *4158:A2 *841:21 9.25014e-06
13 *4159:A *4015:C 1.76039e-05
14 *4159:A *841:10 6.74192e-05
15 *4159:A *841:21 0.000103285
16 *4159:B *841:10 0.000144903
17 *4159:B *841:21 0.000143804
18 *4160:A2 *841:10 9.33978e-07
19 *4533:RESET_B *841:10 9.51514e-06
20 *230:8 *4015:C 4.56594e-05
21 *230:27 *4158:A3 2.14658e-05
22 *653:70 *4015:C 1.00375e-05
23 *653:70 *841:21 1.18358e-05
24 *653:96 *4156:A 5.33005e-05
25 *838:12 *4015:C 0
26 *838:21 *4015:C 0.000184745
*RES
1 *4533:Q *841:10 17.925 
2 *841:10 *4156:A 14.3357 
3 *841:10 *841:21 2.55357 
4 *841:21 *4158:A3 15.5857 
5 *841:21 *4015:C 18.2286 
*END

*D_NET *842 0.00183431
*CONN
*I *4015:D I *D sky130_fd_sc_hd__or4_2
*I *4158:B1 I *D sky130_fd_sc_hd__o31ai_2
*I *4534:Q O *D sky130_fd_sc_hd__dfrtp_2
*CAP
1 *4015:D 0.000184093
2 *4158:B1 0.000132973
3 *4534:Q 0.000289954
4 *842:8 0.00060702
5 *4015:C *4015:D 6.05161e-06
6 *4158:A3 *4158:B1 1.24368e-05
7 *4159:A *4015:D 2.6949e-05
8 *4159:A *842:8 7.79781e-06
9 *4201:B1 *4015:D 0
10 *4201:B1 *842:8 0
11 *230:8 *4015:D 2.84009e-05
12 *230:27 *4158:B1 2.95726e-05
13 *655:32 *4158:B1 3.47797e-05
14 *655:46 *842:8 0
15 *693:8 *842:8 0.000186869
16 *693:10 *842:8 5.33882e-05
17 *696:16 *4015:D 0.000131481
18 *838:12 *4015:D 0.000102545
*RES
1 *4534:Q *842:8 19.9964 
2 *842:8 *4158:B1 15.9786 
3 *842:8 *4015:D 18.2107 
*END

*D_NET *843 0.00538576
*CONN
*I *4161:A I *D sky130_fd_sc_hd__and2_2
*I *4166:A1 I *D sky130_fd_sc_hd__o31ai_2
*I *4017:A I *D sky130_fd_sc_hd__or4_2
*I *4016:A I *D sky130_fd_sc_hd__nor2_2
*I *4535:Q O *D sky130_fd_sc_hd__dfrtp_2
*CAP
1 *4161:A 0
2 *4166:A1 0.000619725
3 *4017:A 0.000244851
4 *4016:A 1.99857e-05
5 *4535:Q 0.000264206
6 *843:42 0.000802974
7 *843:14 0.000394549
8 *843:10 0.000577168
9 *4166:A1 *4166:A2 0
10 *4160:A1 *4017:A 0
11 *4161:B *843:42 0.000170955
12 *4163:A2 *4166:A1 0
13 *4165:A1 *4166:A1 4.25622e-05
14 *4165:A2 *4166:A1 0
15 *4165:B1 *4166:A1 7.2754e-05
16 *4166:A3 *4017:A 4.1331e-06
17 *4168:B1 *4166:A1 5.71472e-05
18 *4535:CLK *4166:A1 0.000129166
19 *4535:RESET_B *843:10 2.27416e-05
20 *4536:D *4166:A1 0.000106488
21 *4677:A *843:42 9.24203e-05
22 *4699:A *843:10 7.61043e-05
23 *4699:A *843:42 7.04444e-05
24 *3:14 *4166:A1 0
25 *230:27 *4016:A 1.04232e-05
26 *230:27 *4017:A 2.89016e-05
27 *230:27 *843:14 2.44318e-05
28 *230:31 *843:14 5.52302e-05
29 *230:33 *4017:A 0.000123937
30 *231:8 *843:14 2.89114e-05
31 *493:10 *4166:A1 7.92879e-05
32 *493:12 *4166:A1 0.000103958
33 *553:59 *4017:A 4.18895e-05
34 *553:59 *843:14 0.000393949
35 *653:10 *4166:A1 0.000142943
36 *653:10 *843:42 0.000276211
37 *653:36 *843:42 0.000139907
38 *655:8 *843:14 8.25843e-06
39 *655:32 *843:14 7.48301e-06
40 *682:27 *4166:A1 0.000122101
41 *682:27 *843:42 2.95641e-05
*RES
1 *4535:Q *843:10 17.3179 
2 *843:10 *843:14 8.32143 
3 *843:14 *4016:A 9.72857 
4 *843:14 *4017:A 23.5143 
5 *843:10 *843:42 11.3036 
6 *843:42 *4166:A1 33.2821 
7 *843:42 *4161:A 9.3 
*END

*D_NET *844 0.00294855
*CONN
*I *4017:B I *D sky130_fd_sc_hd__or4_2
*I *4164:A I *D sky130_fd_sc_hd__xnor2_2
*I *4166:A2 I *D sky130_fd_sc_hd__o31ai_2
*I *4536:Q O *D sky130_fd_sc_hd__dfrtp_2
*CAP
1 *4017:B 0.000245713
2 *4164:A 0
3 *4166:A2 0.000614963
4 *4536:Q 0.000102845
5 *844:27 0.000348065
6 *844:6 0.000820161
7 *4017:B *4017:C 2.59355e-05
8 *4165:A2 *4017:B 0
9 *4166:A1 *4166:A2 0
10 *4166:A3 *4166:A2 9.90367e-05
11 *4168:A2 *844:6 9.60939e-05
12 *4168:A2 *844:27 3.34366e-05
13 *4168:B1 *4166:A2 1.04232e-05
14 *4536:RESET_B *4017:B 8.32171e-05
15 *4536:RESET_B *4166:A2 1.25672e-06
16 *4536:RESET_B *844:6 7.00171e-06
17 *4536:RESET_B *844:27 0.000153054
18 *4674:A *844:27 3.55407e-05
19 *493:12 *4166:A2 0
20 *652:6 *4166:A2 0.000188586
21 *680:25 *4166:A2 0
22 *680:25 *844:27 8.32242e-05
*RES
1 *4536:Q *844:6 10.6571 
2 *844:6 *4166:A2 27.3893 
3 *844:6 *844:27 7.66071 
4 *844:27 *4164:A 13.8 
5 *844:27 *4017:B 17.0143 
*END

*D_NET *845 0.00258556
*CONN
*I *4017:C I *D sky130_fd_sc_hd__or4_2
*I *4166:B1 I *D sky130_fd_sc_hd__o31ai_2
*I *4537:Q O *D sky130_fd_sc_hd__dfrtp_2
*CAP
1 *4017:C 0.000220331
2 *4166:B1 9.23631e-05
3 *4537:Q 8.9411e-05
4 *845:8 0.000402105
5 *4017:B *4017:C 2.59355e-05
6 *4164:B *4017:C 3.51442e-05
7 *4166:A3 *4017:C 0.000342495
8 *4166:A3 *4166:B1 0.000465036
9 *4674:A *4017:C 0.000197233
10 *4674:A *4166:B1 5.71472e-05
11 *230:33 *4017:C 2.31791e-05
12 *232:16 *4017:C 0
13 *232:16 *845:8 0
14 *652:6 *4166:B1 0.000276211
15 *652:52 *4166:B1 0.000358971
16 *680:25 *845:8 0
*RES
1 *4537:Q *845:8 15.1393 
2 *845:8 *4166:B1 19.675 
3 *845:8 *4017:C 20.3357 
*END

*D_NET *846 0.00262501
*CONN
*I *4169:A I *D sky130_fd_sc_hd__and2_2
*I *4019:A I *D sky130_fd_sc_hd__or4_2
*I *4018:A I *D sky130_fd_sc_hd__nor2_2
*I *4174:A1 I *D sky130_fd_sc_hd__o31ai_2
*I *4538:Q O *D sky130_fd_sc_hd__dfrtp_2
*CAP
1 *4169:A 7.42927e-05
2 *4019:A 3.64069e-05
3 *4018:A 0.000136719
4 *4174:A1 0
5 *4538:Q 0
6 *846:30 0.000278015
7 *846:12 0.000554755
8 *846:4 0.000585351
9 *846:12 *4019:B 1.29975e-05
10 *846:12 *847:16 3.11367e-05
11 *846:30 *4019:B 1.97617e-05
12 *4018:B *4018:A 0.000415381
13 *4019:D *4169:A 0.000124749
14 *4019:D *846:30 9.58632e-05
15 *4170:A *846:12 1.70057e-05
16 *4171:A2 *4018:A 5.49995e-05
17 *4171:A2 *846:12 2.53112e-06
18 *4172:B *846:12 2.09722e-05
19 *4173:A2 *846:12 9.33978e-07
20 *4538:RESET_B *846:12 4.83849e-05
21 *233:8 *4018:A 0.000114748
*RES
1 *4538:Q *846:4 9.3 
2 *846:4 *846:12 14.4643 
3 *846:12 *4174:A1 9.3 
4 *846:12 *4018:A 13.9786 
5 *846:4 *846:30 2.17857 
6 *846:30 *4019:A 10.0321 
7 *846:30 *4169:A 19.9429 
*END

*D_NET *847 0.00202041
*CONN
*I *4174:A2 I *D sky130_fd_sc_hd__o31ai_2
*I *4019:B I *D sky130_fd_sc_hd__or4_2
*I *4172:A I *D sky130_fd_sc_hd__xnor2_2
*I *4539:Q O *D sky130_fd_sc_hd__dfrtp_2
*CAP
1 *4174:A2 0
2 *4019:B 9.07511e-05
3 *4172:A 9.13501e-05
4 *4539:Q 0.000257675
5 *847:16 0.000372744
6 *847:10 0.000448318
7 *4019:D *4019:B 4.93118e-06
8 *4170:A *847:10 0.000138858
9 *4170:A *847:16 5.74309e-05
10 *4172:B *847:16 0.000173152
11 *4538:RESET_B *847:16 1.60121e-05
12 *4539:RESET_B *847:10 1.20135e-05
13 *4540:RESET_B *4172:A 0.000172877
14 *4540:RESET_B *847:16 2.84565e-05
15 *680:29 *847:10 4.67875e-05
16 *680:29 *847:16 4.51556e-05
17 *846:12 *4019:B 1.29975e-05
18 *846:12 *847:16 3.11367e-05
19 *846:30 *4019:B 1.97617e-05
*RES
1 *4539:Q *847:10 17.925 
2 *847:10 *847:16 9.125 
3 *847:16 *4172:A 20.55 
4 *847:16 *4019:B 11.0857 
5 *847:10 *4174:A2 13.8 
*END

*D_NET *848 0.00111342
*CONN
*I *4174:B1 I *D sky130_fd_sc_hd__o31ai_2
*I *4019:C I *D sky130_fd_sc_hd__or4_2
*I *4540:Q O *D sky130_fd_sc_hd__dfrtp_2
*CAP
1 *4174:B1 0.000179739
2 *4019:C 0
3 *4540:Q 0.00024476
4 *848:8 0.000424499
5 *4019:D *4174:B1 0.00012249
6 *232:31 *4174:B1 0.000141935
*RES
1 *4540:Q *848:8 17.8714 
2 *848:8 *4019:C 13.8 
3 *848:8 *4174:B1 17.4071 
*END

*D_NET *849 0.000600627
*CONN
*I *4599:A I *D sky130_fd_sc_hd__buf_2
*I *4013:Y O *D sky130_fd_sc_hd__inv_2
*CAP
1 *4599:A 0.000290994
2 *4013:Y 0.000290994
3 *4212:B *4599:A 1.86395e-05
*RES
1 *4013:Y *4599:A 31.725 
*END

*D_NET *850 0.000639354
*CONN
*I *4509:D I *D sky130_fd_sc_hd__dfrtp_2
*I *4208:Y O *D sky130_fd_sc_hd__o21ai_2
*CAP
1 *4509:D 0.000207727
2 *4208:Y 0.000207727
3 *4211:B1 *4509:D 0.00015234
4 *492:16 *4509:D 7.15591e-05
*RES
1 *4208:Y *4509:D 31.3679 
*END

*D_NET *851 0.00110088
*CONN
*I *4519:D I *D sky130_fd_sc_hd__dfrtp_2
*I *4235:Y O *D sky130_fd_sc_hd__o21ai_2
*CAP
1 *4519:D 0.000181941
2 *4235:Y 0.000181941
3 *4235:A1 *4519:D 0.000225314
4 *220:38 *4519:D 0.000195481
5 *477:20 *4519:D 4.83933e-05
6 *575:14 *4519:D 0.000267807
*RES
1 *4235:Y *4519:D 33.9795 
*END

*D_NET *852 0.000754815
*CONN
*I *4520:D I *D sky130_fd_sc_hd__dfrtp_2
*I *4237:Y O *D sky130_fd_sc_hd__o21ai_2
*CAP
1 *4520:D 0.000247041
2 *4237:Y 0.000247041
3 *4520:D *873:8 0
4 *4520:D *873:23 0
5 *4237:A1 *4520:D 2.89016e-05
6 *4237:A2 *4520:D 0
7 *4519:RESET_B *4520:D 0
8 *218:25 *4520:D 0.000101545
9 *661:12 *4520:D 0.000130286
*RES
1 *4237:Y *4520:D 32.9214 
*END

*D_NET *853 0.000650438
*CONN
*I *4521:D I *D sky130_fd_sc_hd__dfrtp_2
*I *4240:Y O *D sky130_fd_sc_hd__o21ai_2
*CAP
1 *4521:D 8.23663e-05
2 *4240:Y 8.23663e-05
3 *4240:A2 *4521:D 0.000137983
4 *4240:B1 *4521:D 0.000178519
5 *4520:CLK *4521:D 4.59075e-05
6 *661:12 *4521:D 0.000123295
*RES
1 *4240:Y *4521:D 30.6 
*END

*D_NET *854 0.00026944
*CONN
*I *4522:D I *D sky130_fd_sc_hd__dfrtp_2
*I *4243:Y O *D sky130_fd_sc_hd__o21ai_2
*CAP
1 *4522:D 5.5644e-05
2 *4243:Y 5.5644e-05
3 *4242:A *4522:D 8.06331e-05
4 *4245:A1 *4522:D 6.74815e-05
5 *488:67 *4522:D 1.00375e-05
*RES
1 *4243:Y *4522:D 29.5464 
*END

*D_NET *855 0.000498263
*CONN
*I *4523:D I *D sky130_fd_sc_hd__dfrtp_2
*I *4245:Y O *D sky130_fd_sc_hd__o21ai_2
*CAP
1 *4523:D 9.04245e-05
2 *4245:Y 9.04245e-05
3 *4523:D *4241:A 5.33334e-05
4 *4523:D *876:20 6.05161e-06
5 *4245:A1 *4523:D 0.000128161
6 *4245:A2 *4523:D 0.000129868
*RES
1 *4245:Y *4523:D 30.1893 
*END

*D_NET *856 0.00105373
*CONN
*I *4524:D I *D sky130_fd_sc_hd__dfrtp_2
*I *4248:Y O *D sky130_fd_sc_hd__o21ai_2
*CAP
1 *4524:D 0.000257818
2 *4248:Y 0.000257818
3 *4524:D *4246:A2 0.000248486
4 *4524:D *876:16 0.000184635
5 *4245:B1 *4524:D 0
6 *4248:A2 *4524:D 0.000104974
7 *450:10 *4524:D 0
*RES
1 *4248:Y *4524:D 34.4036 
*END

*D_NET *857 0.000311797
*CONN
*I *4525:D I *D sky130_fd_sc_hd__dfrtp_2
*I *4252:Y O *D sky130_fd_sc_hd__o21ai_2
*CAP
1 *4525:D 7.85175e-05
2 *4252:Y 7.85175e-05
3 *4252:A2 *4525:D 0.000154762
4 *492:58 *4525:D 0
*RES
1 *4252:Y *4525:D 29.5464 
*END

*D_NET *858 0.00138838
*CONN
*I *4526:D I *D sky130_fd_sc_hd__dfrtp_2
*I *4254:Y O *D sky130_fd_sc_hd__o21ai_2
*CAP
1 *4526:D 0.000296539
2 *4254:Y 0.000296539
3 *4210:B *4526:D 3.4879e-05
4 *4254:A2 *4526:D 0.000512608
5 *4662:A *4526:D 2.8266e-06
6 *597:20 *4526:D 0
7 *597:31 *4526:D 0.000148903
8 *662:8 *4526:D 9.60875e-05
*RES
1 *4254:Y *4526:D 35.5821 
*END

*D_NET *859 0.000467009
*CONN
*I *4527:D I *D sky130_fd_sc_hd__dfrtp_2
*I *4257:Y O *D sky130_fd_sc_hd__o21ai_2
*CAP
1 *4527:D 7.17975e-05
2 *4257:Y 7.17975e-05
3 *4527:D *879:25 5.33005e-05
4 *4527:CLK *4527:D 2.59355e-05
5 *4662:A *4527:D 0.000122089
6 *597:10 *4527:D 0.000122089
*RES
1 *4257:Y *4527:D 29.7786 
*END

*D_NET *860 0.000716524
*CONN
*I *4528:D I *D sky130_fd_sc_hd__dfrtp_2
*I *4259:Y O *D sky130_fd_sc_hd__o21ai_2
*CAP
1 *4528:D 0.00018002
2 *4259:Y 0.00018002
3 *4259:A2 *4528:D 6.86792e-05
4 *4262:A *4528:D 0.000109809
5 *608:14 *4528:D 0.000160382
6 *608:16 *4528:D 1.76135e-05
*RES
1 *4259:Y *4528:D 31.9214 
*END

*D_NET *861 0.00044832
*CONN
*I *4510:D I *D sky130_fd_sc_hd__dfrtp_2
*I *4211:Y O *D sky130_fd_sc_hd__o21ai_2
*CAP
1 *4510:D 8.73686e-05
2 *4211:Y 8.73686e-05
3 *4211:A1 *4510:D 8.67547e-05
4 *4211:A2 *4510:D 0.000180777
5 *597:52 *4510:D 6.05161e-06
*RES
1 *4211:Y *4510:D 20.7786 
*END

*D_NET *862 0.00163754
*CONN
*I *4529:D I *D sky130_fd_sc_hd__dfrtp_2
*I *4262:X O *D sky130_fd_sc_hd__or2_2
*CAP
1 *4529:D 0.000516933
2 *4262:X 0.000516933
3 *4529:D *3843:A 5.52238e-05
4 *4529:D *885:8 0
5 *4529:D *885:19 0
6 *4262:A *4529:D 0
7 *107:24 *4529:D 0.000119512
8 *681:75 *4529:D 9.91086e-05
9 *682:14 *4529:D 0.000329835
*RES
1 *4262:X *4529:D 39.0107 
*END

*D_NET *863 0.000273905
*CONN
*I *4530:D I *D sky130_fd_sc_hd__dfrtp_2
*I *4263:X O *D sky130_fd_sc_hd__a21bo_2
*CAP
1 *4530:D 5.63192e-05
2 *4263:X 5.63192e-05
3 *4261:B1 *4530:D 8.06331e-05
4 *227:21 *4530:D 8.06331e-05
*RES
1 *4263:X *4530:D 29.5464 
*END

*D_NET *864 0.000364997
*CONN
*I *4511:D I *D sky130_fd_sc_hd__dfrtp_2
*I *4213:Y O *D sky130_fd_sc_hd__o21ai_2
*CAP
1 *4511:D 0.000106608
2 *4213:Y 0.000106608
3 *4213:A1 *4511:D 5.50052e-05
4 *4511:CLK *4511:D 9.67754e-05
*RES
1 *4213:Y *4511:D 20.7786 
*END

*D_NET *865 0.00041344
*CONN
*I *4512:D I *D sky130_fd_sc_hd__dfrtp_2
*I *4216:Y O *D sky130_fd_sc_hd__o21ai_2
*CAP
1 *4512:D 7.98694e-05
2 *4216:Y 7.98694e-05
3 *4216:A1 *4512:D 0.000126851
4 *4216:B1 *4512:D 0.000126851
*RES
1 *4216:Y *4512:D 29.7786 
*END

*D_NET *866 0.00150451
*CONN
*I *4513:D I *D sky130_fd_sc_hd__dfrtp_2
*I *4219:Y O *D sky130_fd_sc_hd__o21ai_2
*CAP
1 *4513:D 0.000480419
2 *4219:Y 0.000480419
3 *4219:A1 *4513:D 8.43535e-06
4 *4219:A2 *4513:D 0.000193257
5 *4227:A1 *4513:D 5.66971e-05
6 *4515:CLK *4513:D 0.000137639
7 *575:24 *4513:D 9.96553e-05
8 *661:22 *4513:D 4.79864e-05
*RES
1 *4219:Y *4513:D 35.9214 
*END

*D_NET *867 0.000423249
*CONN
*I *4514:D I *D sky130_fd_sc_hd__dfrtp_2
*I *4221:Y O *D sky130_fd_sc_hd__o21ai_2
*CAP
1 *4514:D 8.67787e-05
2 *4221:Y 8.67787e-05
3 *4221:A1 *4514:D 0.000124012
4 *4221:B1 *4514:D 0.000125679
*RES
1 *4221:Y *4514:D 29.7786 
*END

*D_NET *868 0.00104594
*CONN
*I *4515:D I *D sky130_fd_sc_hd__dfrtp_2
*I *4224:Y O *D sky130_fd_sc_hd__o21ai_2
*CAP
1 *4515:D 0.000319419
2 *4224:Y 0.000319419
3 *4515:D *4002:A 3.5707e-05
4 *4515:D *4002:B 0
5 *4515:D *4002:C 0.000137983
6 *4223:B *4515:D 0.000165521
7 *661:18 *4515:D 6.78942e-05
*RES
1 *4224:Y *4515:D 34.6714 
*END

*D_NET *869 0.00142049
*CONN
*I *4516:D I *D sky130_fd_sc_hd__dfrtp_2
*I *4227:Y O *D sky130_fd_sc_hd__o21ai_2
*CAP
1 *4516:D 0.000539038
2 *4227:Y 0.000539038
3 *4516:D *894:12 0.000170301
4 *4227:A1 *4516:D 2.36643e-05
5 *4227:B1 *4516:D 9.99853e-05
6 *4516:RESET_B *4516:D 4.84658e-05
*RES
1 *4227:Y *4516:D 37.4929 
*END

*D_NET *870 0.00126615
*CONN
*I *4517:D I *D sky130_fd_sc_hd__dfrtp_2
*I *4229:Y O *D sky130_fd_sc_hd__o21ai_2
*CAP
1 *4517:D 0.00044417
2 *4229:Y 0.00044417
3 *4517:D *4003:A 5.52031e-05
4 *4003:B *4517:D 8.60531e-05
5 *4226:A *4517:D 9.11048e-06
6 *4228:B *4517:D 0.000170438
7 *4229:A2 *4517:D 5.70016e-05
*RES
1 *4229:Y *4517:D 36.225 
*END

*D_NET *871 0.000625259
*CONN
*I *4518:D I *D sky130_fd_sc_hd__dfrtp_2
*I *4232:Y O *D sky130_fd_sc_hd__o21ai_2
*CAP
1 *4518:D 0.000295058
2 *4232:Y 0.000295058
3 *4232:B1 *4518:D 3.51444e-05
*RES
1 *4232:Y *4518:D 31.5464 
*END

*D_NET *872 0.00330811
*CONN
*I *4209:A I *D sky130_fd_sc_hd__and2_2
*I *3999:A I *D sky130_fd_sc_hd__nor2_2
*I *4776:A I *D sky130_fd_sc_hd__dlygate4sd3_1
*I *4214:A1 I *D sky130_fd_sc_hd__o31ai_2
*I *4000:A I *D sky130_fd_sc_hd__or4_2
*I *4509:Q O *D sky130_fd_sc_hd__dfrtp_2
*CAP
1 *4209:A 0
2 *3999:A 0.000129994
3 *4776:A 0
4 *4214:A1 1.82034e-05
5 *4000:A 0.000152185
6 *4509:Q 0.000212236
7 *872:47 0.000187305
8 *872:40 0.000285387
9 *872:14 0.000528028
10 *872:10 0.000797951
11 *3999:A *3999:B 8.83295e-05
12 *4000:A *4000:C 5.50052e-05
13 *872:10 *4214:B1 8.67814e-06
14 *872:10 *883:34 0
15 *872:14 *4214:B1 5.49995e-05
16 *872:40 *4214:B1 0.000140243
17 *4208:A1 *4000:A 2.85321e-05
18 *4208:A1 *872:14 8.44266e-05
19 *4210:A *4000:A 4.76424e-05
20 *4213:A2 *4000:A 1.98839e-05
21 *4215:B *872:14 9.67754e-05
22 *597:75 *4000:A 0.00015078
23 *662:40 *872:14 1.19813e-05
24 *679:25 *872:10 5.56943e-05
25 *679:34 *872:10 0.000153849
*RES
1 *4509:Q *872:10 23.2821 
2 *872:10 *872:14 4.66071 
3 *872:14 *4000:A 21.7286 
4 *872:14 *4214:A1 9.72857 
5 *872:10 *872:40 3.32143 
6 *872:40 *4776:A 9.3 
7 *872:40 *872:47 0.946429 
8 *872:47 *3999:A 20.55 
9 *872:47 *4209:A 9.3 
*END

*D_NET *873 0.00596726
*CONN
*I *4006:A I *D sky130_fd_sc_hd__or4_2
*I *4238:A1 I *D sky130_fd_sc_hd__o31ai_2
*I *4005:A I *D sky130_fd_sc_hd__nor2_2
*I *4233:A I *D sky130_fd_sc_hd__and2_2
*I *4519:Q O *D sky130_fd_sc_hd__dfrtp_2
*CAP
1 *4006:A 0.00018274
2 *4238:A1 0.000236456
3 *4005:A 0.000280174
4 *4233:A 0.000773984
5 *4519:Q 5.35369e-05
6 *873:25 0.000588836
7 *873:23 0.000475677
8 *873:8 0.00104825
9 *4005:A *4236:A 5.71472e-05
10 *4005:A *874:32 4.18895e-05
11 *4006:A *4006:B 4.0342e-06
12 *4238:A1 *4238:A2 0.000250821
13 *873:25 *874:32 9.60939e-05
14 *4006:D *4005:A 1.69961e-05
15 *4006:D *4006:A 7.72233e-05
16 *4006:D *873:25 2.14658e-05
17 *4007:B *4238:A1 4.69963e-05
18 *4234:A *4005:A 1.33343e-05
19 *4236:B *4005:A 0.000139907
20 *4237:A2 *873:8 3.92757e-05
21 *4237:A2 *873:23 6.7257e-05
22 *4238:A3 *4238:A1 1.31516e-05
23 *4240:A2 *4233:A 4.92208e-05
24 *4240:A2 *873:23 0.000479464
25 *4240:B1 *4238:A1 0
26 *4520:CLK *4233:A 7.77751e-05
27 *4520:D *873:8 0
28 *4520:D *873:23 0
29 *4520:RESET_B *873:23 6.32633e-05
30 *220:21 *4233:A 5.7661e-06
31 *220:38 *4233:A 0.000166203
32 *220:47 *4005:A 0.000128044
33 *661:12 *873:23 0
34 *677:33 *4238:A1 0.000268528
35 *677:33 *873:23 0.000203742
*RES
1 *4519:Q *873:8 14.8357 
2 *873:8 *4233:A 23.6929 
3 *873:8 *873:23 12.2143 
4 *873:23 *873:25 1.35714 
5 *873:25 *4005:A 14.7821 
6 *873:25 *4238:A1 24.3714 
7 *873:23 *4006:A 12.3179 
*END

*D_NET *874 0.00291432
*CONN
*I *4238:A2 I *D sky130_fd_sc_hd__o31ai_2
*I *4236:A I *D sky130_fd_sc_hd__xnor2_2
*I *4006:B I *D sky130_fd_sc_hd__or4_2
*I *4520:Q O *D sky130_fd_sc_hd__dfrtp_2
*CAP
1 *4238:A2 0.000119612
2 *4236:A 8.95943e-06
3 *4006:B 0.000747455
4 *4520:Q 0.000545577
5 *874:32 0.00033045
6 *4006:B *4238:B1 0
7 *4006:B *875:10 0
8 *4005:A *4236:A 5.71472e-05
9 *4005:A *874:32 4.18895e-05
10 *4006:A *4006:B 4.0342e-06
11 *4006:D *4236:A 5.52238e-05
12 *4006:D *874:32 0.000232697
13 *4007:B *4238:A2 9.60875e-05
14 *4237:A2 *4006:B 0
15 *4238:A1 *4238:A2 0.000250821
16 *4238:A3 *4238:A2 0.000173804
17 *4240:A2 *874:32 4.02462e-05
18 *4682:A *4006:B 0
19 *222:12 *4006:B 3.34295e-05
20 *677:33 *874:32 8.07951e-05
21 *873:25 *874:32 9.60939e-05
*RES
1 *4520:Q *4006:B 36.3679 
2 *4006:B *874:32 22.4607 
3 *874:32 *4236:A 9.83571 
4 *874:32 *4238:A2 22.2286 
*END

*D_NET *875 0.00150505
*CONN
*I *4238:B1 I *D sky130_fd_sc_hd__o31ai_2
*I *4006:C I *D sky130_fd_sc_hd__or4_2
*I *4521:Q O *D sky130_fd_sc_hd__dfrtp_2
*CAP
1 *4238:B1 0.000302055
2 *4006:C 0
3 *4521:Q 0.000257498
4 *875:10 0.000559552
5 *4006:B *4238:B1 0
6 *4006:B *875:10 0
7 *4007:B *4238:B1 1.21289e-05
8 *4237:A2 *875:10 9.2403e-05
9 *4239:B *4238:B1 0.000105163
10 *4240:A2 *4238:B1 0
11 *4240:A2 *875:10 0
12 *222:12 *4238:B1 6.18336e-05
13 *222:14 *4238:B1 2.59355e-05
14 *222:33 *4238:B1 5.66157e-05
15 *661:8 *875:10 3.18676e-05
16 *677:33 *4238:B1 0
*RES
1 *4521:Q *875:10 18.4071 
2 *875:10 *4006:C 13.8 
3 *875:10 *4238:B1 19.55 
*END

*D_NET *876 0.00447835
*CONN
*I *4008:A I *D sky130_fd_sc_hd__or4_2
*I *4246:A1 I *D sky130_fd_sc_hd__o31ai_2
*I *4007:A I *D sky130_fd_sc_hd__nor2_2
*I *4241:A I *D sky130_fd_sc_hd__and2_2
*I *4522:Q O *D sky130_fd_sc_hd__dfrtp_2
*CAP
1 *4008:A 0.000376423
2 *4246:A1 0
3 *4007:A 0.000200665
4 *4241:A 0.000116901
5 *4522:Q 0
6 *876:20 0.000403605
7 *876:16 0.000635884
8 *876:4 0.000926269
9 *4008:A *4246:B1 0
10 *4008:A *878:12 4.57538e-05
11 *876:16 *4246:A2 9.60939e-05
12 *876:16 *4246:B1 0
13 *4240:A1 *4007:A 0
14 *4241:B *4241:A 0.000227479
15 *4241:B *876:16 2.95641e-05
16 *4241:B *876:20 0.000168334
17 *4242:B *4241:A 7.43578e-06
18 *4244:B *4007:A 0
19 *4245:B1 *876:20 5.33005e-05
20 *4522:RESET_B *4008:A 0.000230475
21 *4522:RESET_B *876:16 0.000138106
22 *4523:D *4241:A 5.33334e-05
23 *4523:D *876:20 6.05161e-06
24 *4523:RESET_B *4008:A 0
25 *4523:RESET_B *876:16 7.98951e-05
26 *4524:CLK *4008:A 0
27 *4524:CLK *876:16 0.000101545
28 *4524:D *876:16 0.000184635
29 *4530:CLK *876:16 3.40725e-05
30 *4630:A *4007:A 0.000175512
31 *450:10 *4007:A 0.000187019
32 *450:10 *876:16 0
33 *663:10 *4008:A 0
*RES
1 *4522:Q *876:4 9.3 
2 *876:4 *876:16 19.9821 
3 *876:16 *876:20 2.19643 
4 *876:20 *4241:A 12.4429 
5 *876:20 *4007:A 22.9786 
6 *876:16 *4246:A1 9.3 
7 *876:4 *4008:A 24.8536 
*END

*D_NET *877 0.00255656
*CONN
*I *4008:B I *D sky130_fd_sc_hd__or4_2
*I *4246:A2 I *D sky130_fd_sc_hd__o31ai_2
*I *4244:A I *D sky130_fd_sc_hd__xnor2_2
*I *4523:Q O *D sky130_fd_sc_hd__dfrtp_2
*CAP
1 *4008:B 6.29767e-05
2 *4246:A2 0.000165009
3 *4244:A 0.000323668
4 *4523:Q 0
5 *877:6 0.000822634
6 *877:4 0.000396933
7 *4008:B *4246:B1 4.88637e-05
8 *877:6 *4246:B1 2.89114e-05
9 *4241:B *4246:A2 5.17614e-05
10 *4244:B *4244:A 1.31516e-05
11 *4245:A1 *4244:A 0.000153047
12 *4245:A2 *4244:A 0.00010326
13 *4245:B1 *4246:A2 2.8266e-06
14 *4523:CLK *4244:A 1.00375e-05
15 *4523:RESET_B *877:6 2.89016e-05
16 *4524:D *4246:A2 0.000248486
17 *450:10 *4246:A2 0
18 *876:16 *4246:A2 9.60939e-05
*RES
1 *4523:Q *877:4 9.3 
2 *877:4 *877:6 3.82143 
3 *877:6 *4244:A 23.2464 
4 *877:6 *4246:A2 22.4071 
5 *877:4 *4008:B 10.2464 
*END

*D_NET *878 0.000989782
*CONN
*I *4008:C I *D sky130_fd_sc_hd__or4_2
*I *4246:B1 I *D sky130_fd_sc_hd__o31ai_2
*I *4524:Q O *D sky130_fd_sc_hd__dfrtp_2
*CAP
1 *4008:C 0
2 *4246:B1 0.000226823
3 *4524:Q 0.000155374
4 *878:12 0.000382197
5 *4008:A *4246:B1 0
6 *4008:A *878:12 4.57538e-05
7 *4008:B *4246:B1 4.88637e-05
8 *4008:D *4246:B1 2.89016e-05
9 *4523:RESET_B *4246:B1 4.46186e-06
10 *224:6 *878:12 2.27416e-05
11 *663:10 *878:12 4.57538e-05
12 *876:16 *4246:B1 0
13 *877:6 *4246:B1 2.89114e-05
*RES
1 *4524:Q *878:12 21.7107 
2 *878:12 *4246:B1 22.7286 
3 *878:12 *4008:C 9.3 
*END

*D_NET *879 0.00400061
*CONN
*I *4255:A1 I *D sky130_fd_sc_hd__o31a_2
*I *4249:A I *D sky130_fd_sc_hd__nor2_2
*I *4250:A I *D sky130_fd_sc_hd__nand2_2
*I *4009:A I *D sky130_fd_sc_hd__or3_2
*I *4525:Q O *D sky130_fd_sc_hd__dfrtp_2
*CAP
1 *4255:A1 0.000122804
2 *4249:A 2.52706e-05
3 *4250:A 4.876e-05
4 *4009:A 0
5 *4525:Q 0.00033612
6 *879:25 0.000969532
7 *879:21 0.00107748
8 *879:10 0.000395299
9 *4255:A1 *4009:C 1.33343e-05
10 *4255:A1 *881:8 3.99614e-06
11 *879:10 *4009:C 9.54798e-06
12 *879:10 *4255:A2 3.69863e-05
13 *879:10 *880:10 4.15914e-05
14 *879:21 *4009:C 0.000113264
15 *879:21 *4255:A2 5.92328e-05
16 *879:25 *4009:C 1.98839e-05
17 *879:25 *881:8 3.30237e-05
18 *4250:B *4249:A 2.31791e-05
19 *4250:B *4250:A 0.000126963
20 *4250:B *879:25 9.71197e-05
21 *4255:A3 *4255:A1 1.32552e-05
22 *4255:A3 *879:25 4.40224e-05
23 *4527:CLK *879:25 4.51611e-05
24 *4527:D *879:25 5.33005e-05
25 *4535:RESET_B *879:10 0
26 *4645:A *879:10 5.03694e-05
27 *4683:A *879:10 0.000104267
28 *224:49 *879:25 4.58904e-05
29 *458:12 *879:10 0
30 *663:57 *4249:A 2.84494e-05
31 *663:57 *4250:A 6.24997e-05
*RES
1 *4525:Q *879:10 19.9429 
2 *879:10 *4009:A 13.8 
3 *879:10 *879:21 6.14286 
4 *879:21 *879:25 15.3036 
5 *879:25 *4250:A 15.4429 
6 *879:25 *4249:A 14.5321 
7 *879:21 *4255:A1 11.5143 
*END

*D_NET *880 0.00149444
*CONN
*I *4255:A2 I *D sky130_fd_sc_hd__o31a_2
*I *4253:A I *D sky130_fd_sc_hd__xnor2_2
*I *4009:B I *D sky130_fd_sc_hd__or3_2
*I *4526:Q O *D sky130_fd_sc_hd__dfrtp_2
*CAP
1 *4255:A2 0.000174424
2 *4253:A 0.000185244
3 *4009:B 0
4 *4526:Q 8.56107e-05
5 *880:14 0.000231522
6 *880:10 0.000306312
7 *4255:A2 *4009:C 1.69115e-05
8 *4535:RESET_B *4255:A2 1.76135e-05
9 *4535:RESET_B *880:10 3.69697e-05
10 *4646:A *880:10 6.05161e-06
11 *4683:A *4253:A 9.7659e-05
12 *3:14 *4255:A2 0
13 *225:20 *4253:A 0.000165603
14 *225:20 *880:14 3.80953e-06
15 *458:12 *880:10 2.89016e-05
16 *879:10 *4255:A2 3.69863e-05
17 *879:10 *880:10 4.15914e-05
18 *879:21 *4255:A2 5.92328e-05
*RES
1 *4526:Q *880:10 15.3714 
2 *880:10 *880:14 5.03571 
3 *880:14 *4009:B 9.3 
4 *880:14 *4253:A 13.9964 
5 *880:10 *4255:A2 16.9607 
*END

*D_NET *881 0.000668404
*CONN
*I *4255:B1 I *D sky130_fd_sc_hd__o31a_2
*I *4009:C I *D sky130_fd_sc_hd__or3_2
*I *4527:Q O *D sky130_fd_sc_hd__dfrtp_2
*CAP
1 *4255:B1 0
2 *4009:C 0.000143947
3 *4527:Q 4.49085e-05
4 *881:8 0.000188855
5 *4255:A1 *4009:C 1.33343e-05
6 *4255:A1 *881:8 3.99614e-06
7 *4255:A2 *4009:C 1.69115e-05
8 *4255:A3 *881:8 8.07313e-05
9 *458:12 *4009:C 0
10 *879:10 *4009:C 9.54798e-06
11 *879:21 *4009:C 0.000113264
12 *879:25 *4009:C 1.98839e-05
13 *879:25 *881:8 3.30237e-05
*RES
1 *4527:Q *881:8 11.0857 
2 *881:8 *4009:C 21.0857 
3 *881:8 *4255:B1 9.3 
*END

*D_NET *882 0.00227308
*CONN
*I *4258:A I *D sky130_fd_sc_hd__xnor2_2
*I *4260:A1 I *D sky130_fd_sc_hd__o31a_2
*I *4011:A I *D sky130_fd_sc_hd__or4_2
*I *4528:Q O *D sky130_fd_sc_hd__dfrtp_2
*CAP
1 *4258:A 0
2 *4260:A1 0.000250864
3 *4011:A 0.000446353
4 *4528:Q 0.000215657
5 *882:19 0.000356391
6 *882:6 0.000767538
7 *4258:B *4260:A1 0
8 *4262:A *4260:A1 1.56e-05
9 *4262:A *882:19 0
10 *224:23 *4011:A 3.69047e-06
11 *225:20 *4260:A1 5.52238e-05
12 *682:14 *4260:A1 8.59039e-05
13 *682:14 *882:19 7.58571e-05
*RES
1 *4528:Q *882:6 12.7107 
2 *882:6 *4011:A 16.0143 
3 *882:6 *882:19 7.05357 
4 *882:19 *4260:A1 18.8357 
5 *882:19 *4258:A 13.8 
*END

*D_NET *883 0.00309344
*CONN
*I *4209:B I *D sky130_fd_sc_hd__and2_2
*I *3999:B I *D sky130_fd_sc_hd__nor2_2
*I *4214:A2 I *D sky130_fd_sc_hd__o31ai_2
*I *4000:B I *D sky130_fd_sc_hd__or4_2
*I *4510:Q O *D sky130_fd_sc_hd__dfrtp_2
*CAP
1 *4209:B 0
2 *3999:B 9.54102e-05
3 *4214:A2 0
4 *4000:B 0.000198029
5 *4510:Q 0
6 *883:34 0.000376022
7 *883:10 0.000691926
8 *883:4 0.000774508
9 *4000:B *4000:C 1.12713e-05
10 *3999:A *3999:B 8.83295e-05
11 *4013:A *4000:B 0.000216769
12 *4013:A *883:10 0.000149582
13 *4173:A1 *883:34 0
14 *4210:A *4000:B 0.000221527
15 *4210:A *883:10 0.000141215
16 *4210:B *883:34 3.92757e-05
17 *4213:A2 *4000:B 5.66971e-05
18 *4215:B *4000:B 6.94441e-06
19 *597:52 *883:10 2.59355e-05
20 *872:10 *883:34 0
*RES
1 *4510:Q *883:4 9.3 
2 *883:4 *883:10 11.5 
3 *883:10 *4000:B 18.3179 
4 *883:10 *4214:A2 13.8 
5 *883:4 *883:34 8.625 
6 *883:34 *3999:B 16.05 
7 *883:34 *4209:B 13.8 
*END

*D_NET *884 0.00173982
*CONN
*I *4011:B I *D sky130_fd_sc_hd__or4_2
*I *4260:B1 I *D sky130_fd_sc_hd__o31a_2
*I *4529:Q O *D sky130_fd_sc_hd__dfrtp_2
*CAP
1 *4011:B 0
2 *4260:B1 0.000240837
3 *4529:Q 0.000120885
4 *884:10 0.000361722
5 *4011:C *4260:B1 4.15551e-05
6 *4011:D *4260:B1 0.000400654
7 *4258:B *4260:B1 0.000139907
8 *4261:A1 *884:10 3.67142e-05
9 *4527:CLK *4260:B1 1.41029e-05
10 *224:29 *4260:B1 0.00017378
11 *224:39 *4260:B1 2.44318e-05
12 *225:26 *4260:B1 0.000106908
13 *227:10 *884:10 0
14 *494:60 *4260:B1 3.90513e-05
15 *494:60 *884:10 3.92757e-05
*RES
1 *4529:Q *884:10 15.7821 
2 *884:10 *4260:B1 21.9964 
3 *884:10 *4011:B 13.8 
*END

*D_NET *885 0.00336823
*CONN
*I *3843:A I *D sky130_fd_sc_hd__inv_2
*I *4012:A I *D sky130_fd_sc_hd__nor2_2
*I *4788:A I *D sky130_fd_sc_hd__dlygate4sd3_1
*I *4530:Q O *D sky130_fd_sc_hd__dfrtp_2
*CAP
1 *3843:A 0.000260546
2 *4012:A 0.000196898
3 *4788:A 2.36895e-05
4 *4530:Q 8.95616e-05
5 *885:19 0.000564364
6 *885:8 0.000220171
7 *4262:A *3843:A 6.44542e-05
8 *4262:A *885:8 4.16383e-05
9 *4262:A *885:19 5.85042e-05
10 *4422:D *4012:A 0.000188586
11 *4529:D *3843:A 5.52238e-05
12 *4529:D *885:8 0
13 *4529:D *885:19 0
14 *4665:A *4012:A 0.00091971
15 *107:24 *3843:A 0.000268403
16 *350:12 *4788:A 5.52238e-05
17 *449:266 *4012:A 0.000219431
18 *494:6 *4012:A 4.27935e-05
19 *494:12 *4012:A 9.90367e-05
*RES
1 *4530:Q *885:8 15.4429 
2 *885:8 *4788:A 14.3357 
3 *885:8 *885:19 2.25 
4 *885:19 *4012:A 22.9786 
5 *885:19 *3843:A 19.675 
*END

*D_NET *886 0.00253359
*CONN
*I *4212:A I *D sky130_fd_sc_hd__xnor2_2
*I *4214:A3 I *D sky130_fd_sc_hd__o31ai_2
*I *4000:C I *D sky130_fd_sc_hd__or4_2
*I *4511:Q O *D sky130_fd_sc_hd__dfrtp_2
*CAP
1 *4212:A 0
2 *4214:A3 5.88127e-05
3 *4000:C 9.5468e-05
4 *4511:Q 0.00036928
5 *886:14 0.000209868
6 *886:12 0.000424867
7 *4000:C *4000:D 0.000221058
8 *886:12 *887:8 4.23387e-05
9 *886:14 *4000:D 0.000221978
10 *4000:A *4000:C 5.50052e-05
11 *4000:B *4000:C 1.12713e-05
12 *4013:A *4214:A3 0.000170762
13 *4013:A *886:14 6.50098e-05
14 *4210:A *4000:C 0.000136733
15 *4210:A *886:14 8.43386e-05
16 *4212:B *886:12 4.27842e-06
17 *4213:A2 *4000:C 0.000132553
18 *4215:B *4214:A3 0.000146261
19 *679:34 *4214:A3 8.91963e-06
20 *679:34 *886:12 7.47852e-05
*RES
1 *4511:Q *886:12 23.6571 
2 *886:12 *886:14 2.17857 
3 *886:14 *4000:C 12.8536 
4 *886:14 *4214:A3 20.55 
5 *886:12 *4212:A 9.3 
*END

*D_NET *887 0.00234509
*CONN
*I *4214:B1 I *D sky130_fd_sc_hd__o31ai_2
*I *4000:D I *D sky130_fd_sc_hd__or4_2
*I *4512:Q O *D sky130_fd_sc_hd__dfrtp_2
*CAP
1 *4214:B1 0.000163475
2 *4000:D 0.000290818
3 *4512:Q 0.000278462
4 *887:8 0.000732755
5 *4000:C *4000:D 0.000221058
6 *4013:A *4000:D 5.32913e-05
7 *4208:A1 *4214:B1 2.85234e-05
8 *4212:B *4000:D 5.33005e-05
9 *4212:B *4214:B1 2.22419e-05
10 *4212:B *887:8 3.2923e-05
11 *872:10 *4214:B1 8.67814e-06
12 *872:14 *4214:B1 5.49995e-05
13 *872:40 *4214:B1 0.000140243
14 *886:12 *887:8 4.23387e-05
15 *886:14 *4000:D 0.000221978
*RES
1 *4512:Q *887:8 18.4786 
2 *887:8 *4000:D 19.2643 
3 *887:8 *4214:B1 17.2107 
*END

*D_NET *888 0.00211969
*CONN
*I *4002:A I *D sky130_fd_sc_hd__or4_2
*I *4001:A I *D sky130_fd_sc_hd__nor2_2
*I *4217:A I *D sky130_fd_sc_hd__and2_2
*I *4222:A1 I *D sky130_fd_sc_hd__o31ai_2
*I *4513:Q O *D sky130_fd_sc_hd__dfrtp_2
*CAP
1 *4002:A 0.000273345
2 *4001:A 0
3 *4217:A 0
4 *4222:A1 0.000166071
5 *4513:Q 0.000335016
6 *888:12 0.000380299
7 *888:8 0.0002759
8 *4002:A *4002:B 7.83659e-05
9 *4002:A *4002:C 5.71472e-05
10 *4222:A3 *4222:A1 0.000219883
11 *4223:B *4002:A 0
12 *4515:D *4002:A 3.5707e-05
13 *4519:RESET_B *4002:A 4.00025e-05
14 *216:42 *4222:A1 1.34741e-05
15 *216:42 *888:12 0.000189018
16 *217:10 *4002:A 1.12691e-05
17 *217:10 *888:8 3.46801e-05
18 *674:79 *4002:A 9.51514e-06
*RES
1 *4513:Q *888:8 10.675 
2 *888:8 *888:12 9.17857 
3 *888:12 *4222:A1 17.7107 
4 *888:12 *4217:A 13.8 
5 *888:8 *4001:A 9.3 
6 *4513:Q *4002:A 32.2607 
*END

*D_NET *889 0.00252125
*CONN
*I *4002:B I *D sky130_fd_sc_hd__or4_2
*I *4220:A I *D sky130_fd_sc_hd__xnor2_2
*I *4222:A2 I *D sky130_fd_sc_hd__o31ai_2
*I *4514:Q O *D sky130_fd_sc_hd__dfrtp_2
*CAP
1 *4002:B 0.000150003
2 *4220:A 0.000246876
3 *4222:A2 0.000172887
4 *4514:Q 0.000120944
5 *889:21 0.000469018
6 *889:8 0.000365969
7 *4220:A *890:8 0.000165081
8 *4002:A *4002:B 7.83659e-05
9 *4222:A3 *4222:A2 5.49995e-05
10 *4514:RESET_B *4002:B 5.74309e-05
11 *4514:RESET_B *4222:A2 0.000106427
12 *4514:RESET_B *889:8 9.51514e-06
13 *4514:RESET_B *889:21 0.00012249
14 *4515:CLK *4220:A 0.000119969
15 *4515:D *4002:B 0
16 *4519:RESET_B *4002:B 0.000165684
17 *674:81 *4002:B 0.000115591
*RES
1 *4514:Q *889:8 15.1571 
2 *889:8 *4222:A2 17.4964 
3 *889:8 *889:21 1.64286 
4 *889:21 *4220:A 19.2821 
5 *889:21 *4002:B 18.175 
*END

*D_NET *890 0.00340628
*CONN
*I *4002:C I *D sky130_fd_sc_hd__or4_2
*I *4222:B1 I *D sky130_fd_sc_hd__o31ai_2
*I *4515:Q O *D sky130_fd_sc_hd__dfrtp_2
*CAP
1 *4002:C 0.00031518
2 *4222:B1 9.86718e-05
3 *4515:Q 0.000663331
4 *890:8 0.00107718
5 *4002:A *4002:C 5.71472e-05
6 *4218:A *4002:C 2.3942e-05
7 *4218:A *4222:B1 9.95293e-05
8 *4220:A *890:8 0.000165081
9 *4223:B *4002:C 0.000430987
10 *4223:B *4222:B1 0.000293261
11 *4515:D *4002:C 0.000137983
12 *217:10 *4002:C 3.79254e-05
13 *575:18 *4002:C 0
14 *575:24 *4002:C 0
15 *661:18 *4002:C 6.05161e-06
*RES
1 *4515:Q *890:8 21.7286 
2 *890:8 *4222:B1 17.5679 
3 *890:8 *4002:C 21.5679 
*END

*D_NET *891 0.00376382
*CONN
*I *4230:A1 I *D sky130_fd_sc_hd__o31ai_2
*I *4004:A I *D sky130_fd_sc_hd__or4_2
*I *4003:A I *D sky130_fd_sc_hd__nor2_2
*I *4225:A I *D sky130_fd_sc_hd__and2_2
*I *4516:Q O *D sky130_fd_sc_hd__dfrtp_2
*CAP
1 *4230:A1 5.33404e-05
2 *4004:A 0
3 *4003:A 0.000475284
4 *4225:A 0.000131667
5 *4516:Q 0.000225598
6 *891:42 0.000184645
7 *891:21 0.000676055
8 *891:10 0.000426732
9 *4230:A1 *4004:C 0.000152333
10 *4230:A1 *893:8 2.48938e-05
11 *4230:A1 *894:12 0
12 *891:42 *4004:C 3.34366e-05
13 *4003:B *4003:A 8.1656e-05
14 *4225:B *4225:A 0.000184945
15 *4229:A1 *4003:A 2.95944e-05
16 *4229:B1 *4003:A 9.95377e-05
17 *4513:RESET_B *891:10 4.3304e-06
18 *4516:RESET_B *891:10 3.40949e-05
19 *4517:D *4003:A 5.52031e-05
20 *219:8 *4003:A 1.24368e-05
21 *661:59 *4003:A 0.000208154
22 *674:53 *4230:A1 0.000140361
23 *674:53 *891:10 0.000151333
24 *674:53 *891:21 0.000117189
25 *674:53 *891:42 0.000261
*RES
1 *4516:Q *891:10 17.5143 
2 *891:10 *4225:A 16.3893 
3 *891:10 *891:21 1.64286 
4 *891:21 *4003:A 21.5143 
5 *891:21 *891:42 3.46429 
6 *891:42 *4004:A 13.8 
7 *891:42 *4230:A1 16.05 
*END

*D_NET *892 0.00148525
*CONN
*I *4230:A2 I *D sky130_fd_sc_hd__o31ai_2
*I *4228:A I *D sky130_fd_sc_hd__xnor2_2
*I *4004:B I *D sky130_fd_sc_hd__or4_2
*I *4517:Q O *D sky130_fd_sc_hd__dfrtp_2
*CAP
1 *4230:A2 0.000155738
2 *4228:A 0.000179977
3 *4004:B 0
4 *4517:Q 0.000271638
5 *892:12 0.000295878
6 *4230:A2 *4230:B1 2.89114e-05
7 *892:12 *894:12 0.000200406
8 *4004:D *4228:A 6.05161e-06
9 *4230:A3 *4230:A2 0
10 *218:33 *4230:A2 2.05612e-05
11 *218:33 *892:12 9.22948e-05
12 *218:35 *892:12 0.000105689
13 *674:53 *4230:A2 7.48091e-05
14 *674:53 *892:12 5.33005e-05
*RES
1 *4517:Q *892:12 21.3893 
2 *892:12 *4004:B 9.3 
3 *892:12 *4228:A 12.2286 
4 *4517:Q *4230:A2 21.6179 
*END

*D_NET *893 0.00145288
*CONN
*I *4230:B1 I *D sky130_fd_sc_hd__o31ai_2
*I *4004:C I *D sky130_fd_sc_hd__or4_2
*I *4518:Q O *D sky130_fd_sc_hd__dfrtp_2
*CAP
1 *4230:B1 7.12726e-05
2 *4004:C 0.000167743
3 *4518:Q 0.000138122
4 *893:8 0.000377138
5 *893:8 *894:12 0
6 *4230:A1 *4004:C 0.000152333
7 *4230:A1 *893:8 2.48938e-05
8 *4230:A2 *4230:B1 2.89114e-05
9 *4230:A3 *4230:B1 0.00014285
10 *4231:B *893:8 0
11 *218:33 *4230:B1 0.000316184
12 *220:12 *4004:C 0
13 *220:12 *893:8 0
14 *891:42 *4004:C 3.34366e-05
*RES
1 *4518:Q *893:8 16.05 
2 *893:8 *4004:C 16.9964 
3 *893:8 *4230:B1 16.8 
*END

*D_NET *894 0.00375563
*CONN
*I *4600:A I *D sky130_fd_sc_hd__buf_2
*I *3998:Y O *D sky130_fd_sc_hd__inv_2
*CAP
1 *4600:A 0
2 *3998:Y 0.000973888
3 *894:12 0.000973888
4 *3998:A *894:12 9.7659e-05
5 *4003:B *894:12 0
6 *4225:B *894:12 0.000111815
7 *4230:A1 *894:12 0
8 *4231:B *894:12 0
9 *4232:B1 *894:12 0.000758608
10 *4516:D *894:12 0.000170301
11 *4518:RESET_B *894:12 0.000342502
12 *218:35 *894:12 2.90164e-05
13 *674:53 *894:12 9.75471e-05
14 *892:12 *894:12 0.000200406
15 *893:8 *894:12 0
*RES
1 *3998:Y *894:12 41.7464 
2 *894:12 *4600:A 9.3 
*END

*D_NET *895 0.000592421
*CONN
*I *4487:D I *D sky130_fd_sc_hd__dfrtp_2
*I *4264:Y O *D sky130_fd_sc_hd__nor2_2
*CAP
1 *4487:D 0.000221228
2 *4264:Y 0.000221228
3 *3998:A *4487:D 0.000149966
*RES
1 *4264:Y *4487:D 31.725 
*END

*D_NET *896 0.000734852
*CONN
*I *4497:D I *D sky130_fd_sc_hd__dfrtp_2
*I *4284:Y O *D sky130_fd_sc_hd__a21oi_2
*CAP
1 *4497:D 0.000298586
2 *4284:Y 0.000298586
3 *4497:D *4827:A 8.04249e-05
4 *496:22 *4497:D 5.72546e-05
*RES
1 *4284:Y *4497:D 32.9571 
*END

*D_NET *897 0.00220922
*CONN
*I *4498:D I *D sky130_fd_sc_hd__dfrtp_2
*I *4286:Y O *D sky130_fd_sc_hd__a21oi_2
*CAP
1 *4498:D 0.000677226
2 *4286:Y 0.000677226
3 *4498:D *918:10 0.000163796
4 *4283:B *4498:D 3.69047e-06
5 *4285:A *4498:D 1.73875e-05
6 *4286:A1 *4498:D 0.000183905
7 *4286:A2 *4498:D 0.000188218
8 *4498:RESET_B *4498:D 1.08847e-05
9 *683:38 *4498:D 0.000286888
*RES
1 *4286:Y *4498:D 40.5464 
*END

*D_NET *898 0.000763814
*CONN
*I *4499:D I *D sky130_fd_sc_hd__dfrtp_2
*I *4288:Y O *D sky130_fd_sc_hd__a21oi_2
*CAP
1 *4499:D 0.000246564
2 *4288:Y 0.000246564
3 *4499:D *4287:A 8.86924e-05
4 *4499:D *920:32 5.48841e-05
5 *4288:A1 *4499:D 0.000112946
6 *4499:CLK *4499:D 1.0033e-05
7 *4499:RESET_B *4499:D 4.13122e-06
*RES
1 *4288:Y *4499:D 31.6536 
*END

*D_NET *899 0.000501686
*CONN
*I *4500:D I *D sky130_fd_sc_hd__dfrtp_2
*I *4290:Y O *D sky130_fd_sc_hd__a21oi_2
*CAP
1 *4500:D 0.000194872
2 *4290:Y 0.000194872
3 *4500:CLK *4500:D 9.92332e-05
4 *207:12 *4500:D 1.27093e-05
*RES
1 *4290:Y *4500:D 21.2071 
*END

*D_NET *900 0.0022326
*CONN
*I *4501:D I *D sky130_fd_sc_hd__dfrtp_2
*I *4292:Y O *D sky130_fd_sc_hd__a21oi_2
*CAP
1 *4501:D 0.00100176
2 *4292:Y 0.00100176
3 *4456:CLK *4501:D 5.07619e-05
4 *4456:RESET_B *4501:D 9.17414e-05
5 *4501:RESET_B *4501:D 0
6 *4704:A *4501:D 0
7 *4731:A *4501:D 3.2006e-05
8 *208:24 *4501:D 3.49742e-05
9 *467:12 *4501:D 0
10 *685:8 *4501:D 1.96027e-05
11 *685:21 *4501:D 0
12 *692:10 *4501:D 0
*RES
1 *4292:Y *4501:D 41.225 
*END

*D_NET *901 0.00144423
*CONN
*I *4502:D I *D sky130_fd_sc_hd__dfrtp_2
*I *4294:Y O *D sky130_fd_sc_hd__a21oi_2
*CAP
1 *4502:D 0.00032638
2 *4294:Y 0.00032638
3 *4502:D *4297:A1 0.000168334
4 *4294:A2 *4502:D 1.59373e-05
5 *4294:B1 *4502:D 9.58126e-05
6 *4297:B1 *4502:D 5.33005e-05
7 *4298:A2 *4502:D 0.000124083
8 *209:8 *4502:D 0.000194804
9 *209:32 *4502:D 0.000139202
*RES
1 *4294:Y *4502:D 35.5107 
*END

*D_NET *902 0.000415774
*CONN
*I *4503:D I *D sky130_fd_sc_hd__dfrtp_2
*I *4296:Y O *D sky130_fd_sc_hd__a21oi_2
*CAP
1 *4503:D 9.8043e-05
2 *4296:Y 9.8043e-05
3 *4503:D *924:8 5.49544e-05
4 *4296:B1 *4503:D 6.47486e-05
5 *4503:CLK *4503:D 9.99853e-05
*RES
1 *4296:Y *4503:D 20.7786 
*END

*D_NET *903 0.001379
*CONN
*I *4504:D I *D sky130_fd_sc_hd__dfrtp_2
*I *4298:Y O *D sky130_fd_sc_hd__a21oi_2
*CAP
1 *4504:D 0.000435344
2 *4298:Y 0.000435344
3 *4504:D *3992:A 0.000141729
4 *4293:A *4504:D 0
5 *4294:A2 *4504:D 0.000320031
6 *4298:A1 *4504:D 4.13496e-05
7 *208:30 *4504:D 5.19842e-06
*RES
1 *4298:Y *4504:D 35.0821 
*END

*D_NET *904 0.00164279
*CONN
*I *4505:D I *D sky130_fd_sc_hd__dfrtp_2
*I *4301:Y O *D sky130_fd_sc_hd__a21oi_2
*CAP
1 *4505:D 0.000771327
2 *4301:Y 0.000771327
3 *4301:A1 *4505:D 6.05161e-06
4 *4505:RESET_B *4505:D 4.70821e-05
5 *642:84 *4505:D 3.14048e-05
6 *642:90 *4505:D 1.56e-05
*RES
1 *4301:Y *4505:D 27.3679 
*END

*D_NET *905 0.000838048
*CONN
*I *4506:D I *D sky130_fd_sc_hd__dfrtp_2
*I *4303:Y O *D sky130_fd_sc_hd__a21oi_2
*CAP
1 *4506:D 0.000109444
2 *4303:Y 0.000109444
3 *4506:D *4300:A 0.000390994
4 *4301:A2 *4506:D 1.98839e-05
5 *4303:A1 *4506:D 5.71472e-05
6 *4303:B1 *4506:D 5.52238e-05
7 *4506:CLK *4506:D 7.16452e-05
8 *211:42 *4506:D 2.42662e-05
*RES
1 *4303:Y *4506:D 22.4214 
*END

*D_NET *906 0.000480103
*CONN
*I *4488:D I *D sky130_fd_sc_hd__dfrtp_2
*I *4266:Y O *D sky130_fd_sc_hd__a21oi_2
*CAP
1 *4488:D 7.83234e-05
2 *4266:Y 7.83234e-05
3 *4266:A1 *4488:D 0.000225989
4 *4488:CLK *4488:D 9.74665e-05
*RES
1 *4266:Y *4488:D 20.7786 
*END

*D_NET *907 0.000378379
*CONN
*I *4507:D I *D sky130_fd_sc_hd__dfrtp_2
*I *4305:X O *D sky130_fd_sc_hd__mux2_1
*CAP
1 *4507:D 0.000143
2 *4305:X 0.000143
3 *4507:D *4299:A 5.61633e-05
4 *4305:A1 *4507:D 3.25247e-05
5 *4306:B *4507:D 3.69047e-06
*RES
1 *4305:X *4507:D 29.8857 
*END

*D_NET *908 0.00054052
*CONN
*I *4508:D I *D sky130_fd_sc_hd__dfrtp_2
*I *4306:X O *D sky130_fd_sc_hd__and2_2
*CAP
1 *4508:D 0.000251287
2 *4306:X 0.000251287
3 *4508:CLK *4508:D 3.79467e-05
*RES
1 *4306:X *4508:D 31.1179 
*END

*D_NET *909 0.000937429
*CONN
*I *4489:D I *D sky130_fd_sc_hd__dfrtp_2
*I *4268:Y O *D sky130_fd_sc_hd__a21oi_2
*CAP
1 *4489:D 0.000307442
2 *4268:Y 0.000307442
3 *4489:D *4265:B 0.000100639
4 *4266:B1 *4489:D 6.36431e-05
5 *4268:A2 *4489:D 0.000126279
6 *619:56 *4489:D 3.19834e-05
*RES
1 *4268:Y *4489:D 34.0464 
*END

*D_NET *910 0.000176262
*CONN
*I *4490:D I *D sky130_fd_sc_hd__dfrtp_2
*I *4270:Y O *D sky130_fd_sc_hd__a21oi_2
*CAP
1 *4490:D 6.23839e-05
2 *4270:Y 6.23839e-05
3 *4268:A2 *4490:D 5.14943e-05
*RES
1 *4270:Y *4490:D 28.9393 
*END

*D_NET *911 0.000826899
*CONN
*I *4491:D I *D sky130_fd_sc_hd__dfrtp_2
*I *4272:Y O *D sky130_fd_sc_hd__a21oi_2
*CAP
1 *4491:D 0.000290124
2 *4272:Y 0.000290124
3 *4272:A1 *4491:D 0.000148312
4 *4272:B1 *4491:D 9.83388e-05
*RES
1 *4272:Y *4491:D 33.0821 
*END

*D_NET *912 0.00108913
*CONN
*I *4492:D I *D sky130_fd_sc_hd__dfrtp_2
*I *4274:Y O *D sky130_fd_sc_hd__a21oi_2
*CAP
1 *4492:D 0.000161794
2 *4274:Y 0.000161794
3 *4272:A1 *4492:D 0.000313077
4 *619:25 *4492:D 1.13883e-05
5 *619:29 *4492:D 9.83442e-05
6 *619:44 *4492:D 0.000342735
*RES
1 *4274:Y *4492:D 33.0286 
*END

*D_NET *913 0.000457661
*CONN
*I *4493:D I *D sky130_fd_sc_hd__dfrtp_2
*I *4276:Y O *D sky130_fd_sc_hd__a21oi_2
*CAP
1 *4493:D 0.000132215
2 *4276:Y 0.000132215
3 *3981:B *4493:D 4.01768e-05
4 *4276:B1 *4493:D 0.000153054
5 *488:10 *4493:D 0
*RES
1 *4276:Y *4493:D 30.4929 
*END

*D_NET *914 0.000370809
*CONN
*I *4494:D I *D sky130_fd_sc_hd__dfrtp_2
*I *4278:Y O *D sky130_fd_sc_hd__a21oi_2
*CAP
1 *4494:D 0.000163704
2 *4278:Y 0.000163704
3 *4277:B *4494:D 0
4 *4278:A2 *4494:D 4.34013e-05
5 *200:10 *4494:D 0
6 *619:10 *4494:D 0
*RES
1 *4278:Y *4494:D 30.4929 
*END

*D_NET *915 0.000524305
*CONN
*I *4495:D I *D sky130_fd_sc_hd__dfrtp_2
*I *4280:Y O *D sky130_fd_sc_hd__a21oi_2
*CAP
1 *4495:D 0.000130871
2 *4280:Y 0.000130871
3 *4282:B1 *4495:D 0.000205967
4 *642:57 *4495:D 5.65955e-05
*RES
1 *4280:Y *4495:D 30.4929 
*END

*D_NET *916 0.00128539
*CONN
*I *4496:D I *D sky130_fd_sc_hd__dfrtp_2
*I *4282:Y O *D sky130_fd_sc_hd__a21oi_2
*CAP
1 *4496:D 0.000363447
2 *4282:Y 0.000363447
3 *4282:B1 *4496:D 0.000220824
4 *4495:CLK *4496:D 7.98318e-05
5 *4496:CLK *4496:D 0.000110118
6 *496:24 *4496:D 0.000147725
*RES
1 *4282:Y *4496:D 34.2964 
*END

*D_NET *917 0.00442647
*CONN
*I *3978:A I *D sky130_fd_sc_hd__or4_2
*I *3976:A I *D sky130_fd_sc_hd__or2_2
*I *4265:A I *D sky130_fd_sc_hd__nand2_2
*I *4850:A I *D sky130_fd_sc_hd__dlygate4sd3_1
*I *4487:Q O *D sky130_fd_sc_hd__dfrtp_2
*CAP
1 *3978:A 0.000238399
2 *3976:A 0
3 *4265:A 0.000617831
4 *4850:A 3.72884e-05
5 *4487:Q 0.000266494
6 *917:42 0.000455216
7 *917:21 0.000937179
8 *917:10 0.000406314
9 *3978:A *3978:B 6.79366e-05
10 *3978:A *928:28 5.62995e-05
11 *4265:A *4265:B 0.000175873
12 *917:42 *4265:B 6.05161e-06
13 *917:42 *928:28 1.21289e-05
14 *4268:A2 *4265:A 0.000142744
15 *4269:A *917:42 0.000195555
16 *4269:B *917:42 5.58941e-05
17 *4488:RESET_B *917:42 2.44318e-05
18 *4694:A *4265:A 0.00014285
19 *193:10 *917:42 9.60939e-05
20 *194:10 *917:42 0.000148189
21 *466:8 *4265:A 0.000116792
22 *674:10 *4265:A 0.000226912
23 *677:14 *3978:A 0
*RES
1 *4487:Q *917:10 17.5143 
2 *917:10 *4850:A 14.3357 
3 *917:10 *917:21 1.64286 
4 *917:21 *4265:A 22.9964 
5 *917:21 *917:42 9.85714 
6 *917:42 *3976:A 9.3 
7 *917:42 *3978:A 23.1393 
*END

*D_NET *918 0.00263309
*CONN
*I *4827:A I *D sky130_fd_sc_hd__dlygate4sd3_1
*I *3988:B I *D sky130_fd_sc_hd__or4_2
*I *3987:A I *D sky130_fd_sc_hd__or2_2
*I *4497:Q O *D sky130_fd_sc_hd__dfrtp_2
*CAP
1 *4827:A 0.000442975
2 *3988:B 0
3 *3987:A 0.000299597
4 *4497:Q 0.000553091
5 *918:10 0.000409712
6 *4284:A2 *4827:A 0.000127246
7 *4284:B1 *4827:A 5.37741e-06
8 *4497:D *4827:A 8.04249e-05
9 *4497:RESET_B *4827:A 1.10841e-05
10 *4498:D *918:10 0.000163796
11 *4498:RESET_B *4827:A 2.22999e-05
12 *4498:RESET_B *918:10 0.000104974
13 *204:16 *3987:A 0.000273822
14 *204:16 *918:10 6.16864e-05
15 *496:22 *4827:A 7.70035e-05
*RES
1 *4497:Q *918:10 21.7643 
2 *918:10 *3987:A 13.7464 
3 *918:10 *3988:B 9.3 
4 *4497:Q *4827:A 33.8857 
*END

*D_NET *919 0.00179857
*CONN
*I *4811:A I *D sky130_fd_sc_hd__dlygate4sd3_1
*I *3988:A I *D sky130_fd_sc_hd__or4_2
*I *4498:Q O *D sky130_fd_sc_hd__dfrtp_2
*CAP
1 *4811:A 0.000227384
2 *3988:A 0.000198418
3 *4498:Q 0
4 *919:6 0.000425802
5 *3988:C *3988:A 0.000271064
6 *4285:A *4811:A 3.69047e-06
7 *4473:D *3988:A 0
8 *4473:D *4811:A 0
9 *204:16 *3988:A 0.000231701
10 *205:10 *3988:A 0.000150502
11 *205:10 *4811:A 6.39901e-05
12 *683:72 *3988:A 0.000226021
*RES
1 *4498:Q *919:6 13.8 
2 *919:6 *3988:A 20.8 
3 *919:6 *4811:A 18.0321 
*END

*D_NET *920 0.00417407
*CONN
*I *3989:A I *D sky130_fd_sc_hd__or2_2
*I *4287:A I *D sky130_fd_sc_hd__nand2_2
*I *3991:B I *D sky130_fd_sc_hd__or4_2
*I *4289:A1 I *D sky130_fd_sc_hd__o21ai_2
*I *4499:Q O *D sky130_fd_sc_hd__dfrtp_2
*CAP
1 *3989:A 0.000214422
2 *4287:A 9.5897e-05
3 *3991:B 0.000107364
4 *4289:A1 8.88776e-05
5 *4499:Q 0.000225215
6 *920:32 0.000735363
7 *920:10 0.000450305
8 *920:6 0.000904323
9 *3991:B *3991:A 5.47001e-05
10 *3989:B *3989:A 5.49995e-05
11 *4288:A1 *4287:A 4.12025e-05
12 *4289:A2 *4289:A1 0.000228508
13 *4499:CLK *4287:A 7.74068e-05
14 *4499:D *4287:A 8.86924e-05
15 *4499:D *920:32 5.48841e-05
16 *4499:RESET_B *920:32 0.000178573
17 *630:50 *3991:B 0.000124083
18 *630:50 *920:10 0.000179695
19 *630:52 *920:10 0.000269557
*RES
1 *4499:Q *920:6 11.8893 
2 *920:6 *920:10 10.3929 
3 *920:10 *4289:A1 15.9786 
4 *920:10 *3991:B 15.9786 
5 *920:6 *920:32 5.05357 
6 *920:32 *4287:A 20.7286 
7 *920:32 *3989:A 11.9071 
*END

*D_NET *921 0.00295464
*CONN
*I *3990:A I *D sky130_fd_sc_hd__or2_2
*I *4823:A I *D sky130_fd_sc_hd__dlygate4sd3_1
*I *3991:A I *D sky130_fd_sc_hd__or4_2
*I *4500:Q O *D sky130_fd_sc_hd__dfrtp_2
*CAP
1 *3990:A 0.000143611
2 *4823:A 0
3 *3991:A 0.000425211
4 *4500:Q 0
5 *921:12 0.000825181
6 *921:4 0.000543581
7 *3991:A *3991:C 0.000141729
8 *3991:A *4801:A 0.000200008
9 *3990:B *3990:A 4.77002e-05
10 *3990:B *921:12 7.88091e-05
11 *3991:B *3991:A 5.47001e-05
12 *3991:D *3991:A 1.98839e-05
13 *205:49 *3991:A 0.000271898
14 *207:12 *3990:A 2.33087e-05
15 *207:12 *921:12 3.68118e-05
16 *467:16 *3991:A 6.52148e-05
17 *683:10 *921:12 7.6997e-05
*RES
1 *4500:Q *921:4 9.3 
2 *921:4 *921:12 14.7679 
3 *921:12 *3991:A 27.8 
4 *921:12 *4823:A 9.3 
5 *921:4 *3990:A 11.4964 
*END

*D_NET *922 0.000892065
*CONN
*I *3991:C I *D sky130_fd_sc_hd__or4_2
*I *4801:A I *D sky130_fd_sc_hd__dlygate4sd3_1
*I *4501:Q O *D sky130_fd_sc_hd__dfrtp_2
*CAP
1 *3991:C 2.57299e-05
2 *4801:A 0.000161073
3 *4501:Q 0.000186803
4 *3991:A *3991:C 0.000141729
5 *3991:A *4801:A 0.000200008
6 *3991:D *3991:C 9.83388e-05
7 *3991:D *4801:A 6.24469e-05
8 *467:16 *3991:C 1.59373e-05
*RES
1 *4501:Q *4801:A 30.6 
2 *4501:Q *3991:C 19.9571 
*END

*D_NET *923 0.00327239
*CONN
*I *3994:A I *D sky130_fd_sc_hd__or4_2
*I *3992:A I *D sky130_fd_sc_hd__or2_2
*I *4829:A I *D sky130_fd_sc_hd__dlygate4sd3_1
*I *4502:Q O *D sky130_fd_sc_hd__dfrtp_2
*CAP
1 *3994:A 0.000298452
2 *3992:A 0.000230767
3 *4829:A 8.70889e-05
4 *4502:Q 8.70889e-05
5 *923:18 0.000529219
6 *3994:A *3994:B 0.000374573
7 *3994:A *925:10 0.00021917
8 *3992:B *3992:A 0.000116447
9 *3994:D *3994:A 0.000102677
10 *4298:A1 *3992:A 0.000143652
11 *4298:A2 *3992:A 4.73286e-05
12 *4502:RESET_B *4829:A 2.59355e-05
13 *4503:RESET_B *3994:A 0.000333967
14 *4504:D *3992:A 0.000141729
15 *211:10 *3994:A 5.84075e-05
16 *211:25 *4829:A 5.33005e-05
17 *685:21 *3992:A 0.00012401
18 *685:31 *3992:A 9.64459e-05
19 *685:31 *3994:A 0.000202128
*RES
1 *4502:Q *4829:A 19.9571 
2 *4502:Q *923:18 13.8 
3 *923:18 *3992:A 20.0679 
4 *923:18 *3994:A 23.675 
*END

*D_NET *924 0.00346499
*CONN
*I *3994:C I *D sky130_fd_sc_hd__or4_2
*I *4295:A I *D sky130_fd_sc_hd__nand2_2
*I *3993:A I *D sky130_fd_sc_hd__or2_2
*I *4297:A1 I *D sky130_fd_sc_hd__o21ai_2
*I *4503:Q O *D sky130_fd_sc_hd__dfrtp_2
*CAP
1 *3994:C 8.43005e-05
2 *4295:A 1.67135e-05
3 *3993:A 2.00224e-05
4 *4297:A1 0.00027645
5 *4503:Q 0.000647341
6 *924:34 0.000215064
7 *924:23 0.000211158
8 *924:8 0.00100088
9 *3993:B *924:34 5.49489e-05
10 *3994:D *3994:C 3.08664e-05
11 *4296:A2 *3993:A 5.49489e-05
12 *4296:A2 *3994:C 2.95944e-05
13 *4296:A2 *924:34 3.95928e-05
14 *4296:B1 *4297:A1 0.000171948
15 *4297:B1 *4297:A1 0.000101363
16 *4298:A2 *4297:A1 5.06672e-05
17 *4502:D *4297:A1 0.000168334
18 *4503:D *924:8 5.49544e-05
19 *209:12 *4297:A1 0.000141729
20 *209:32 *4297:A1 4.98528e-05
21 *209:32 *924:23 4.42631e-05
*RES
1 *4503:Q *924:8 20.9071 
2 *924:8 *4297:A1 21.05 
3 *924:8 *924:23 5.83929 
4 *924:23 *3993:A 9.83571 
5 *924:23 *924:34 2.5 
6 *924:34 *4295:A 9.72857 
7 *924:34 *3994:C 11.0679 
*END

*D_NET *925 0.00243501
*CONN
*I *3994:B I *D sky130_fd_sc_hd__or4_2
*I *4815:A I *D sky130_fd_sc_hd__dlygate4sd3_1
*I *4504:Q O *D sky130_fd_sc_hd__dfrtp_2
*CAP
1 *3994:B 0.000296097
2 *4815:A 2.92268e-05
3 *4504:Q 0.000383538
4 *925:10 0.000708862
5 *3994:A *3994:B 0.000374573
6 *3994:A *925:10 0.00021917
7 *4294:A2 *4815:A 0.000185118
8 *209:12 *925:10 5.33005e-05
9 *630:6 *4815:A 0.000185118
*RES
1 *4504:Q *925:10 20.8893 
2 *925:10 *4815:A 15.5679 
3 *925:10 *3994:B 19.925 
*END

*D_NET *926 0.00419892
*CONN
*I *4299:A I *D sky130_fd_sc_hd__or2_2
*I *3995:B I *D sky130_fd_sc_hd__or3_2
*I *4300:A I *D sky130_fd_sc_hd__nand2_2
*I *3996:B I *D sky130_fd_sc_hd__or4_2
*I *4505:Q O *D sky130_fd_sc_hd__dfrtp_2
*CAP
1 *4299:A 0.000200733
2 *3995:B 0.000118104
3 *4300:A 0.000458708
4 *3996:B 0.000116432
5 *4505:Q 0
6 *926:34 0.000417984
7 *926:17 0.000628541
8 *926:6 0.000187118
9 *926:17 *927:27 2.83916e-05
10 *926:34 *927:27 4.35141e-05
11 *3996:D *4299:A 6.8646e-06
12 *3996:D *926:34 1.40849e-05
13 *4299:B *4299:A 0.000143541
14 *4301:A2 *4300:A 2.44318e-05
15 *4303:B1 *4300:A 3.03304e-05
16 *4304:B *3995:B 3.06878e-06
17 *4305:A1 *4299:A 0
18 *4505:RESET_B *3996:B 8.89385e-05
19 *4505:RESET_B *926:17 6.22185e-05
20 *4506:CLK *4300:A 8.43535e-06
21 *4506:D *4300:A 0.000390994
22 *4507:D *4299:A 5.61633e-05
23 *4508:CLK *4299:A 0
24 *4621:A *3996:B 0.00022217
25 *211:42 *4300:A 2.14314e-05
26 *213:12 *4299:A 0
27 *402:10 *4299:A 0
28 *468:50 *4299:A 4.66511e-05
29 *468:50 *926:34 0.00012401
30 *468:54 *3995:B 9.41642e-05
31 *642:18 *4300:A 5.33005e-05
32 *642:18 *926:17 0.000148903
33 *642:18 *926:34 2.24646e-05
34 *642:28 *3996:B 0.000389154
35 *642:28 *926:17 4.80729e-05
*RES
1 *4505:Q *926:6 13.8 
2 *926:6 *3996:B 18.7821 
3 *926:6 *926:17 2.55357 
4 *926:17 *4300:A 20.6571 
5 *926:17 *926:34 2.55357 
6 *926:34 *3995:B 15.1571 
7 *926:34 *4299:A 18.3179 
*END

*D_NET *927 0.00436063
*CONN
*I *4834:A I *D sky130_fd_sc_hd__dlygate4sd3_1
*I *3996:A I *D sky130_fd_sc_hd__or4_2
*I *3995:A I *D sky130_fd_sc_hd__or3_2
*I *4506:Q O *D sky130_fd_sc_hd__dfrtp_2
*CAP
1 *4834:A 0.000111614
2 *3996:A 0
3 *3995:A 0.000258846
4 *4506:Q 0.000343585
5 *927:27 0.000333009
6 *927:6 0.000823825
7 *4834:A *3996:C 0.000431962
8 *3996:D *3995:A 0.000123288
9 *4304:B *3995:A 1.21258e-05
10 *4305:A1 *4834:A 0.000329746
11 *4305:A1 *927:27 0.000257892
12 *4505:RESET_B *927:27 0.000393005
13 *4506:CLK *3995:A 2.89016e-05
14 *4506:RESET_B *927:27 0.000147474
15 *4703:A *927:27 3.34295e-05
16 *211:42 *3995:A 5.33005e-05
17 *468:37 *3995:A 9.46929e-05
18 *468:37 *927:6 0.000296291
19 *468:50 *3995:A 0.000121573
20 *468:54 *3995:A 9.41642e-05
21 *926:17 *927:27 2.83916e-05
22 *926:34 *927:27 4.35141e-05
*RES
1 *4506:Q *927:6 13.9429 
2 *927:6 *3995:A 23.0679 
3 *927:6 *927:27 17.0179 
4 *927:27 *3996:A 9.3 
5 *927:27 *4834:A 14.0857 
*END

*D_NET *928 0.00304008
*CONN
*I *3978:B I *D sky130_fd_sc_hd__or4_2
*I *3976:B I *D sky130_fd_sc_hd__or2_2
*I *4265:B I *D sky130_fd_sc_hd__nand2_2
*I *4488:Q O *D sky130_fd_sc_hd__dfrtp_2
*CAP
1 *3978:B 0.000179544
2 *3976:B 2.23854e-05
3 *4265:B 0.00065675
4 *4488:Q 0.000840927
5 *928:28 0.000386106
6 *3978:B *932:12 2.84494e-05
7 *3978:A *3978:B 6.79366e-05
8 *3978:A *928:28 5.62995e-05
9 *4265:A *4265:B 0.000175873
10 *4266:A1 *4265:B 4.86718e-05
11 *4268:A2 *4265:B 0.000168197
12 *4488:RESET_B *3978:B 0
13 *4488:RESET_B *4265:B 1.12381e-05
14 *4488:RESET_B *928:28 0.000139907
15 *4489:D *4265:B 0.000100639
16 *193:10 *4265:B 2.77143e-05
17 *466:8 *4265:B 7.19623e-05
18 *619:56 *4265:B 2.30245e-05
19 *619:58 *4265:B 1.6271e-05
20 *675:48 *3978:B 0
21 *677:14 *3978:B 0
22 *917:42 *4265:B 6.05161e-06
23 *917:42 *928:28 1.21289e-05
*RES
1 *4488:Q *4265:B 37.9214 
2 *4488:Q *928:28 11.8893 
3 *928:28 *3976:B 9.72857 
4 *928:28 *3978:B 21.3893 
*END

*D_NET *929 0.00313551
*CONN
*I *4304:A I *D sky130_fd_sc_hd__and2_2
*I *3996:C I *D sky130_fd_sc_hd__or4_2
*I *4507:Q O *D sky130_fd_sc_hd__dfrtp_2
*CAP
1 *4304:A 2.83799e-05
2 *3996:C 0.000377831
3 *4507:Q 0.000267107
4 *929:12 0.000673318
5 *4048:B *3996:C 0.000107543
6 *4304:B *3996:C 3.18676e-05
7 *4304:B *929:12 0.000703785
8 *4305:A1 *3996:C 7.32955e-05
9 *4457:CLK *929:12 5.57914e-05
10 *4834:A *3996:C 0.000431962
11 *213:12 *3996:C 5.33005e-05
12 *468:25 *929:12 7.98681e-05
13 *468:37 *929:12 0.000247771
14 *471:51 *929:12 0
15 *685:73 *3996:C 3.69047e-06
*RES
1 *4507:Q *929:12 27.7643 
2 *929:12 *3996:C 17.5679 
3 *929:12 *4304:A 9.83571 
*END

*D_NET *930 0.000782617
*CONN
*I *4778:A I *D sky130_fd_sc_hd__dlygate4sd3_1
*I *3997:A I *D sky130_fd_sc_hd__nor2_2
*I *4508:Q O *D sky130_fd_sc_hd__dfrtp_2
*CAP
1 *4778:A 8.61506e-05
2 *3997:A 0.000212698
3 *4508:Q 9.24594e-05
4 *930:8 0.000391308
5 *4309:A2 *930:8 0
6 *4508:RESET_B *3997:A 0
7 *4508:RESET_B *930:8 0
*RES
1 *4508:Q *930:8 15.4429 
2 *930:8 *3997:A 17.1929 
3 *930:8 *4778:A 15.1571 
*END

*D_NET *931 0.00218338
*CONN
*I *3977:A I *D sky130_fd_sc_hd__or2_2
*I *4828:A I *D sky130_fd_sc_hd__dlygate4sd3_1
*I *3978:D I *D sky130_fd_sc_hd__or4_2
*I *4489:Q O *D sky130_fd_sc_hd__dfrtp_2
*CAP
1 *3977:A 0.000144987
2 *4828:A 0
3 *3978:D 0.000192557
4 *4489:Q 0
5 *931:17 0.000254916
6 *931:4 0.000302485
7 *3978:D *3978:C 9.90367e-05
8 *4267:B *3977:A 5.49489e-05
9 *4270:A2 *931:17 0.000364638
10 *4489:RESET_B *3978:D 0.000312209
11 *193:27 *3977:A 0.000117378
12 *193:27 *931:17 0.000204302
13 *194:10 *3977:A 1.83053e-05
14 *195:10 *3978:D 0.000117621
*RES
1 *4489:Q *931:4 9.3 
2 *931:4 *3978:D 14.3714 
3 *931:4 *931:17 9.17857 
4 *931:17 *4828:A 13.8 
5 *931:17 *3977:A 17.1929 
*END

*D_NET *932 0.000958537
*CONN
*I *3978:C I *D sky130_fd_sc_hd__or4_2
*I *4809:A I *D sky130_fd_sc_hd__dlygate4sd3_1
*I *4490:Q O *D sky130_fd_sc_hd__dfrtp_2
*CAP
1 *3978:C 3.59545e-05
2 *4809:A 0
3 *4490:Q 0.000258856
4 *932:12 0.00029481
5 *3978:B *932:12 2.84494e-05
6 *3978:D *3978:C 9.90367e-05
7 *4490:RESET_B *932:12 3.72932e-05
8 *195:10 *3978:C 0.000139913
9 *675:48 *932:12 6.42242e-05
*RES
1 *4490:Q *932:12 22.1214 
2 *932:12 *4809:A 9.3 
3 *932:12 *3978:C 10.6571 
*END

*D_NET *933 0.00379065
*CONN
*I *4271:A I *D sky130_fd_sc_hd__nand2_2
*I *3983:B I *D sky130_fd_sc_hd__or4_2
*I *4273:A1 I *D sky130_fd_sc_hd__o21ai_2
*I *3979:A I *D sky130_fd_sc_hd__or2_2
*I *4491:Q O *D sky130_fd_sc_hd__dfrtp_2
*CAP
1 *4271:A 0.000336025
2 *3983:B 0.000114903
3 *4273:A1 0.000137075
4 *3979:A 0.000219959
5 *4491:Q 4.22068e-05
6 *933:36 0.000495979
7 *933:12 0.000670165
8 *933:8 0.000400388
9 *3979:A *3980:A 6.05161e-06
10 *3983:B *3983:A 3.69047e-06
11 *4273:A1 *3980:A 5.51576e-05
12 *933:12 *3980:A 2.08215e-05
13 *3979:B *3979:A 0.000151926
14 *3980:B *3979:A 4.5632e-05
15 *4271:B *4271:A 0.000271898
16 *4272:A2 *4271:A 2.84026e-05
17 *4274:A1 *4271:A 2.53878e-05
18 *4274:A1 *933:12 3.27268e-05
19 *4274:A1 *933:36 2.00123e-05
20 *4274:A2 *3983:B 5.03772e-05
21 *4274:A2 *4271:A 1.08936e-05
22 *4274:A2 *933:12 0.000190697
23 *4274:A2 *933:36 3.42301e-05
24 *4491:RESET_B *933:8 2.84026e-05
25 *195:23 *4273:A1 5.59013e-05
26 *197:12 *4273:A1 9.90367e-05
27 *200:10 *4271:A 0.000240565
28 *619:25 *3983:B 2.13481e-06
*RES
1 *4491:Q *933:8 14.3357 
2 *933:8 *933:12 11 
3 *933:12 *3979:A 12.3179 
4 *933:12 *4273:A1 20.8 
5 *933:8 *933:36 1.03571 
6 *933:36 *3983:B 15.1571 
7 *933:36 *4271:A 21.5143 
*END

*D_NET *934 0.00256911
*CONN
*I *3983:A I *D sky130_fd_sc_hd__or4_2
*I *4825:A I *D sky130_fd_sc_hd__dlygate4sd3_1
*I *3980:A I *D sky130_fd_sc_hd__or2_2
*I *4492:Q O *D sky130_fd_sc_hd__dfrtp_2
*CAP
1 *3983:A 7.43398e-05
2 *4825:A 3.76009e-05
3 *3980:A 9.42148e-05
4 *4492:Q 0.000147609
5 *934:21 0.000177937
6 *934:8 0.000307821
7 *3979:A *3980:A 6.05161e-06
8 *3979:B *3980:A 0.000140933
9 *3983:B *3983:A 3.69047e-06
10 *3983:D *3980:A 0.000100823
11 *3983:D *3983:A 0.000221163
12 *3983:D *934:21 0.000246057
13 *4273:A1 *3980:A 5.51576e-05
14 *4274:A1 *4825:A 0.000136958
15 *4274:A2 *3980:A 7.83659e-05
16 *4274:A2 *3983:A 0.000187733
17 *4274:A2 *934:21 0.000239236
18 *4491:RESET_B *4825:A 0.000136958
19 *4492:RESET_B *934:8 5.91321e-05
20 *195:47 *3980:A 1.81805e-05
21 *197:12 *3980:A 5.71472e-05
22 *200:10 *3983:A 1.31516e-05
23 *488:32 *934:8 4.66989e-07
24 *619:25 *3983:A 7.56452e-06
25 *933:12 *3980:A 2.08215e-05
*RES
1 *4492:Q *934:8 15.5679 
2 *934:8 *3980:A 17.1036 
3 *934:8 *934:21 3.16071 
4 *934:21 *4825:A 15.1571 
5 *934:21 *3983:A 16.8134 
*END

*D_NET *935 0.00274301
*CONN
*I *3981:A I *D sky130_fd_sc_hd__or2_2
*I *4822:A I *D sky130_fd_sc_hd__dlygate4sd3_1
*I *3982:B I *D sky130_fd_sc_hd__or2_2
*I *4493:Q O *D sky130_fd_sc_hd__dfrtp_2
*CAP
1 *3981:A 5.19201e-05
2 *4822:A 0
3 *3982:B 0.000314794
4 *4493:Q 0.000195364
5 *935:25 8.47345e-05
6 *935:10 0.000542972
7 *3982:B *3982:A 0.000475037
8 *935:10 *3982:A 0.000148903
9 *3981:B *3981:A 8.46829e-05
10 *3981:B *935:25 9.60939e-05
11 *4242:B *3982:B 9.41642e-05
12 *4418:RESET_B *935:10 6.44415e-05
13 *4644:A *3981:A 0.000142856
14 *198:8 *3981:A 1.55885e-05
15 *198:8 *935:25 3.14163e-05
16 *457:10 *3982:B 1.37292e-05
17 *488:67 *3982:B 0.000295844
18 *677:14 *3982:B 3.97543e-05
19 *677:14 *935:10 5.07157e-05
*RES
1 *4493:Q *935:10 17.5143 
2 *935:10 *3982:B 22.0857 
3 *935:10 *935:25 5.44643 
4 *935:25 *4822:A 9.3 
5 *935:25 *3981:A 11.0679 
*END

*D_NET *936 0.00272244
*CONN
*I *4806:A I *D sky130_fd_sc_hd__dlygate4sd3_1
*I *3982:A I *D sky130_fd_sc_hd__or2_2
*I *4494:Q O *D sky130_fd_sc_hd__dfrtp_2
*CAP
1 *4806:A 0.000217958
2 *3982:A 0.000581831
3 *4494:Q 0
4 *936:6 0.000799788
5 *3982:B *3982:A 0.000475037
6 *4242:B *3982:A 0.000136958
7 *4418:RESET_B *3982:A 0
8 *4644:A *3982:A 8.56716e-05
9 *4666:A *4806:A 0
10 *4695:A *4806:A 0
11 *4701:A *4806:A 5.33433e-05
12 *457:10 *3982:A 0.000123912
13 *642:45 *4806:A 9.90431e-05
14 *677:14 *3982:A 0
15 *677:14 *4806:A 0
16 *935:10 *3982:A 0.000148903
*RES
1 *4494:Q *936:6 13.8 
2 *936:6 *3982:A 27.3893 
3 *936:6 *4806:A 17.9071 
*END

*D_NET *937 0.00218326
*CONN
*I *3985:A I *D sky130_fd_sc_hd__or2_2
*I *3984:A I *D sky130_fd_sc_hd__or2_2
*I *4820:A I *D sky130_fd_sc_hd__dlygate4sd3_1
*I *4495:Q O *D sky130_fd_sc_hd__dfrtp_2
*CAP
1 *3985:A 0
2 *3984:A 0.000151553
3 *4820:A 0.000180331
4 *4495:Q 7.46284e-05
5 *937:25 0.000226828
6 *937:8 0.000330234
7 *3988:D *3984:A 5.52238e-05
8 *4495:RESET_B *937:8 5.33005e-05
9 *200:21 *3984:A 0.000223592
10 *200:21 *4820:A 0.000249493
11 *200:21 *937:25 0.000117903
12 *201:8 *3984:A 6.48957e-05
13 *203:10 *3984:A 5.52238e-05
14 *642:57 *4820:A 0.000186669
15 *683:72 *4820:A 3.17148e-05
16 *683:72 *937:25 0.000126439
17 *683:84 *937:8 5.52302e-05
*RES
1 *4495:Q *937:8 14.7464 
2 *937:8 *4820:A 18.7286 
3 *937:8 *937:25 6.67857 
4 *937:25 *3984:A 22.2286 
5 *937:25 *3985:A 9.3 
*END

*D_NET *938 0.00054736
*CONN
*I *4807:A I *D sky130_fd_sc_hd__dlygate4sd3_1
*I *3985:B I *D sky130_fd_sc_hd__or2_2
*I *4496:Q O *D sky130_fd_sc_hd__dfrtp_2
*CAP
1 *4807:A 8.79381e-05
2 *3985:B 0.000155561
3 *4496:Q 0.000243499
4 *4496:RESET_B *3985:B 2.84026e-05
5 *201:8 *4807:A 3.19595e-05
*RES
1 *4496:Q *3985:B 21.2071 
2 *4496:Q *4807:A 29.2429 
*END

*D_NET *939 0.0140379
*CONN
*I *4315:B1 I *D sky130_fd_sc_hd__o21a_2
*I *4601:A I *D sky130_fd_sc_hd__buf_2
*I *4343:B1 I *D sky130_fd_sc_hd__o21a_2
*I *4327:B1 I *D sky130_fd_sc_hd__o21a_2
*I *3975:Y O *D sky130_fd_sc_hd__inv_2
*CAP
1 *4315:B1 0.00055835
2 *4601:A 0.000282195
3 *4343:B1 0
4 *4327:B1 0.00018972
5 *3975:Y 0.000755704
6 *939:46 0.00309181
7 *939:27 0.00350949
8 *939:6 0.00108695
9 *4315:B1 *4318:A1 0.000234095
10 *4315:B1 *4586:D 0.000129868
11 *4315:B1 *978:8 0
12 *939:27 *4803:A 0.000142856
13 *939:27 *964:6 0.000271339
14 *939:46 *4594:D 1.36806e-05
15 *939:46 *4762:A 0.000125731
16 *939:46 *972:8 0.000147847
17 *3975:A *939:6 2.59355e-05
18 *4328:A *939:27 0.000207753
19 *4328:B *4327:B1 3.15645e-05
20 *4328:B *939:27 0
21 *4343:A2 *939:46 0.000649776
22 *4348:A *939:46 0.000399841
23 *4348:B *939:46 2.14757e-05
24 *4377:B *4601:A 0.000230482
25 *4380:A2 *4601:A 3.67257e-05
26 *4382:A1 *939:46 1.5424e-05
27 *4382:A3 *939:46 9.90367e-05
28 *4382:B1 *939:46 9.90367e-05
29 *4435:D *939:46 0.000184745
30 *4436:CLK *939:46 0
31 *4436:D *939:46 0
32 *4436:RESET_B *939:46 0.000100735
33 *4437:CLK *939:46 0.000268403
34 *4586:RESET_B *4327:B1 0.000417914
35 *4594:CLK *939:46 1.83136e-05
36 *176:35 *4315:B1 0.000164193
37 *484:12 *939:27 0
38 *489:55 *939:46 0
39 *648:41 *4327:B1 0.000177837
40 *648:56 *4315:B1 2.82057e-05
41 *649:18 *939:27 0.000108251
42 *715:89 *939:46 0.000212645
*RES
1 *3975:Y *939:6 11.4786 
2 *939:6 *4327:B1 24.8 
3 *939:6 *939:27 21.1607 
4 *939:27 *4343:B1 9.3 
5 *939:27 *939:46 49.9107 
6 *939:46 *4601:A 14.7821 
7 *3975:Y *4315:B1 38.6179 
*END

*D_NET *940 0.000754114
*CONN
*I *4575:D I *D sky130_fd_sc_hd__dfrtp_2
*I *4307:Y O *D sky130_fd_sc_hd__nor2_2
*CAP
1 *4575:D 0.000316083
2 *4307:Y 0.000316083
3 *471:45 *4575:D 0
4 *471:51 *4575:D 0
5 *690:29 *4575:D 0
6 *690:73 *4575:D 0.000121948
*RES
1 *4307:Y *4575:D 34.0464 
*END

*D_NET *941 0.000404301
*CONN
*I *4585:D I *D sky130_fd_sc_hd__dfrtp_2
*I *4327:X O *D sky130_fd_sc_hd__o21a_2
*CAP
1 *4585:D 0.000151735
2 *4327:X 0.000151735
3 *472:28 *4585:D 0
4 *648:41 *4585:D 0.000100831
*RES
1 *4327:X *4585:D 29.8857 
*END

*D_NET *942 0.00127295
*CONN
*I *4586:D I *D sky130_fd_sc_hd__dfrtp_2
*I *4329:Y O *D sky130_fd_sc_hd__nor2_2
*CAP
1 *4586:D 0.000341684
2 *4329:Y 0.000341684
3 *4586:D *978:8 0
4 *4586:D *978:10 0
5 *4315:B1 *4586:D 0.000129868
6 *4329:B *4586:D 9.90431e-05
7 *648:41 *4586:D 0.000148911
8 *648:56 *4586:D 0.000211761
*RES
1 *4329:Y *4586:D 35.1 
*END

*D_NET *943 0.000476991
*CONN
*I *4587:D I *D sky130_fd_sc_hd__dfrtp_2
*I *4331:Y O *D sky130_fd_sc_hd__a21oi_2
*CAP
1 *4587:D 0.000103013
2 *4331:Y 0.000103013
3 *4587:RESET_B *4587:D 0.00014285
4 *470:64 *4587:D 2.72859e-05
5 *648:30 *4587:D 0.000100831
*RES
1 *4331:Y *4587:D 30.2964 
*END

*D_NET *944 0.000388915
*CONN
*I *4588:D I *D sky130_fd_sc_hd__dfrtp_2
*I *4333:Y O *D sky130_fd_sc_hd__a21oi_2
*CAP
1 *4588:D 0.000143977
2 *4333:Y 0.000143977
3 *4588:D *4589:D 0
4 *4588:D *966:10 0
5 *648:24 *4588:D 0.00010096
*RES
1 *4333:Y *4588:D 29.8857 
*END

*D_NET *945 0.000382121
*CONN
*I *4589:D I *D sky130_fd_sc_hd__dfrtp_2
*I *4335:Y O *D sky130_fd_sc_hd__nor2_2
*CAP
1 *4589:D 0.000152173
2 *4335:Y 0.000152173
3 *4337:A2 *4589:D 0
4 *4588:CLK *4589:D 6.05161e-06
5 *4588:D *4589:D 0
6 *484:42 *4589:D 7.17235e-05
*RES
1 *4335:Y *4589:D 30.2964 
*END

*D_NET *946 0.000532892
*CONN
*I *4590:D I *D sky130_fd_sc_hd__dfrtp_2
*I *4337:Y O *D sky130_fd_sc_hd__a21oi_2
*CAP
1 *4590:D 0.00017159
2 *4337:Y 0.00017159
3 *4337:A1 *4590:D 7.43578e-06
4 *4337:A2 *4590:D 0.000101545
5 *4440:CLK *4590:D 8.07313e-05
6 *484:36 *4590:D 0
*RES
1 *4337:Y *4590:D 30.8321 
*END

*D_NET *947 0.00173257
*CONN
*I *4591:D I *D sky130_fd_sc_hd__dfrtp_2
*I *4339:Y O *D sky130_fd_sc_hd__a21oi_2
*CAP
1 *4591:D 0.000574994
2 *4339:Y 0.000574994
3 *4339:A2 *4591:D 0.000111148
4 *4339:B1 *4591:D 0.000372398
5 *4343:A1 *4591:D 0
6 *4343:A2 *4591:D 9.90367e-05
7 *189:38 *4591:D 0
8 *705:52 *4591:D 0
*RES
1 *4339:Y *4591:D 37.5821 
*END

*D_NET *948 0.000885453
*CONN
*I *4592:D I *D sky130_fd_sc_hd__dfrtp_2
*I *4341:Y O *D sky130_fd_sc_hd__nor2_2
*CAP
1 *4592:D 0.000329216
2 *4341:Y 0.000329216
3 *4328:A *4592:D 0
4 *4341:A *4592:D 0
5 *4593:CLK *4592:D 0.000168698
6 *484:12 *4592:D 5.83233e-05
*RES
1 *4341:Y *4592:D 33.9393 
*END

*D_NET *949 0.000697958
*CONN
*I *4593:D I *D sky130_fd_sc_hd__dfrtp_2
*I *4343:X O *D sky130_fd_sc_hd__o21a_2
*CAP
1 *4593:D 0.000345261
2 *4343:X 0.000345261
3 *4341:A *4593:D 7.43578e-06
4 *4593:CLK *4593:D 0
5 *4593:RESET_B *4593:D 0
6 *484:12 *4593:D 0
7 *705:52 *4593:D 0
*RES
1 *4343:X *4593:D 33.4393 
*END

*D_NET *950 0.00068553
*CONN
*I *4594:D I *D sky130_fd_sc_hd__dfrtp_2
*I *4345:Y O *D sky130_fd_sc_hd__nor2_2
*CAP
1 *4594:D 0.000217789
2 *4345:Y 0.000217789
3 *4345:B *4594:D 0.000104974
4 *4594:CLK *4594:D 2.80437e-05
5 *485:51 *4594:D 0.000103253
6 *939:46 *4594:D 1.36806e-05
*RES
1 *4345:Y *4594:D 31.033 
*END

*D_NET *951 0.000416279
*CONN
*I *4576:D I *D sky130_fd_sc_hd__dfrtp_2
*I *4309:Y O *D sky130_fd_sc_hd__a21oi_2
*CAP
1 *4576:D 7.40277e-05
2 *4309:Y 7.40277e-05
3 *4313:B1 *4576:D 0.000153054
4 *4576:CLK *4576:D 5.80217e-05
5 *4578:CLK *4576:D 5.71472e-05
*RES
1 *4309:Y *4576:D 30.0821 
*END

*D_NET *952 0.00097602
*CONN
*I *4595:D I *D sky130_fd_sc_hd__dfrtp_2
*I *4347:X O *D sky130_fd_sc_hd__mux2_1
*CAP
1 *4595:D 0.000158317
2 *4347:X 0.000158317
3 *4595:D *972:27 0.000154762
4 *3973:D *4595:D 0.000173629
5 *4346:A2 *4595:D 0.000177941
6 *173:19 *4595:D 0.000153054
*RES
1 *4347:X *4595:D 32.2071 
*END

*D_NET *953 0.00027205
*CONN
*I *4596:D I *D sky130_fd_sc_hd__dfrtp_2
*I *4348:X O *D sky130_fd_sc_hd__and2_2
*CAP
1 *4596:D 6.76806e-05
2 *4348:X 6.76806e-05
3 *4596:D *3974:A 5.83233e-05
4 *4596:D *4781:A 7.83659e-05
5 *4384:A3 *4596:D 0
6 *4437:D *4596:D 0
*RES
1 *4348:X *4596:D 29.2429 
*END

*D_NET *954 0.000537297
*CONN
*I *4577:D I *D sky130_fd_sc_hd__dfrtp_2
*I *4311:Y O *D sky130_fd_sc_hd__a21oi_2
*CAP
1 *4577:D 0.000206161
2 *4311:Y 0.000206161
3 *4311:A2 *4577:D 0.000103253
4 *174:14 *4577:D 2.17215e-05
5 *647:43 *4577:D 0
*RES
1 *4311:Y *4577:D 30.7652 
*END

*D_NET *955 0.000844575
*CONN
*I *4578:D I *D sky130_fd_sc_hd__dfrtp_2
*I *4313:Y O *D sky130_fd_sc_hd__a21oi_2
*CAP
1 *4578:D 0.000272458
2 *4313:Y 0.000272458
3 *4311:A2 *4578:D 0.00017378
4 *4313:B1 *4578:D 2.78608e-05
5 *175:6 *4578:D 9.80173e-05
*RES
1 *4313:Y *4578:D 33.0286 
*END

*D_NET *956 0.000701511
*CONN
*I *4579:D I *D sky130_fd_sc_hd__dfrtp_2
*I *4315:X O *D sky130_fd_sc_hd__o21a_2
*CAP
1 *4579:D 0.000225764
2 *4315:X 0.000225764
3 *4579:D *4816:A 0
4 *4579:RESET_B *4579:D 1.02504e-05
5 *4669:A *4579:D 9.25014e-06
6 *176:35 *4579:D 0.000230482
*RES
1 *4315:X *4579:D 31.1179 
*END

*D_NET *957 0.000415596
*CONN
*I *4580:D I *D sky130_fd_sc_hd__dfrtp_2
*I *4317:Y O *D sky130_fd_sc_hd__nor2_2
*CAP
1 *4580:D 0.000151574
2 *4317:Y 0.000151574
3 *4325:B1 *4580:D 0
4 *178:25 *4580:D 0.000103253
5 *472:50 *4580:D 9.195e-06
*RES
1 *4317:Y *4580:D 29.9438 
*END

*D_NET *958 0.000436593
*CONN
*I *4581:D I *D sky130_fd_sc_hd__dfrtp_2
*I *4319:Y O *D sky130_fd_sc_hd__a21oi_2
*CAP
1 *4581:D 0.000159078
2 *4319:Y 0.000159078
3 *4319:A1 *4581:D 0.000118437
*RES
1 *4319:Y *4581:D 21.6179 
*END

*D_NET *959 0.00121577
*CONN
*I *4582:D I *D sky130_fd_sc_hd__dfrtp_2
*I *4321:Y O *D sky130_fd_sc_hd__a21oi_2
*CAP
1 *4582:D 0.000305553
2 *4321:Y 0.000305553
3 *4582:D *982:25 0.000116526
4 *4321:A1 *4582:D 5.33334e-05
5 *4323:A2 *4582:D 0.000320016
6 *4707:A *4582:D 0.000114789
*RES
1 *4321:Y *4582:D 34.2607 
*END

*D_NET *960 0.000381176
*CONN
*I *4583:D I *D sky130_fd_sc_hd__dfrtp_2
*I *4323:Y O *D sky130_fd_sc_hd__a21oi_2
*CAP
1 *4583:D 0.000114064
2 *4323:Y 0.000114064
3 *3962:B *4583:D 0.000153047
4 *4841:A *4583:D 0
*RES
1 *4323:Y *4583:D 30.0821 
*END

*D_NET *961 0.00106277
*CONN
*I *4584:D I *D sky130_fd_sc_hd__dfrtp_2
*I *4325:Y O *D sky130_fd_sc_hd__a21oi_2
*CAP
1 *4584:D 0.000308434
2 *4325:Y 0.000308434
3 *4325:A1 *4584:D 0.000320031
4 *4325:B1 *4584:D 0
5 *4583:RESET_B *4584:D 0
6 *4587:RESET_B *4584:D 0.000125877
*RES
1 *4325:Y *4584:D 34.6714 
*END

*D_NET *962 0.00309999
*CONN
*I *3956:A I *D sky130_fd_sc_hd__or2_2
*I *3958:A I *D sky130_fd_sc_hd__or4_2
*I *4849:A I *D sky130_fd_sc_hd__dlygate4sd3_1
*I *4308:A I *D sky130_fd_sc_hd__nand2_2
*I *4575:Q O *D sky130_fd_sc_hd__dfrtp_2
*CAP
1 *3956:A 0.000116759
2 *3958:A 9.64972e-05
3 *4849:A 5.65919e-05
4 *4308:A 0.000346919
5 *4575:Q 0.000200701
6 *962:28 0.000353817
7 *962:10 0.000403511
8 *962:8 0.000341261
9 *3956:A *3958:D 0.000227736
10 *3956:A *4308:B 0
11 *3958:A *3958:C 1.74352e-05
12 *3958:A *3958:D 0.000144773
13 *4308:A *4308:B 9.44758e-05
14 *962:28 *4308:B 0
15 *4307:A *4308:A 0.000230482
16 *4307:B *4308:A 5.71472e-05
17 *4624:A *962:8 0
18 *4707:A *962:8 9.56968e-05
19 *647:14 *3956:A 0
20 *647:18 *3958:A 0.000316184
21 *647:37 *3958:A 0
22 *690:73 *962:8 0
*RES
1 *4575:Q *962:8 17.8714 
2 *962:8 *962:10 4.5 
3 *962:10 *4308:A 16.425 
4 *962:10 *4849:A 10.2464 
5 *962:8 *962:28 2.25 
6 *962:28 *3958:A 17.2286 
7 *962:28 *3956:A 16.9607 
*END

*D_NET *963 0.00129496
*CONN
*I *3965:A I *D sky130_fd_sc_hd__or2_2
*I *4326:A I *D sky130_fd_sc_hd__and2_2
*I *3964:A I *D sky130_fd_sc_hd__nor2_2
*I *4585:Q O *D sky130_fd_sc_hd__dfrtp_2
*CAP
1 *3965:A 0.000146259
2 *4326:A 0
3 *3964:A 0.000164491
4 *4585:Q 0
5 *963:10 0.000432909
6 *963:4 0.000414677
7 *3965:A *3965:B 5.33005e-05
8 *4326:B *3964:A 8.05006e-05
9 *4328:B *963:10 0
10 *181:40 *3964:A 2.8266e-06
11 *484:12 *3964:A 0
12 *484:12 *963:10 0
*RES
1 *4585:Q *963:4 9.3 
2 *963:4 *963:10 9.125 
3 *963:10 *3964:A 17.1929 
4 *963:10 *4326:A 13.8 
5 *963:4 *3965:A 11.925 
*END

*D_NET *964 0.0012649
*CONN
*I *4803:A I *D sky130_fd_sc_hd__dlygate4sd3_1
*I *3965:B I *D sky130_fd_sc_hd__or2_2
*I *4586:Q O *D sky130_fd_sc_hd__dfrtp_2
*CAP
1 *4803:A 5.08031e-05
2 *3965:B 0.000140003
3 *4586:Q 0.000109972
4 *964:6 0.000300778
5 *3965:A *3965:B 5.33005e-05
6 *484:12 *3965:B 0.000195849
7 *939:27 *4803:A 0.000142856
8 *939:27 *964:6 0.000271339
*RES
1 *4586:Q *964:6 11.8893 
2 *964:6 *3965:B 21.3893 
3 *964:6 *4803:A 10.6571 
*END

*D_NET *965 0.00179463
*CONN
*I *3967:A I *D sky130_fd_sc_hd__or2_2
*I *4819:A I *D sky130_fd_sc_hd__dlygate4sd3_1
*I *3966:A I *D sky130_fd_sc_hd__or3_2
*I *4587:Q O *D sky130_fd_sc_hd__dfrtp_2
*CAP
1 *3967:A 0.000106512
2 *4819:A 4.97712e-05
3 *3966:A 0.0001312
4 *4587:Q 0.000261822
5 *965:22 0.000286905
6 *3967:A *3967:B 0.000103041
7 *965:22 *3967:B 7.73758e-05
8 *3966:B *3966:A 7.77751e-05
9 *3970:A *4819:A 0.000130419
10 *3970:D *3967:A 0
11 *4330:A2 *4819:A 0.000295784
12 *181:49 *4819:A 0.000184745
13 *184:14 *3966:A 5.23142e-05
14 *184:14 *965:22 3.69697e-05
*RES
1 *4587:Q *3966:A 21.6 
2 *4587:Q *965:22 16.2821 
3 *965:22 *4819:A 16.8 
4 *965:22 *3967:A 16.3536 
*END

*D_NET *966 0.00263961
*CONN
*I *3967:B I *D sky130_fd_sc_hd__or2_2
*I *4833:A I *D sky130_fd_sc_hd__dlygate4sd3_1
*I *3968:A I *D sky130_fd_sc_hd__or2_2
*I *4588:Q O *D sky130_fd_sc_hd__dfrtp_2
*CAP
1 *3967:B 0.000305531
2 *4833:A 5.66734e-05
3 *3968:A 0.000192825
4 *4588:Q 0.000343121
5 *966:10 0.000401787
6 *966:8 0.00080094
7 *3966:B *3967:B 0
8 *3967:A *3967:B 0.000103041
9 *4586:RESET_B *3967:B 0
10 *4586:RESET_B *3968:A 0
11 *4586:RESET_B *966:10 0
12 *4588:D *966:10 0
13 *181:40 *3967:B 0.000202128
14 *648:24 *4833:A 9.90367e-05
15 *648:30 *4833:A 5.71472e-05
16 *965:22 *3967:B 7.73758e-05
*RES
1 *4588:Q *966:8 18.8536 
2 *966:8 *966:10 2.55357 
3 *966:10 *3968:A 16.6571 
4 *966:10 *4833:A 15.1571 
5 *966:8 *3967:B 21.2107 
*END

*D_NET *967 0.00293687
*CONN
*I *3969:A I *D sky130_fd_sc_hd__or2_2
*I *4334:A I *D sky130_fd_sc_hd__xor2_2
*I *4336:A1 I *D sky130_fd_sc_hd__o21ai_2
*I *4589:Q O *D sky130_fd_sc_hd__dfrtp_2
*CAP
1 *3969:A 0.000244733
2 *4334:A 0
3 *4336:A1 0.000164546
4 *4589:Q 0.000208486
5 *967:10 0.000246303
6 *967:8 0.000534975
7 *3969:A *3971:A 4.46186e-06
8 *4334:B *4336:A1 0
9 *4336:B1 *4336:A1 7.43578e-06
10 *4337:A2 *3969:A 0.000359568
11 *4337:A2 *4336:A1 0.000129868
12 *4337:A2 *967:10 0.000216771
13 *4589:RESET_B *967:8 4.96155e-05
14 *186:8 *4336:A1 5.7661e-06
15 *189:10 *3969:A 5.52238e-05
16 *484:6 *3969:A 5.52238e-05
17 *484:36 *3969:A 0
18 *648:10 *3969:A 0.000131015
19 *648:18 *3969:A 0.000369825
20 *648:18 *967:10 0.000153047
21 *705:10 *967:10 0
22 *713:12 *4336:A1 0
*RES
1 *4589:Q *967:8 17.2107 
2 *967:8 *967:10 2.85714 
3 *967:10 *4336:A1 17.1214 
4 *967:10 *4334:A 13.8 
5 *967:8 *3969:A 22.4071 
*END

*D_NET *968 0.00243057
*CONN
*I *3969:B I *D sky130_fd_sc_hd__or2_2
*I *4812:A I *D sky130_fd_sc_hd__dlygate4sd3_1
*I *4590:Q O *D sky130_fd_sc_hd__dfrtp_2
*CAP
1 *3969:B 0.000386
2 *4812:A 0.000217625
3 *4590:Q 0
4 *968:6 0.000603624
5 *4591:RESET_B *3969:B 0
6 *4596:RESET_B *3969:B 6.79735e-05
7 *4723:A *3969:B 0.000195555
8 *4723:A *4812:A 0.000119618
9 *4729:A *4812:A 0.000120833
10 *189:10 *3969:B 0.000519182
11 *484:6 *3969:B 0.00014183
12 *705:20 *3969:B 0
13 *705:20 *4812:A 0
14 *713:46 *4812:A 5.83304e-05
*RES
1 *4590:Q *968:6 13.8 
2 *968:6 *4812:A 18.6393 
3 *968:6 *3969:B 23.7286 
*END

*D_NET *969 0.00144053
*CONN
*I *4805:A I *D sky130_fd_sc_hd__dlygate4sd3_1
*I *3971:A I *D sky130_fd_sc_hd__or2_2
*I *4591:Q O *D sky130_fd_sc_hd__dfrtp_2
*CAP
1 *4805:A 0.000187236
2 *3971:A 0.000238061
3 *4591:Q 0
4 *969:6 0.000425298
5 *3969:A *3971:A 4.46186e-06
6 *3970:D *3971:A 4.88637e-05
7 *4338:A *3971:A 5.57914e-05
8 *4338:A *4805:A 4.01501e-05
9 *4338:B *3971:A 0
10 *4339:B1 *3971:A 0
11 *183:10 *3971:A 0
12 *183:10 *4805:A 0
13 *189:10 *3971:A 0.00010096
14 *484:6 *3971:A 0.000186662
15 *484:36 *3971:A 0
16 *648:10 *3971:A 0
17 *705:52 *4805:A 0.000153047
*RES
1 *4591:Q *969:6 13.8 
2 *969:6 *3971:A 19.6393 
3 *969:6 *4805:A 17.9071 
*END

*D_NET *970 0.00135722
*CONN
*I *4831:A I *D sky130_fd_sc_hd__dlygate4sd3_1
*I *3955:A I *D sky130_fd_sc_hd__or2_2
*I *4342:A1 I *D sky130_fd_sc_hd__o21a_2
*I *4592:Q O *D sky130_fd_sc_hd__dfrtp_2
*CAP
1 *4831:A 2.58863e-05
2 *3955:A 0.000214024
3 *4342:A1 0.00014399
4 *4592:Q 0.000119856
5 *970:8 0.000358014
6 *970:6 0.000145742
7 *3955:A *3955:B 5.01213e-05
8 *4339:A1 *4342:A1 5.49589e-06
9 *4340:A *3955:A 0
10 *4340:A *970:6 3.18676e-05
11 *4342:B1 *3955:A 4.57538e-05
12 *4342:B1 *4342:A1 6.40986e-05
13 *4343:A1 *4342:A1 0
14 *4343:A1 *4831:A 1.56e-05
15 *4343:A1 *970:6 0.00012389
16 *4343:A2 *4342:A1 1.28809e-05
17 *4593:RESET_B *3955:A 0
18 *4593:RESET_B *4342:A1 0
19 *189:38 *3955:A 0
20 *190:8 *3955:A 0
21 *705:52 *4342:A1 0
*RES
1 *4592:Q *970:6 12.3 
2 *970:6 *970:8 4.5 
3 *970:8 *4342:A1 16.483 
4 *970:8 *3955:A 18.175 
5 *970:6 *4831:A 9.83571 
*END

*D_NET *971 0.000417375
*CONN
*I *3955:B I *D sky130_fd_sc_hd__or2_2
*I *4824:A I *D sky130_fd_sc_hd__dlygate4sd3_1
*I *4593:Q O *D sky130_fd_sc_hd__dfrtp_2
*CAP
1 *3955:B 9.61869e-05
2 *4824:A 6.23839e-05
3 *4593:Q 0.000158571
4 *3955:A *3955:B 5.01213e-05
5 *4340:A *3955:B 5.01117e-05
*RES
1 *4593:Q *4824:A 19.5464 
2 *4593:Q *3955:B 29.475 
*END

*D_NET *972 0.00321119
*CONN
*I *4826:A I *D sky130_fd_sc_hd__dlygate4sd3_1
*I *3973:A I *D sky130_fd_sc_hd__or4_2
*I *4346:A1 I *D sky130_fd_sc_hd__o31a_2
*I *4594:Q O *D sky130_fd_sc_hd__dfrtp_2
*CAP
1 *4826:A 0.000245751
2 *3973:A 2.22847e-05
3 *4346:A1 0.000145946
4 *4594:Q 0.000226765
5 *972:27 0.000646801
6 *972:8 0.000751477
7 *4346:A1 *4346:B1 7.97318e-05
8 *4826:A *3973:B 2.12005e-05
9 *972:27 *3973:B 1.32056e-05
10 *3973:C *972:27 0.000271904
11 *4344:A *4826:A 0.000114694
12 *4344:A *972:27 2.70242e-05
13 *4346:A2 *4346:A1 0.000152579
14 *4346:A2 *972:27 0.000108061
15 *4347:A1 *4346:A1 5.52238e-05
16 *4595:D *972:27 0.000154762
17 *191:8 *4826:A 2.59355e-05
18 *939:46 *972:8 0.000147847
*RES
1 *4594:Q *972:8 18.0321 
2 *972:8 *4346:A1 17.7107 
3 *972:8 *972:27 13.0179 
4 *972:27 *3973:A 9.72857 
5 *972:27 *4826:A 13.9429 
*END

*D_NET *973 0.00222534
*CONN
*I *3956:B I *D sky130_fd_sc_hd__or2_2
*I *3958:B I *D sky130_fd_sc_hd__or4_2
*I *4308:B I *D sky130_fd_sc_hd__nand2_2
*I *4576:Q O *D sky130_fd_sc_hd__dfrtp_2
*CAP
1 *3956:B 0.000126525
2 *3958:B 0
3 *4308:B 0.000308869
4 *4576:Q 0.000183292
5 *973:12 0.000359037
6 *973:10 0.000359984
7 *4308:B *3958:C 1.41706e-05
8 *4308:B *3958:D 0
9 *973:10 *3958:C 2.97756e-05
10 *973:10 *976:23 9.45575e-05
11 *973:12 *3958:C 4.57445e-05
12 *3956:A *4308:B 0
13 *4307:A *4308:B 9.90431e-05
14 *4307:B *4308:B 5.52302e-05
15 *4308:A *4308:B 9.44758e-05
16 *4576:RESET_B *973:10 6.39262e-05
17 *174:14 *3956:B 0.000114609
18 *690:73 *4308:B 0.000118339
19 *690:73 *973:10 2.82057e-05
20 *690:73 *973:12 6.30292e-05
21 *690:82 *973:10 6.65302e-05
22 *962:28 *4308:B 0
*RES
1 *4576:Q *973:10 18.7107 
2 *973:10 *973:12 1.64286 
3 *973:12 *4308:B 20.0857 
4 *973:12 *3958:B 13.8 
5 *973:10 *3956:B 16.4071 
*END

*D_NET *974 0.0033525
*CONN
*I *3973:B I *D sky130_fd_sc_hd__or4_2
*I *4346:B1 I *D sky130_fd_sc_hd__o31a_2
*I *4595:Q O *D sky130_fd_sc_hd__dfrtp_2
*CAP
1 *3973:B 0.000139878
2 *4346:B1 0.000656337
3 *4595:Q 0.000240578
4 *974:8 0.00103679
5 *3974:B *4346:B1 1.98129e-05
6 *4346:A1 *4346:B1 7.97318e-05
7 *4346:A2 *4346:B1 2.13218e-05
8 *4346:A3 *4346:B1 2.07878e-05
9 *4347:A1 *3973:B 0.000197182
10 *4347:A1 *4346:B1 0.000437446
11 *4595:RESET_B *974:8 4.70821e-05
12 *4596:RESET_B *4346:B1 3.27526e-05
13 *4671:A *4346:B1 0.000378257
14 *4826:A *3973:B 2.12005e-05
15 *582:8 *974:8 1.01277e-05
16 *972:27 *3973:B 1.32056e-05
*RES
1 *4595:Q *974:8 16.3893 
2 *974:8 *4346:B1 25.8 
3 *974:8 *3973:B 16.8893 
*END

*D_NET *975 0.00293437
*CONN
*I *4781:A I *D sky130_fd_sc_hd__dlygate4sd3_1
*I *3974:A I *D sky130_fd_sc_hd__nor2_2
*I *4596:Q O *D sky130_fd_sc_hd__dfrtp_2
*CAP
1 *4781:A 0.0002304
2 *3974:A 0.000413579
3 *4596:Q 0.00052785
4 *975:8 0.00117183
5 *3974:B *3974:A 0.000271302
6 *4347:A1 *975:8 0.000182723
7 *4348:A *4781:A 0
8 *4384:A3 *3974:A 0
9 *4384:A3 *4781:A 0
10 *4595:RESET_B *3974:A 0
11 *4595:RESET_B *4781:A 0
12 *4596:D *3974:A 5.83233e-05
13 *4596:D *4781:A 7.83659e-05
14 *651:16 *3974:A 0
*RES
1 *4596:Q *975:8 20.0857 
2 *975:8 *3974:A 22.0143 
3 *975:8 *4781:A 17.8714 
*END

*D_NET *976 0.00273145
*CONN
*I *4835:A I *D sky130_fd_sc_hd__dlygate4sd3_1
*I *3957:A I *D sky130_fd_sc_hd__or2_2
*I *3958:C I *D sky130_fd_sc_hd__or4_2
*I *4577:Q O *D sky130_fd_sc_hd__dfrtp_2
*CAP
1 *4835:A 1.44544e-05
2 *3957:A 0.000203567
3 *3958:C 0.000148926
4 *4577:Q 0
5 *976:23 0.000497833
6 *976:6 0.000428737
7 *3958:C *3958:D 8.70125e-05
8 *976:23 *3958:D 2.79092e-05
9 *976:23 *4804:A 9.40388e-05
10 *3958:A *3958:C 1.74352e-05
11 *4308:B *3958:C 1.41706e-05
12 *4310:A *3957:A 9.28602e-05
13 *4312:A *976:23 0
14 *4312:B *3957:A 0.000340089
15 *4312:B *4835:A 8.66063e-05
16 *4313:A1 *976:23 0
17 *4313:A2 *3957:A 0.000230475
18 *4313:A2 *4835:A 9.90431e-05
19 *4313:B1 *3957:A 0.000133892
20 *4576:RESET_B *976:23 0
21 *175:6 *3957:A 4.43256e-05
22 *176:10 *976:23 0
23 *973:10 *3958:C 2.97756e-05
24 *973:10 *976:23 9.45575e-05
25 *973:12 *3958:C 4.57445e-05
*RES
1 *4577:Q *976:6 13.8 
2 *976:6 *3958:C 17.6214 
3 *976:6 *976:23 11 
4 *976:23 *3957:A 16.1571 
5 *976:23 *4835:A 10.2464 
*END

*D_NET *977 0.00123106
*CONN
*I *4804:A I *D sky130_fd_sc_hd__dlygate4sd3_1
*I *3958:D I *D sky130_fd_sc_hd__or4_2
*I *4578:Q O *D sky130_fd_sc_hd__dfrtp_2
*CAP
1 *4804:A 0.000122764
2 *3958:D 0.000202029
3 *4578:Q 0
4 *977:6 0.000324794
5 *3956:A *3958:D 0.000227736
6 *3958:A *3958:D 0.000144773
7 *3958:C *3958:D 8.70125e-05
8 *4308:B *3958:D 0
9 *647:10 *4804:A 0
10 *647:14 *3958:D 0
11 *647:14 *4804:A 0
12 *976:23 *3958:D 2.79092e-05
13 *976:23 *4804:A 9.40388e-05
*RES
1 *4578:Q *977:6 13.8 
2 *977:6 *3958:D 19.5321 
3 *977:6 *4804:A 16.9607 
*END

*D_NET *978 0.00291197
*CONN
*I *4318:A1 I *D sky130_fd_sc_hd__o31ai_2
*I *3960:A I *D sky130_fd_sc_hd__or4_2
*I *4314:A I *D sky130_fd_sc_hd__and2_2
*I *3959:A I *D sky130_fd_sc_hd__nor2_2
*I *4579:Q O *D sky130_fd_sc_hd__dfrtp_2
*CAP
1 *4318:A1 0.000345246
2 *3960:A 2.76557e-05
3 *4314:A 0
4 *3959:A 0.000370634
5 *4579:Q 0
6 *978:10 0.00050367
7 *978:8 0.000311364
8 *978:6 0.000495918
9 *3959:A *4316:A 0
10 *3959:A *979:23 0
11 *4318:A1 *4318:A2 0.000233519
12 *978:8 *4318:A2 0
13 *978:8 *979:23 0
14 *978:10 *979:23 0
15 *3959:B *3959:A 5.71472e-05
16 *4315:B1 *4318:A1 0.000234095
17 *4315:B1 *978:8 0
18 *4586:D *978:8 0
19 *4586:D *978:10 0
20 *176:35 *4318:A1 9.10134e-05
21 *178:10 *3960:A 2.89016e-05
22 *472:28 *3959:A 0.000106542
23 *472:41 *3959:A 0.000100457
24 *472:41 *978:10 5.80706e-06
25 *648:41 *978:10 0
26 *688:36 *3959:A 0
*RES
1 *4579:Q *978:6 13.8 
2 *978:6 *978:8 2.55357 
3 *978:8 *978:10 2.25 
4 *978:10 *3959:A 21.3714 
5 *978:10 *4314:A 13.8 
6 *978:8 *3960:A 14.3357 
7 *978:6 *4318:A1 22.55 
*END

*D_NET *979 0.00349194
*CONN
*I *4318:A2 I *D sky130_fd_sc_hd__o31ai_2
*I *3960:B I *D sky130_fd_sc_hd__or4_2
*I *4316:A I *D sky130_fd_sc_hd__xnor2_2
*I *4580:Q O *D sky130_fd_sc_hd__dfrtp_2
*CAP
1 *4318:A2 0.000624694
2 *3960:B 0
3 *4316:A 0.000251539
4 *4580:Q 7.61507e-05
5 *979:23 0.000788761
6 *979:8 0.000491756
7 *4318:A2 *4816:A 0
8 *3959:A *4316:A 0
9 *3959:A *979:23 0
10 *3959:B *4316:A 0.000173384
11 *3959:B *979:23 2.20282e-05
12 *4314:B *979:8 5.33005e-05
13 *4315:A1 *4318:A2 2.39876e-05
14 *4315:A2 *979:8 4.27338e-05
15 *4316:B *4316:A 9.90367e-05
16 *4318:A1 *4318:A2 0.000233519
17 *4318:A3 *4318:A2 0
18 *4585:RESET_B *4316:A 5.91452e-05
19 *176:35 *4318:A2 0.000302173
20 *176:35 *979:23 7.83659e-05
21 *176:37 *979:23 0.000171368
22 *978:8 *4318:A2 0
23 *978:8 *979:23 0
24 *978:10 *979:23 0
*RES
1 *4580:Q *979:8 15.1571 
2 *979:8 *4316:A 19.0679 
3 *979:8 *979:23 3.46429 
4 *979:23 *3960:B 13.8 
5 *979:23 *4318:A2 24.8714 
*END

*D_NET *980 0.00157427
*CONN
*I *4816:A I *D sky130_fd_sc_hd__dlygate4sd3_1
*I *3960:C I *D sky130_fd_sc_hd__or4_2
*I *4581:Q O *D sky130_fd_sc_hd__dfrtp_2
*CAP
1 *4816:A 0.000370369
2 *3960:C 0.000123317
3 *4581:Q 0.000493686
4 *3960:D *3960:C 5.33005e-05
5 *4315:A2 *4816:A 0.000168217
6 *4318:A2 *4816:A 0
7 *4579:D *4816:A 0
8 *4579:RESET_B *4816:A 0
9 *178:10 *3960:C 0.000308234
10 *178:10 *4816:A 5.71472e-05
*RES
1 *4581:Q *3960:C 21.6 
2 *4581:Q *4816:A 34.6357 
*END

*D_NET *981 0.00349078
*CONN
*I *3963:A I *D sky130_fd_sc_hd__or4_2
*I *3961:A I *D sky130_fd_sc_hd__or2_2
*I *4320:A I *D sky130_fd_sc_hd__nand2_2
*I *4322:A1 I *D sky130_fd_sc_hd__o21ai_2
*I *4582:Q O *D sky130_fd_sc_hd__dfrtp_2
*CAP
1 *3963:A 0.000139149
2 *3961:A 0
3 *4320:A 6.37246e-05
4 *4322:A1 0
5 *4582:Q 0.000773496
6 *981:25 0.000134474
7 *981:21 0.000280601
8 *981:10 0.000844199
9 *3963:A *3963:B 6.87574e-05
10 *4320:A *3963:B 1.39841e-05
11 *981:25 *3963:B 9.7659e-05
12 *3963:D *3963:A 7.48091e-05
13 *3963:D *981:25 4.43256e-05
14 *4320:B *4320:A 0.000188586
15 *4320:B *981:25 4.58976e-05
16 *4322:A2 *981:21 7.252e-05
17 *4323:A2 *981:10 0.000342495
18 *4323:A2 *981:21 2.48938e-05
19 *4325:B1 *981:10 0.000100913
20 *4325:B1 *981:21 6.26466e-05
21 *4582:CLK *981:10 7.83659e-05
22 *4582:RESET_B *981:10 3.92844e-05
*RES
1 *4582:Q *981:10 25.6929 
2 *981:10 *4322:A1 13.8 
3 *981:10 *981:21 6.75 
4 *981:21 *981:25 2.19643 
5 *981:25 *4320:A 11.0679 
6 *981:25 *3961:A 9.3 
7 *981:21 *3963:A 12.4429 
*END

*D_NET *982 0.00359666
*CONN
*I *3963:B I *D sky130_fd_sc_hd__or4_2
*I *4322:B1 I *D sky130_fd_sc_hd__o21ai_2
*I *3962:A I *D sky130_fd_sc_hd__or2_2
*I *4583:Q O *D sky130_fd_sc_hd__dfrtp_2
*CAP
1 *3963:B 0.000319437
2 *4322:B1 0
3 *3962:A 0.000129532
4 *4583:Q 0.000340263
5 *982:25 0.000664721
6 *982:8 0.000815079
7 *3962:B *982:25 0.000457292
8 *3963:A *3963:B 6.87574e-05
9 *4320:A *3963:B 1.39841e-05
10 *4322:A2 *3963:B 5.26091e-05
11 *4322:A2 *982:25 4.1331e-06
12 *4323:A1 *3962:A 0.000169253
13 *4323:A1 *982:25 0.000106299
14 *4323:A2 *982:25 6.87451e-05
15 *4324:A *3962:A 0
16 *4324:A *982:25 0
17 *4582:D *982:25 0.000116526
18 *179:8 *3963:B 0.000138946
19 *179:8 *982:25 3.34295e-05
20 *981:25 *3963:B 9.7659e-05
*RES
1 *4583:Q *982:8 18.8536 
2 *982:8 *3962:A 16.8893 
3 *982:8 *982:25 10.6071 
4 *982:25 *4322:B1 13.8 
5 *982:25 *3963:B 19.1571 
*END

*D_NET *983 0.00179997
*CONN
*I *3963:C I *D sky130_fd_sc_hd__or4_2
*I *4808:A I *D sky130_fd_sc_hd__dlygate4sd3_1
*I *4584:Q O *D sky130_fd_sc_hd__dfrtp_2
*CAP
1 *3963:C 0.000294385
2 *4808:A 8.61506e-05
3 *4584:Q 0.00032928
4 *983:10 0.000709815
5 *4323:A2 *983:10 6.05161e-06
6 *4325:A1 *3963:C 0
7 *4325:A1 *983:10 0
8 *4325:B1 *3963:C 0.000292696
9 *4325:B1 *983:10 8.15939e-05
10 *181:10 *3963:C 0
11 *688:36 *3963:C 0
*RES
1 *4584:Q *983:10 18.3357 
2 *983:10 *4808:A 15.1571 
3 *983:10 *3963:C 20.9071 
*END

*D_NET *984 0.00371377
*CONN
*I *3948:A_N I *D sky130_fd_sc_hd__and3b_2
*I *3868:A1 I *D sky130_fd_sc_hd__o21a_2
*I *4817:A I *D sky130_fd_sc_hd__dlygate4sd3_1
*I *3937:A I *D sky130_fd_sc_hd__nor2_2
*I *4427:Q O *D sky130_fd_sc_hd__dfrtp_2
*CAP
1 *3948:A_N 1.27355e-05
2 *3868:A1 0.000230487
3 *4817:A 0
4 *3937:A 0.000161374
5 *4427:Q 0.000100881
6 *984:36 0.000438146
7 *984:25 0.000194923
8 *984:8 0.000262255
9 *3860:A1 *3937:A 0.000179018
10 *3860:A2 *3868:A1 0.000192835
11 *3948:B *984:36 4.60153e-05
12 *3950:A1 *3937:A 6.82998e-05
13 *4402:CLK *3868:A1 0
14 *4413:D *3868:A1 7.17717e-05
15 *4720:A *984:8 0.000291009
16 *4818:A *3868:A1 0.00012249
17 *4818:A *3948:A_N 4.25176e-05
18 *4818:A *984:36 5.33005e-05
19 *171:10 *984:36 0.0003078
20 *520:12 *984:36 6.33026e-05
21 *520:23 *3948:A_N 2.84109e-05
22 *520:23 *984:36 7.10311e-05
23 *521:10 *984:8 0.000259608
24 *521:18 *3937:A 0.000146254
25 *521:18 *984:8 7.80059e-05
26 *622:6 *984:36 0.00026441
27 *713:12 *3937:A 1.03904e-05
28 *713:12 *984:8 1.65025e-05
*RES
1 *4427:Q *984:8 18.175 
2 *984:8 *3937:A 17.9607 
3 *984:8 *984:25 4.5 
4 *984:25 *4817:A 9.3 
5 *984:25 *984:36 6.01786 
6 *984:36 *3868:A1 23.2821 
7 *984:36 *3948:A_N 9.83571 
*END

*D_NET *985 0.00305699
*CONN
*I *4795:A I *D sky130_fd_sc_hd__dlygate4sd3_1
*I *3840:A I *D sky130_fd_sc_hd__inv_2
*I *3940:A1 I *D sky130_fd_sc_hd__o21ai_2
*I *4428:Q O *D sky130_fd_sc_hd__dfrtp_2
*CAP
1 *4795:A 0.000178751
2 *3840:A 1.90066e-05
3 *3940:A1 0.000236711
4 *4428:Q 0
5 *985:8 0.00105878
6 *985:4 0.000981816
7 *3840:A *3935:A1 7.29667e-05
8 *3940:A1 *3935:A1 0.000103267
9 *3940:A1 *4786:A 2.89114e-05
10 *3873:A0 *3940:A1 7.47252e-05
11 *3873:S *3940:A1 5.52302e-05
12 *4367:A2 *4795:A 0
13 *4428:CLK *4795:A 1.05901e-05
14 *4428:CLK *985:8 7.60137e-05
15 *4428:RESET_B *985:8 6.3321e-05
16 *90:45 *3840:A 4.58192e-05
17 *90:45 *3940:A1 5.10822e-05
*RES
1 *4428:Q *985:4 9.3 
2 *985:4 *985:8 14.0714 
3 *985:8 *3940:A1 18.5679 
4 *985:8 *3840:A 14.8357 
5 *985:4 *4795:A 20.8893 
*END

*D_NET *986 0.000904514
*CONN
*I *4476:D I *D sky130_fd_sc_hd__dfrtp_2
*I *3876:Y O *D sky130_fd_sc_hd__inv_2
*CAP
1 *4476:D 0.000365307
2 *3876:Y 0.000365307
3 *3876:A *4476:D 0.000125057
4 *4367:B1 *4476:D 3.14078e-05
5 *4476:RESET_B *4476:D 0
6 *115:23 *4476:D 1.74352e-05
*RES
1 *3876:Y *4476:D 32.7607 
*END

*D_NET *987 0.00237038
*CONN
*I *3841:A I *D sky130_fd_sc_hd__inv_2
*I *3935:A1 I *D sky130_fd_sc_hd__o21a_2
*I *4786:A I *D sky130_fd_sc_hd__dlygate4sd3_1
*I *4429:Q O *D sky130_fd_sc_hd__dfrtp_2
*CAP
1 *3841:A 0
2 *3935:A1 0.00016739
3 *4786:A 0.000238096
4 *4429:Q 7.52054e-05
5 *987:14 0.000604183
6 *987:8 0.000273903
7 *3840:A *3935:A1 7.29667e-05
8 *3873:A0 *4786:A 1.24368e-05
9 *3873:A1 *3935:A1 0.000200413
10 *3940:A1 *3935:A1 0.000103267
11 *3940:A1 *4786:A 2.89114e-05
12 *4476:RESET_B *987:14 0
13 *89:8 *3935:A1 0.000221634
14 *90:10 *987:14 0.000144773
15 *90:45 *3935:A1 1.69115e-05
16 *90:45 *987:14 4.25716e-05
17 *113:8 *4786:A 9.40011e-05
18 *523:10 *987:14 3.69697e-05
19 *523:47 *3935:A1 8.2958e-06
20 *523:47 *987:14 2.84494e-05
21 *707:12 *987:14 0
*RES
1 *4429:Q *987:8 10.675 
2 *987:8 *987:14 8.51786 
3 *987:14 *4786:A 18.0321 
4 *987:14 *3935:A1 18.8357 
5 *987:8 *3841:A 9.3 
*END

*D_NET *988 0.000918079
*CONN
*I *4477:D I *D sky130_fd_sc_hd__dfrtp_2
*I *4076:Y O *D sky130_fd_sc_hd__nor2_2
*CAP
1 *4477:D 0.000194344
2 *4076:Y 0.000194344
3 *4039:C *4477:D 6.74815e-05
4 *4076:B *4477:D 0.000344917
5 *4134:A *4477:D 0
6 *4477:RESET_B *4477:D 7.77652e-05
7 *4568:RESET_B *4477:D 3.92262e-05
*RES
1 *4076:Y *4477:D 33.3321 
*END

*D_NET *989 0.000299249
*CONN
*I *4478:D I *D sky130_fd_sc_hd__dfstp_2
*I *4078:X O *D sky130_fd_sc_hd__a21o_2
*CAP
1 *4478:D 0.000149625
2 *4078:X 0.000149625
3 *4078:B1 *4478:D 0
*RES
1 *4078:X *4478:D 29.7786 
*END

*D_NET *990 0.000503506
*CONN
*I *4479:D I *D sky130_fd_sc_hd__dfrtp_2
*I *4080:Y O *D sky130_fd_sc_hd__a21oi_2
*CAP
1 *4479:D 0.000120834
2 *4080:Y 0.000120834
3 *4479:D *4770:A 0.000186669
4 *4479:D *998:25 0
5 *4076:B *4479:D 5.24274e-05
6 *4479:CLK *4479:D 2.27416e-05
*RES
1 *4080:Y *4479:D 30.7071 
*END

*D_NET *991 0.0004523
*CONN
*I *4480:D I *D sky130_fd_sc_hd__dfrtp_2
*I *4082:Y O *D sky130_fd_sc_hd__a21oi_2
*CAP
1 *4480:D 0.000132446
2 *4082:Y 0.000132446
3 *4480:D *3877:C 2.89114e-05
4 *4081:A *4480:D 5.52302e-05
5 *4480:RESET_B *4480:D 0
6 *272:20 *4480:D 0.000103267
*RES
1 *4082:Y *4480:D 30.0107 
*END

*D_NET *992 0.000278261
*CONN
*I *4481:D I *D sky130_fd_sc_hd__dfstp_2
*I *4084:Y O *D sky130_fd_sc_hd__nand3_2
*CAP
1 *4481:D 4.04509e-05
2 *4084:Y 4.04509e-05
3 *4481:D *4483:D 0.000129868
4 *271:19 *4481:D 6.74911e-05
*RES
1 *4084:Y *4481:D 29.2429 
*END

*D_NET *993 0.000508155
*CONN
*I *4482:D I *D sky130_fd_sc_hd__dfstp_2
*I *4086:Y O *D sky130_fd_sc_hd__o21ai_2
*CAP
1 *4482:D 0.000210151
2 *4086:Y 0.000210151
3 *4085:B1 *4482:D 7.48554e-05
4 *4086:B1 *4482:D 1.29975e-05
*RES
1 *4086:Y *4482:D 30.9036 
*END

*D_NET *994 0.00208131
*CONN
*I *4483:D I *D sky130_fd_sc_hd__dfrtp_2
*I *4088:Y O *D sky130_fd_sc_hd__a21oi_2
*CAP
1 *4483:D 0.000380898
2 *4088:Y 0.000380898
3 *4483:D *4797:A 0.000173021
4 *4077:B1 *4483:D 0.000201127
5 *4481:D *4483:D 0.000129868
6 *271:19 *4483:D 7.82193e-05
7 *272:12 *4483:D 0.000737282
*RES
1 *4088:Y *4483:D 38.6179 
*END

*D_NET *995 0.00069894
*CONN
*I *4484:D I *D sky130_fd_sc_hd__dfstp_2
*I *4090:X O *D sky130_fd_sc_hd__a21o_2
*CAP
1 *4484:D 0.000283009
2 *4090:X 0.000283009
3 *4089:B *4484:D 8.32964e-05
4 *271:56 *4484:D 4.96258e-05
*RES
1 *4090:X *4484:D 32.9571 
*END

*D_NET *996 0.000583114
*CONN
*I *4485:D I *D sky130_fd_sc_hd__dfstp_2
*I *4092:X O *D sky130_fd_sc_hd__a21o_2
*CAP
1 *4485:D 0.00012924
2 *4092:X 0.00012924
3 *4092:B1 *4485:D 9.90431e-05
4 *4725:A *4485:D 4.06094e-05
5 *271:56 *4485:D 4.40493e-05
6 *710:26 *4485:D 0.000140933
*RES
1 *4092:X *4485:D 30.9036 
*END

*D_NET *997 0.000465601
*CONN
*I *4486:D I *D sky130_fd_sc_hd__dfrtp_2
*I *4093:X O *D sky130_fd_sc_hd__and3_2
*CAP
1 *4486:D 0.000106382
2 *4093:X 0.000106382
3 *4486:D *3883:A 0.000142856
4 *4093:C *4486:D 0.000102545
5 *4486:CLK *4486:D 7.43578e-06
6 *123:10 *4486:D 0
*RES
1 *4093:X *4486:D 30.2964 
*END

*D_NET *998 0.00584488
*CONN
*I *3877:A I *D sky130_fd_sc_hd__or3_2
*I *4079:A1 I *D sky130_fd_sc_hd__o21ai_2
*I *4077:A1 I *D sky130_fd_sc_hd__o21ai_2
*I *3878:A I *D sky130_fd_sc_hd__or4_2
*I *4837:A I *D sky130_fd_sc_hd__dlygate4sd3_1
*I *4770:A I *D sky130_fd_sc_hd__dlygate4sd3_1
*I *4477:Q O *D sky130_fd_sc_hd__dfrtp_2
*CAP
1 *3877:A 5.89095e-05
2 *4079:A1 0.000106721
3 *4077:A1 0.00037871
4 *3878:A 2.36794e-05
5 *4837:A 0.000218534
6 *4770:A 0.000567989
7 *4477:Q 0.000102161
8 *998:65 0.000360475
9 *998:36 0.000808551
10 *998:25 0.000522949
11 *998:8 0.000763247
12 *3877:A *4079:A2 0
13 *3877:A *999:16 5.83304e-05
14 *3878:A *3878:B 7.43578e-06
15 *4077:A1 *3878:D 4.46186e-06
16 *4079:A1 *4079:A2 2.89016e-05
17 *998:8 *1000:8 0
18 *998:25 *1000:8 0
19 *998:36 *3878:C 0
20 *998:36 *3878:D 0.0001098
21 *998:36 *1000:17 0
22 *998:36 *1001:10 0
23 *4076:B *998:65 0.000140933
24 *4077:B1 *4077:A1 5.71472e-05
25 *4078:A1 *3877:A 3.25078e-05
26 *4078:A1 *4079:A1 9.90367e-05
27 *4078:A1 *998:65 0.000268403
28 *4079:B1 *4079:A1 1.74352e-05
29 *4079:B1 *4837:A 5.52238e-05
30 *4079:B1 *998:65 0.000149764
31 *4080:A1 *3877:A 0.000150618
32 *4080:A2 *4079:A1 0.00010096
33 *4082:A1 *998:36 5.57914e-05
34 *4479:CLK *4770:A 7.45454e-05
35 *4479:D *4770:A 0.000186669
36 *4479:D *998:25 0
37 *4479:RESET_B *998:8 0.000179656
38 *4480:RESET_B *4077:A1 0
39 *4480:RESET_B *998:36 0
40 *117:28 *3878:A 2.89016e-05
41 *117:28 *4077:A1 0.000126439
42 *272:12 *4077:A1 0
43 *272:20 *998:36 0
*RES
1 *4477:Q *998:8 16.5054 
2 *998:8 *4770:A 21.6304 
3 *998:8 *998:25 1.49107 
4 *998:25 *4837:A 14.3357 
5 *998:25 *998:36 7.71429 
6 *998:36 *3878:A 14.3357 
7 *998:36 *4077:A1 20.6929 
8 *4837:A *998:65 14.7821 
9 *998:65 *4079:A1 11.9071 
10 *998:65 *3877:A 20.2464 
*END

*D_NET *999 0.00311337
*CONN
*I *3878:B I *D sky130_fd_sc_hd__or4_2
*I *4077:A2 I *D sky130_fd_sc_hd__o21ai_2
*I *4078:A2 I *D sky130_fd_sc_hd__a21o_2
*I *3877:B I *D sky130_fd_sc_hd__or3_2
*I *4079:A2 I *D sky130_fd_sc_hd__o21ai_2
*I *4478:Q O *D sky130_fd_sc_hd__dfstp_2
*CAP
1 *3878:B 0.000152887
2 *4077:A2 7.95576e-05
3 *4078:A2 0
4 *3877:B 0
5 *4079:A2 0.000301111
6 *4478:Q 0
7 *999:16 0.000371383
8 *999:12 0.000202782
9 *999:6 0.000447356
10 *999:4 0.000388175
11 *3877:A *4079:A2 0
12 *3877:A *999:16 5.83304e-05
13 *3878:A *3878:B 7.43578e-06
14 *4078:A1 *4079:A2 3.92757e-05
15 *4078:A1 *999:16 0.000200413
16 *4078:B1 *4077:A2 8.08376e-05
17 *4078:B1 *999:12 0.000153054
18 *4079:A1 *4079:A2 2.89016e-05
19 *4080:A1 *4079:A2 0
20 *4080:A1 *999:16 4.00025e-05
21 *4081:B *999:12 1.99099e-05
22 *4081:B *999:16 4.89264e-05
23 *4480:CLK *4077:A2 5.66157e-05
24 *4480:CLK *999:12 4.8813e-05
25 *4480:RESET_B *3878:B 3.67142e-05
26 *4480:RESET_B *999:6 4.60179e-05
27 *116:8 *4079:A2 8.46044e-06
28 *117:28 *3878:B 2.65105e-05
29 *487:16 *4077:A2 0.000193592
30 *487:33 *999:6 2.59355e-05
31 *487:33 *999:12 5.03772e-05
*RES
1 *4478:Q *999:4 9.3 
2 *999:4 *999:6 3 
3 *999:6 *999:12 7.69643 
4 *999:12 *999:16 7.35714 
5 *999:16 *4079:A2 22.55 
6 *999:16 *3877:B 9.3 
7 *999:12 *4078:A2 13.8 
8 *999:6 *4077:A2 21.4607 
9 *999:4 *3878:B 12.3357 
*END

*D_NET *1000 0.0027868
*CONN
*I *3878:C I *D sky130_fd_sc_hd__or4_2
*I *3877:C I *D sky130_fd_sc_hd__or3_2
*I *4830:A I *D sky130_fd_sc_hd__dlygate4sd3_1
*I *4479:Q O *D sky130_fd_sc_hd__dfrtp_2
*CAP
1 *3878:C 0.000491361
2 *3877:C 0.000608097
3 *4830:A 0
4 *4479:Q 0.000106855
5 *1000:17 0.0012397
6 *1000:8 0.000247097
7 *3878:C *3878:D 0
8 *3878:C *1001:10 5.5782e-05
9 *4480:D *3877:C 2.89114e-05
10 *116:8 *3877:C 3.69047e-06
11 *117:28 *3878:C 5.30637e-06
12 *998:8 *1000:8 0
13 *998:25 *1000:8 0
14 *998:36 *3878:C 0
15 *998:36 *1000:17 0
*RES
1 *4479:Q *1000:8 15.4429 
2 *1000:8 *4830:A 13.8 
3 *1000:8 *1000:17 2.55357 
4 *1000:17 *3877:C 23.8 
5 *1000:17 *3878:C 22.6036 
*END

*D_NET *1001 0.000959147
*CONN
*I *4802:A I *D sky130_fd_sc_hd__dlygate4sd3_1
*I *3878:D I *D sky130_fd_sc_hd__or4_2
*I *4480:Q O *D sky130_fd_sc_hd__dfrtp_2
*CAP
1 *4802:A 5.68661e-05
2 *3878:D 0.000233954
3 *4480:Q 8.77979e-05
4 *1001:10 0.000378618
5 *3878:C *3878:D 0
6 *3878:C *1001:10 5.5782e-05
7 *4077:A1 *3878:D 4.46186e-06
8 *4081:A *3878:D 3.18676e-05
9 *998:36 *3878:D 0.0001098
10 *998:36 *1001:10 0
*RES
1 *4480:Q *1001:10 20.2464 
2 *1001:10 *3878:D 23.0321 
3 *1001:10 *4802:A 10.2464 
*END

*D_NET *1002 0.00151683
*CONN
*I *3880:A I *D sky130_fd_sc_hd__or4_2
*I *4750:A I *D sky130_fd_sc_hd__dlygate4sd3_1
*I *3879:A I *D sky130_fd_sc_hd__or2_2
*I *4481:Q O *D sky130_fd_sc_hd__dfstp_2
*CAP
1 *3880:A 6.3681e-05
2 *4750:A 0.000124515
3 *3879:A 0.0002418
4 *4481:Q 6.3681e-05
5 *1002:6 0.000366315
6 *3880:A *3880:C 3.18676e-05
7 *3880:D *3880:A 5.50052e-05
8 *4083:A *3879:A 0
9 *4087:B1 *3879:A 8.00806e-05
10 *4087:B1 *4750:A 0.000218333
11 *4483:RESET_B *3879:A 5.57914e-05
12 *4483:RESET_B *4750:A 3.03498e-05
13 *119:10 *3880:A 0.000185408
*RES
1 *4481:Q *1002:6 13.8 
2 *1002:6 *3879:A 18.3357 
3 *1002:6 *4750:A 16.9607 
4 *4481:Q *3880:A 20.7964 
*END

*D_NET *1003 0.00282272
*CONN
*I *3880:B I *D sky130_fd_sc_hd__or4_2
*I *4085:A1_N I *D sky130_fd_sc_hd__o2bb2a_2
*I *4087:A1 I *D sky130_fd_sc_hd__o21ai_2
*I *4797:A I *D sky130_fd_sc_hd__dlygate4sd3_1
*I *4482:Q O *D sky130_fd_sc_hd__dfstp_2
*CAP
1 *3880:B 0.000324589
2 *4085:A1_N 0.000361042
3 *4087:A1 0.000121279
4 *4797:A 6.39002e-05
5 *4482:Q 1.0655e-05
6 *1003:35 0.00080691
7 *1003:6 7.45552e-05
8 *3880:D *3880:B 0.000141433
9 *4087:A2 *1003:6 3.11088e-05
10 *4481:SET_B *1003:35 8.91963e-06
11 *4482:SET_B *4085:A1_N 2.81497e-05
12 *4482:SET_B *1003:6 5.49995e-05
13 *4482:SET_B *1003:35 7.79481e-05
14 *4483:D *4797:A 0.000173021
15 *4483:RESET_B *1003:35 0
16 *4657:A *4085:A1_N 0.000233965
17 *119:10 *3880:B 5.67351e-05
18 *119:10 *1003:35 6.44649e-05
19 *271:19 *4797:A 0.00010395
20 *272:12 *4797:A 1.34741e-05
21 *272:12 *1003:35 1.6398e-05
22 *487:73 *4085:A1_N 5.52238e-05
*RES
1 *4482:Q *1003:6 9.83571 
2 *1003:6 *4797:A 20.8536 
3 *1003:6 *4087:A1 9.3 
4 *4087:A1 *1003:35 21.3893 
5 *1003:35 *4085:A1_N 16.9696 
6 *1003:35 *3880:B 15.3357 
*END

*D_NET *1004 0.00130789
*CONN
*I *3880:C I *D sky130_fd_sc_hd__or4_2
*I *4810:A I *D sky130_fd_sc_hd__dlygate4sd3_1
*I *4483:Q O *D sky130_fd_sc_hd__dfrtp_2
*CAP
1 *3880:C 0.000166981
2 *4810:A 0
3 *4483:Q 0.000274924
4 *1004:10 0.000441905
5 *3880:A *3880:C 3.18676e-05
6 *4083:A *3880:C 0.000192585
7 *4083:A *1004:10 0.000128154
8 *4083:B *1004:10 4.01768e-05
9 *4084:C *1004:10 5.19842e-06
10 *119:10 *3880:C 2.60984e-05
*RES
1 *4483:Q *1004:10 18.0321 
2 *1004:10 *4810:A 13.8 
3 *1004:10 *3880:C 17.7107 
*END

*D_NET *1005 0.00113167
*CONN
*I *4798:A I *D sky130_fd_sc_hd__dlygate4sd3_1
*I *3882:A I *D sky130_fd_sc_hd__or3_2
*I *3881:A I *D sky130_fd_sc_hd__or2_2
*I *4484:Q O *D sky130_fd_sc_hd__dfstp_2
*CAP
1 *4798:A 0
2 *3882:A 7.81819e-05
3 *3881:A 0.000107029
4 *4484:Q 0
5 *1005:17 0.000280583
6 *1005:4 0.00030943
7 *3882:A *4794:A 5.83304e-05
8 *3882:C *3881:A 0
9 *3882:C *3882:A 0.000175519
10 *4090:A1 *1005:17 3.4689e-05
11 *4092:A2 *3881:A 8.79078e-05
*RES
1 *4484:Q *1005:4 9.3 
2 *1005:4 *3881:A 20.55 
3 *1005:4 *1005:17 3.41071 
4 *1005:17 *3882:A 20.55 
5 *1005:17 *4798:A 9.3 
*END

*D_NET *1006 0.000863881
*CONN
*I *3882:B I *D sky130_fd_sc_hd__or3_2
*I *4794:A I *D sky130_fd_sc_hd__dlygate4sd3_1
*I *4485:Q O *D sky130_fd_sc_hd__dfstp_2
*CAP
1 *3882:B 0
2 *4794:A 0.0002262
3 *4485:Q 0.00016116
4 *1006:6 0.00038736
5 *3882:A *4794:A 5.83304e-05
6 *3882:C *4794:A 1.41029e-05
7 *121:10 *1006:6 1.67276e-05
*RES
1 *4485:Q *1006:6 11.0679 
2 *1006:6 *4794:A 22.4071 
3 *1006:6 *3882:B 9.3 
*END

*D_NET *1007 0.0024156
*CONN
*I *3884:A I *D sky130_fd_sc_hd__or2_2
*I *4787:A I *D sky130_fd_sc_hd__dlygate4sd3_1
*I *3883:A I *D sky130_fd_sc_hd__nor2_2
*I *4486:Q O *D sky130_fd_sc_hd__dfrtp_2
*CAP
1 *3884:A 0.000176759
2 *4787:A 0
3 *3883:A 0.000495795
4 *4486:Q 0.000257025
5 *1007:19 0.000254054
6 *1007:6 0.000830115
7 *3884:B *3884:A 5.71472e-05
8 *4430:RESET_B *3884:A 8.49707e-05
9 *4430:RESET_B *1007:19 4.57445e-05
10 *4486:CLK *3883:A 1.39841e-05
11 *4486:D *3883:A 0.000142856
12 *4857:A *3884:A 5.71472e-05
13 *123:10 *3884:A 0
14 *123:10 *1007:19 0
*RES
1 *4486:Q *1007:6 12.3 
2 *1007:6 *3883:A 15.4964 
3 *1007:6 *1007:19 6.14286 
4 *1007:19 *4787:A 13.8 
5 *1007:19 *3884:A 17.7286 
*END

*D_NET *1008 0.00251263
*CONN
*I *4396:A1 I *D sky130_fd_sc_hd__a31o_2
*I *4832:A I *D sky130_fd_sc_hd__dlygate4sd3_1
*I *4391:A2 I *D sky130_fd_sc_hd__o21ai_2
*I *4393:D I *D sky130_fd_sc_hd__and4b_2
*I *3885:A I *D sky130_fd_sc_hd__nand3_2
*I *4440:Q O *D sky130_fd_sc_hd__dfrtp_2
*CAP
1 *4396:A1 3.49792e-05
2 *4832:A 0.000119123
3 *4391:A2 5.18901e-05
4 *4393:D 0.000271253
5 *3885:A 0.000199592
6 *4440:Q 5.69168e-05
7 *1008:46 0.000223352
8 *1008:31 0.000343653
9 *1008:6 0.000305248
10 *4396:A1 *4396:A2 1.92905e-05
11 *4832:A *4396:A2 3.14048e-05
12 *1008:46 *4396:B1 0.000101545
13 *3886:C *4391:A2 6.05161e-06
14 *4392:A1 *3885:A 0
15 *4392:B1 *3885:A 6.16936e-05
16 *4393:B *1008:31 0.000183713
17 *4393:C *1008:31 2.14757e-05
18 *4394:B1 *4393:D 6.05161e-06
19 *4394:B1 *1008:6 1.98839e-05
20 *4397:B *1008:46 0
21 *4442:RESET_B *3885:A 0.00022287
22 *444:8 *4393:D 7.17235e-05
23 *444:8 *1008:6 4.58194e-05
24 *444:8 *1008:31 1.90111e-05
25 *705:75 *1008:6 9.60875e-05
*RES
1 *4440:Q *1008:6 10.6571 
2 *1008:6 *3885:A 22.9786 
3 *1008:6 *4393:D 10.6571 
4 *4393:D *1008:31 13.1214 
5 *1008:31 *4391:A2 10.2643 
6 *1008:31 *1008:46 10.3393 
7 *1008:46 *4832:A 10.9786 
8 *1008:46 *4396:A1 9.83571 
*END

*D_NET *1009 0.00318803
*CONN
*I *4785:A I *D sky130_fd_sc_hd__dlygate4sd3_1
*I *4396:A2 I *D sky130_fd_sc_hd__a31o_2
*I *4393:A_N I *D sky130_fd_sc_hd__and4b_2
*I *3885:B I *D sky130_fd_sc_hd__nand3_2
*I *4441:Q O *D sky130_fd_sc_hd__dfrtp_2
*CAP
1 *4785:A 0.000132032
2 *4396:A2 0.000146487
3 *4393:A_N 0
4 *3885:B 0.000263397
5 *4441:Q 0.000256075
6 *1009:12 0.000375585
7 *1009:10 0.000287956
8 *1009:8 0.000417388
9 *3885:B *3885:C 0.000198698
10 *4392:A1 *3885:B 2.89016e-05
11 *4392:A1 *1009:8 1.40306e-05
12 *4392:A1 *1009:12 0
13 *4392:A2 *3885:B 0.000165183
14 *4393:C *3885:B 6.82922e-05
15 *4394:A2 *4785:A 0
16 *4394:A2 *1009:10 0
17 *4394:A2 *1009:12 0
18 *4396:A1 *4396:A2 1.92905e-05
19 *4396:A3 *4396:A2 3.57366e-05
20 *4832:A *4396:A2 3.14048e-05
21 *124:10 *3885:B 7.61932e-05
22 *443:21 *4396:A2 0.000230482
23 *443:21 *1009:10 3.34366e-05
24 *443:21 *1009:12 0.000189448
25 *443:23 *3885:B 0.000184583
26 *443:23 *1009:12 3.34295e-05
*RES
1 *4441:Q *1009:8 16.8 
2 *1009:8 *1009:10 0.732143 
3 *1009:10 *1009:12 2.85714 
4 *1009:12 *3885:B 20.7821 
5 *1009:12 *4393:A_N 13.8 
6 *1009:10 *4396:A2 17.425 
7 *1009:8 *4785:A 15.9786 
*END

*D_NET *1010 0.00189757
*CONN
*I *4396:B1 I *D sky130_fd_sc_hd__a31o_2
*I *3885:C I *D sky130_fd_sc_hd__nand3_2
*I *4442:Q O *D sky130_fd_sc_hd__dfrtp_2
*CAP
1 *4396:B1 0.000185644
2 *3885:C 6.50405e-05
3 *4442:Q 5.24484e-05
4 *1010:6 0.000303133
5 *3885:B *3885:C 0.000198698
6 *3886:C *4396:B1 6.42242e-05
7 *4391:A1 *4396:B1 1.00375e-05
8 *4392:A1 *3885:C 1.5942e-05
9 *4392:A2 *3885:C 1.3142e-05
10 *4393:C *3885:C 3.17148e-05
11 *4393:C *4396:B1 0.000168334
12 *4393:C *1010:6 5.33005e-05
13 *4397:B *4396:B1 0
14 *4729:A *4396:B1 0.000178847
15 *4729:A *1010:6 0.000137983
16 *443:21 *4396:B1 7.83366e-05
17 *443:23 *4396:B1 8.68569e-05
18 *446:8 *3885:C 0.00015234
19 *1008:46 *4396:B1 0.000101545
*RES
1 *4442:Q *1010:6 10.6571 
2 *1010:6 *3885:C 21.1571 
3 *1010:6 *4396:B1 24.1393 
*END

*D_NET *1011 0.0011989
*CONN
*I *3886:A I *D sky130_fd_sc_hd__nor3_2
*I *4749:A I *D sky130_fd_sc_hd__dlygate4sd3_1
*I *4443:Q O *D sky130_fd_sc_hd__dfrtp_2
*CAP
1 *3886:A 0.000195179
2 *4749:A 2.04426e-05
3 *4443:Q 9.99935e-05
4 *1011:10 0.000315615
5 *4397:B *3886:A 0.000138437
6 *4397:B *1011:10 5.26184e-05
7 *4399:B1 *4749:A 2.59355e-05
8 *4445:CLK *3886:A 0
9 *449:177 *1011:10 2.27416e-05
10 *712:10 *3886:A 0.000125731
11 *712:10 *1011:10 0.000148911
12 *715:31 *4749:A 5.33005e-05
*RES
1 *4443:Q *1011:10 16.2821 
2 *1011:10 *4749:A 14.3357 
3 *1011:10 *3886:A 18.7821 
*END

*D_NET *1012 0.00187716
*CONN
*I *4371:A I *D sky130_fd_sc_hd__and2_2
*I *3871:A1 I *D sky130_fd_sc_hd__a21o_2
*I *4430:Q O *D sky130_fd_sc_hd__dfrtp_2
*CAP
1 *4371:A 0
2 *3871:A1 0.000426187
3 *4430:Q 0.000237308
4 *1012:12 0.000663495
5 *3871:A1 *3871:B1 4.01768e-05
6 *3884:B *3871:A1 0.00036192
7 *4371:B *3871:A1 1.99099e-05
8 *4430:RESET_B *3871:A1 0
9 *4430:RESET_B *1012:12 0.000128161
*RES
1 *4430:Q *1012:12 22.5321 
2 *1012:12 *3871:A1 24.8893 
3 *1012:12 *4371:A 9.3 
*END

*D_NET *1013 0.000634226
*CONN
*I *4765:A I *D sky130_fd_sc_hd__dlygate4sd3_1
*I *4373:A I *D sky130_fd_sc_hd__and2_2
*I *4431:Q O *D sky130_fd_sc_hd__dfrtp_2
*CAP
1 *4765:A 0.000104218
2 *4373:A 8.92278e-05
3 *4431:Q 9.55174e-05
4 *1013:10 0.000288963
5 *4372:A2 *4373:A 5.62995e-05
6 *710:62 *1013:10 0
*RES
1 *4431:Q *1013:10 19.9429 
2 *1013:10 *4373:A 11.0679 
3 *1013:10 *4765:A 11.0679 
*END

*D_NET *1014 0.000875611
*CONN
*I *4764:A I *D sky130_fd_sc_hd__dlygate4sd3_1
*I *4375:A I *D sky130_fd_sc_hd__and2_2
*I *4432:Q O *D sky130_fd_sc_hd__dfrtp_2
*CAP
1 *4764:A 0.000202884
2 *4375:A 0.000145093
3 *4432:Q 0
4 *1014:4 0.000347978
5 *4374:A2 *4375:A 0
6 *4432:RESET_B *4375:A 0.000179656
*RES
1 *4432:Q *1014:4 9.3 
2 *1014:4 *4375:A 21.4964 
3 *1014:4 *4764:A 12.7107 
*END

*D_NET *1015 0.000377668
*CONN
*I *4377:A I *D sky130_fd_sc_hd__and2_2
*I *4769:A I *D sky130_fd_sc_hd__dlygate4sd3_1
*I *4433:Q O *D sky130_fd_sc_hd__dfrtp_2
*CAP
1 *4377:A 4.05636e-05
2 *4769:A 0
3 *4433:Q 9.8749e-05
4 *1015:10 0.000139313
5 *4377:B *4377:A 9.90431e-05
6 *4434:CLK *1015:10 0
*RES
1 *4433:Q *1015:10 19.9429 
2 *1015:10 *4769:A 9.3 
3 *1015:10 *4377:A 10.2464 
*END

*D_NET *1016 0.00320869
*CONN
*I *4766:A I *D sky130_fd_sc_hd__dlygate4sd3_1
*I *4379:A I *D sky130_fd_sc_hd__and2_2
*I *4434:Q O *D sky130_fd_sc_hd__dfrtp_2
*CAP
1 *4766:A 0.000855908
2 *4379:A 0.000228014
3 *4434:Q 0.000128161
4 *1016:6 0.00121208
5 *4379:A *4381:A 8.40012e-05
6 *4377:B *4379:A 0.00041107
7 *4378:A2 *4766:A 1.34703e-05
8 *4434:CLK *4766:A 1.58163e-05
9 *4434:RESET_B *4379:A 0
10 *4434:RESET_B *4766:A 2.52688e-05
11 *4756:A *4379:A 0.000224647
12 *433:25 *4379:A 1.02504e-05
*RES
1 *4434:Q *1016:6 10.6571 
2 *1016:6 *4379:A 26.3179 
3 *1016:6 *4766:A 19.6036 
*END

*D_NET *1017 0.000626366
*CONN
*I *4755:A I *D sky130_fd_sc_hd__dlygate4sd3_1
*I *4381:A I *D sky130_fd_sc_hd__and2_2
*I *4435:Q O *D sky130_fd_sc_hd__dfrtp_2
*CAP
1 *4755:A 6.18245e-05
2 *4381:A 0.000122227
3 *4435:Q 0
4 *1017:6 0.000184051
5 *4379:A *4381:A 8.40012e-05
6 *4382:A3 *4381:A 0
7 *4382:B1 *4381:A 0
8 *4382:B1 *4755:A 0
9 *4756:A *4381:A 3.51442e-05
10 *4756:A *4755:A 0.000129868
11 *650:73 *4381:A 9.25014e-06
*RES
1 *4435:Q *1017:6 13.8 
2 *1017:6 *4381:A 16.9607 
3 *1017:6 *4755:A 15.4429 
*END

*D_NET *1018 0.000458933
*CONN
*I *4758:A I *D sky130_fd_sc_hd__dlygate4sd3_1
*I *4383:A I *D sky130_fd_sc_hd__and2_2
*I *4436:Q O *D sky130_fd_sc_hd__dfrtp_2
*CAP
1 *4758:A 6.60226e-05
2 *4383:A 0
3 *4436:Q 7.5355e-05
4 *1018:10 0.000141378
5 *4383:B *4758:A 9.71197e-05
6 *4383:B *1018:10 5.33882e-05
7 *4384:B1 *1018:10 2.56694e-05
*RES
1 *4436:Q *1018:10 19.9429 
2 *1018:10 *4383:A 9.3 
3 *1018:10 *4758:A 10.6571 
*END

*D_NET *1019 0.000828068
*CONN
*I *4762:A I *D sky130_fd_sc_hd__dlygate4sd3_1
*I *4385:A I *D sky130_fd_sc_hd__and2_2
*I *4437:Q O *D sky130_fd_sc_hd__dfrtp_2
*CAP
1 *4762:A 0.000234196
2 *4385:A 5.41066e-05
3 *4437:Q 0.000288303
4 *4436:RESET_B *4762:A 4.73656e-05
5 *709:76 *4762:A 7.83659e-05
6 *939:46 *4762:A 0.000125731
*RES
1 *4437:Q *4385:A 19.5464 
2 *4437:Q *4762:A 31.4214 
*END

*D_NET *1020 0.00131001
*CONN
*I *4767:A I *D sky130_fd_sc_hd__dlygate4sd3_1
*I *4387:A I *D sky130_fd_sc_hd__and2_2
*I *4438:Q O *D sky130_fd_sc_hd__dfrtp_2
*CAP
1 *4767:A 0.000246177
2 *4387:A 0.000257012
3 *4438:Q 5.36224e-05
4 *1020:6 0.000556812
5 *489:21 *4767:A 0
6 *489:27 *4767:A 0.000103004
7 *489:27 *1020:6 1.92789e-05
8 *709:69 *4767:A 7.40992e-05
*RES
1 *4438:Q *1020:6 10.2464 
2 *1020:6 *4387:A 22.9786 
3 *1020:6 *4767:A 23.4429 
*END

*D_NET *1021 0.000518661
*CONN
*I *4768:A I *D sky130_fd_sc_hd__dlygate4sd3_1
*I *4439:Q O *D sky130_fd_sc_hd__dfrtp_2
*CAP
1 *4768:A 0.000138385
2 *4439:Q 0.000138385
3 *4768:A *4380:A1 0.000128154
4 *4389:B2 *4768:A 7.6644e-05
5 *433:14 *4768:A 3.70933e-05
*RES
1 *4439:Q *4768:A 30.1893 
*END

*D_NET *1022 0.00733515
*CONN
*I *3871:B1 I *D sky130_fd_sc_hd__a21o_2
*I *3890:A I *D sky130_fd_sc_hd__and2_2
*I *3888:A1 I *D sky130_fd_sc_hd__a32o_2
*I *4368:A1 I *D sky130_fd_sc_hd__a221o_2
*I *4444:Q O *D sky130_fd_sc_hd__dfstp_2
*CAP
1 *3871:B1 0.000546896
2 *3890:A 0
3 *3888:A1 0.0004963
4 *4368:A1 0.00048792
5 *4444:Q 0
6 *1022:31 0.000733008
7 *1022:6 0.00106798
8 *1022:4 0.000890248
9 *3871:B1 *3836:A 0.000142856
10 *3888:A1 *3888:B2 0.0005169
11 *4368:A1 *4398:A_N 8.94476e-05
12 *1022:31 *4779:A 0.000265093
13 *1022:31 *1024:29 4.29272e-05
14 *1022:31 *1024:44 0.000106987
15 *1022:31 *1025:34 0.000198698
16 *3871:A1 *3871:B1 4.01768e-05
17 *3871:A2 *3871:B1 0.000185643
18 *3889:B1 *3871:B1 0
19 *3891:A1 *3871:B1 0
20 *4368:A2 *4368:A1 8.74117e-05
21 *4368:B1 *4368:A1 4.81734e-05
22 *4389:A2_N *3871:B1 0
23 *4486:CLK *3871:B1 0
24 *4640:A *3888:A1 0.000335083
25 *4640:A *1022:31 0.000195422
26 *114:36 *3888:A1 0
27 *114:51 *3888:A1 0
28 *121:32 *3871:B1 0
29 *126:10 *3888:A1 1.75535e-05
30 *126:10 *1022:31 4.95689e-05
31 *456:12 *4368:A1 5.16852e-05
32 *486:8 *3871:B1 0.000267821
33 *486:49 *4368:A1 0.000160653
34 *486:49 *1022:6 0.000253554
35 *486:60 *4368:A1 5.71472e-05
*RES
1 *4444:Q *1022:4 9.3 
2 *1022:4 *1022:6 4.64286 
3 *1022:6 *4368:A1 26.4071 
4 *1022:6 *1022:31 12.5179 
5 *1022:31 *3888:A1 22.8179 
6 *1022:31 *3890:A 13.8 
7 *1022:4 *3871:B1 29.8714 
*END

*D_NET *1023 0.00498464
*CONN
*I *4380:A1 I *D sky130_fd_sc_hd__a31o_2
*I *4733:A I *D sky130_fd_sc_hd__clkdlybuf4s25_1
*I *4445:Q O *D sky130_fd_sc_hd__dfrtp_2
*CAP
1 *4380:A1 0.000425479
2 *4733:A 0.000203185
3 *4445:Q 0.000226372
4 *1023:8 0.000855036
5 *4380:A1 *4390:A1 6.73939e-05
6 *4733:A *4390:A1 5.66157e-05
7 *4733:A *1024:44 0.000248486
8 *4733:A *1024:57 0.000173804
9 *1023:8 *4370:A 2.59355e-05
10 *1023:8 *1024:68 2.59355e-05
11 *3891:A1 *4733:A 1.39841e-05
12 *3891:B1 *4733:A 0
13 *4370:B *1023:8 5.52302e-05
14 *4377:B *4380:A1 6.39901e-05
15 *4380:A2 *4380:A1 1.02504e-05
16 *4380:A3 *4380:A1 0.000310781
17 *4389:A2_N *4380:A1 0.000343203
18 *4389:A2_N *4733:A 0.000465264
19 *4389:B2 *4380:A1 0.000137814
20 *4768:A *4380:A1 0.000128154
21 *122:8 *4733:A 5.75275e-05
22 *432:10 *4380:A1 0.000539971
23 *433:14 *4380:A1 0.000246886
24 *433:25 *4380:A1 0.000120645
25 *716:22 *4733:A 0.0001827
*RES
1 *4445:Q *1023:8 16.3893 
2 *1023:8 *4733:A 21.8893 
3 *1023:8 *4380:A1 30.0679 
*END

*D_NET *1024 0.00952401
*CONN
*I *4390:A1 I *D sky130_fd_sc_hd__a21oi_2
*I *3836:A I *D sky130_fd_sc_hd__inv_2
*I *4369:A I *D sky130_fd_sc_hd__nor2_2
*I *4370:A I *D sky130_fd_sc_hd__or2_2
*I *3889:B2 I *D sky130_fd_sc_hd__a2bb2o_2
*I *4073:B I *D sky130_fd_sc_hd__or3_2
*I *3888:B2 I *D sky130_fd_sc_hd__a32o_2
*I *4446:Q O *D sky130_fd_sc_hd__dfrtp_2
*CAP
1 *4390:A1 0.000661552
2 *3836:A 7.84014e-05
3 *4369:A 0.000282758
4 *4370:A 2.59948e-05
5 *3889:B2 0.000381468
6 *4073:B 5.05962e-05
7 *3888:B2 0.000344552
8 *4446:Q 0
9 *1024:68 0.000573812
10 *1024:59 0.000238647
11 *1024:57 0.000733111
12 *1024:44 0.00081869
13 *1024:29 0.000771016
14 *1024:4 0.000699308
15 *1024:44 *1025:34 1.02969e-05
16 *3871:B1 *3836:A 0.000142856
17 *3887:A1 *1024:29 2.29112e-05
18 *3887:A2 *3888:B2 6.70812e-05
19 *3888:A1 *3888:B2 0.0005169
20 *3889:B1 *3889:B2 0.00065196
21 *3891:A1 *1024:29 6.91533e-05
22 *3891:A1 *1024:44 4.1651e-05
23 *4074:A *3888:B2 2.79421e-05
24 *4074:A *1024:29 1.58163e-05
25 *4380:A1 *4390:A1 6.73939e-05
26 *4389:A1_N *1024:44 0
27 *4389:A1_N *1024:57 0
28 *4389:A2_N *4369:A 0
29 *4389:A2_N *1024:44 0.000282304
30 *4390:A2 *4390:A1 3.37555e-05
31 *4486:CLK *4369:A 0
32 *4639:A *1024:44 0
33 *4640:A *3888:B2 1.03904e-05
34 *4640:A *1024:29 0.000276368
35 *4642:A *4390:A1 8.76257e-05
36 *4733:A *4390:A1 5.66157e-05
37 *4733:A *1024:44 0.000248486
38 *4733:A *1024:57 0.000173804
39 *114:36 *3888:B2 2.90582e-05
40 *123:37 *3888:B2 0.000257905
41 *270:23 *1024:29 0
42 *431:21 *4390:A1 8.56752e-05
43 *433:14 *4370:A 1.58163e-05
44 *433:14 *4390:A1 0.000114759
45 *433:14 *1024:57 8.15095e-05
46 *443:6 *4390:A1 3.63775e-05
47 *456:12 *4390:A1 0.000183726
48 *490:21 *4369:A 0
49 *490:30 *4369:A 0
50 *716:22 *1024:44 5.41794e-05
51 *1022:31 *1024:29 4.29272e-05
52 *1022:31 *1024:44 0.000106987
53 *1023:8 *4370:A 2.59355e-05
54 *1023:8 *1024:68 2.59355e-05
*RES
1 *4446:Q *1024:4 9.3 
2 *1024:4 *3888:B2 26.4607 
3 *1024:4 *1024:29 13.1071 
4 *1024:29 *4073:B 14.3357 
5 *1024:29 *1024:44 9.28571 
6 *1024:44 *3889:B2 20.925 
7 *1024:44 *1024:57 2.25 
8 *1024:57 *1024:59 4.5 
9 *1024:59 *4370:A 9.83571 
10 *1024:59 *1024:68 3.41071 
11 *1024:68 *4369:A 23.2821 
12 *1024:68 *3836:A 11.0679 
13 *1024:57 *4390:A1 23.2821 
*END

*D_NET *1025 0.00391368
*CONN
*I *4368:C1 I *D sky130_fd_sc_hd__a221o_2
*I *4398:A_N I *D sky130_fd_sc_hd__and4bb_2
*I *4779:A I *D sky130_fd_sc_hd__dlygate4sd3_1
*I *4073:C I *D sky130_fd_sc_hd__or3_2
*I *4447:Q O *D sky130_fd_sc_hd__dfrtp_2
*CAP
1 *4368:C1 1.55447e-05
2 *4398:A_N 0.00033575
3 *4779:A 0.000128257
4 *4073:C 6.66215e-05
5 *4447:Q 4.72782e-05
6 *1025:34 0.000491732
7 *1025:17 0.000268695
8 *1025:6 0.0001139
9 *3891:B1 *4368:C1 5.7661e-06
10 *3891:B1 *4398:A_N 5.33005e-05
11 *3891:B1 *1025:34 4.08637e-05
12 *4073:A *4073:C 5.33005e-05
13 *4073:A *1025:6 1.21258e-05
14 *4368:A1 *4398:A_N 8.94476e-05
15 *4368:A2 *4398:A_N 1.46576e-05
16 *4368:B1 *4398:A_N 1.21258e-05
17 *4398:B_N *4398:A_N 0.000514617
18 *4398:D *4398:A_N 1.04232e-05
19 *4399:B1 *4398:A_N 5.33433e-05
20 *4639:A *4779:A 0.000245086
21 *4639:A *1025:34 0.000301771
22 *4640:A *4779:A 5.33005e-05
23 *126:10 *4779:A 1.27e-05
24 *715:25 *4398:A_N 5.96516e-05
25 *715:31 *4398:A_N 0.00029576
26 *716:22 *4368:C1 2.08464e-05
27 *716:22 *4398:A_N 2.0328e-05
28 *716:22 *1025:34 4.76184e-05
29 *716:28 *4398:A_N 5.47797e-05
30 *1022:31 *4779:A 0.000265093
31 *1022:31 *1025:34 0.000198698
32 *1024:44 *1025:34 1.02969e-05
*RES
1 *4447:Q *1025:6 9.83571 
2 *1025:6 *4073:C 10.5679 
3 *1025:6 *1025:17 4.5 
4 *1025:17 *4779:A 17.8 
5 *1025:17 *1025:34 9.10714 
6 *1025:34 *4398:A_N 18.6036 
7 *1025:34 *4368:C1 9.72857 
*END
