*SPEF "ieee 1481-1999"
*DESIGN "soc_top"
*DATE "18:10:56 Saturday September 12, 2026"
*VENDOR "The OpenROAD Project"
*PROGRAM "OpenROAD"
*VERSION "dcf36133a369abc8f3c5e5738cd4d82e4903c0e0"
*DESIGN_FLOW "NAME_SCOPE LOCAL" "PIN_CAP NONE"
*DIVIDER /
*DELIMITER :
*BUS_DELIMITER []
*T_UNIT 1 NS
*C_UNIT 1 PF
*R_UNIT 1 OHM
*L_UNIT 1 HENRY

*NAME_MAP
*3 clk
*4 instruct_en0
*5 instruct_en1
*6 result0[0]
*7 net28
*8 net27
*9 net26
*10 net25
*11 net24
*12 net23
*13 net22
*14 net21
*15 net20
*16 net19
*17 net65
*18 net18
*19 net17
*20 net16
*21 net15
*22 net14
*23 net13
*24 net12
*25 net11
*26 net10
*27 net9
*28 result0[2]
*29 net8
*30 net
*31 net64
*32 net62
*33 net60
*34 net32
*35 net31
*36 net30
*37 net29
*38 result1[0]
*39 net54
*40 net53
*41 net52
*42 net51
*43 net50
*44 net49
*45 net48
*46 net47
*47 net46
*48 net45
*49 net66
*50 net44
*51 net43
*52 net42
*53 net41
*54 net40
*55 net39
*56 net38
*57 net37
*58 net36
*59 net35
*60 result1[2]
*61 net34
*62 net33
*63 net63
*64 net61
*65 net59
*66 net58
*67 net57
*68 net56
*69 net55
*70 rst
*71 _00_
*72 _01_
*73 _02_
*74 _03_
*75 _04_
*76 _05_
*77 _06_
*78 _07_
*79 _08_
*80 _09_
*81 _10_
*82 clknet_0_clk
*83 clknet_1_0__leaf_clk
*84 clknet_1_1__leaf_clk
*85 core0\.pc\[2\]
*86 core0\.pc\[3\]
*87 core0\.pc\[4\]
*88 core1\.pc\[2\]
*89 core1\.pc\[3\]
*90 core1\.pc\[4\]
*91 net1
*92 net2
*93 net3
*94 net4
*95 net5
*96 net6
*97 net67
*98 net68
*99 net69
*100 net7
*101 net70
*102 net71
*103 net72
*104 net73
*105 net74
*106 net75
*107 FILLER_0_16
*108 FILLER_0_22
*109 FILLER_0_29
*110 FILLER_0_34
*111 FILLER_0_40
*112 FILLER_0_46
*113 FILLER_0_52
*114 FILLER_0_57
*115 FILLER_0_6
*116 FILLER_0_70
*117 FILLER_10_19
*118 FILLER_10_54
*119 FILLER_10_57
*120 FILLER_11_11
*121 FILLER_11_49
*122 FILLER_11_52
*123 FILLER_11_57
*124 FILLER_11_70
*125 FILLER_12_29
*126 FILLER_12_3
*127 FILLER_12_40
*128 FILLER_12_54
*129 FILLER_12_65
*130 FILLER_1_11
*131 FILLER_1_14
*132 FILLER_1_17
*133 FILLER_1_20
*134 FILLER_1_23
*135 FILLER_1_26
*136 FILLER_1_29
*137 FILLER_1_32
*138 FILLER_1_35
*139 FILLER_1_38
*140 FILLER_1_41
*141 FILLER_1_44
*142 FILLER_1_47
*143 FILLER_1_50
*144 FILLER_1_53
*145 FILLER_2_12
*146 FILLER_2_15
*147 FILLER_2_18
*148 FILLER_2_21
*149 FILLER_2_24
*150 FILLER_2_27
*151 FILLER_2_29
*152 FILLER_2_3
*153 FILLER_2_32
*154 FILLER_2_35
*155 FILLER_2_38
*156 FILLER_2_41
*157 FILLER_2_44
*158 FILLER_2_47
*159 FILLER_2_50
*160 FILLER_2_53
*161 FILLER_2_56
*162 FILLER_2_59
*163 FILLER_2_6
*164 FILLER_2_62
*165 FILLER_2_9
*166 FILLER_3_12
*167 FILLER_3_15
*168 FILLER_3_18
*169 FILLER_3_21
*170 FILLER_3_24
*171 FILLER_3_27
*172 FILLER_3_3
*173 FILLER_3_30
*174 FILLER_3_33
*175 FILLER_3_36
*176 FILLER_3_51
*177 FILLER_3_54
*178 FILLER_3_57
*179 FILLER_3_6
*180 FILLER_3_60
*181 FILLER_3_63
*182 FILLER_3_9
*183 FILLER_4_13
*184 FILLER_4_16
*185 FILLER_4_19
*186 FILLER_4_22
*187 FILLER_4_25
*188 FILLER_4_29
*189 FILLER_4_3
*190 FILLER_4_32
*191 FILLER_4_35
*192 FILLER_4_38
*193 FILLER_4_6
*194 FILLER_4_73
*195 FILLER_5_34
*196 FILLER_5_37
*197 FILLER_5_40
*198 FILLER_5_43
*199 FILLER_5_57
*200 FILLER_5_60
*201 FILLER_5_63
*202 FILLER_5_66
*203 FILLER_6_29
*204 FILLER_6_3
*205 FILLER_6_32
*206 FILLER_6_47
*207 FILLER_6_50
*208 FILLER_6_57
*209 FILLER_6_6
*210 FILLER_6_60
*211 FILLER_6_63
*212 FILLER_6_66
*213 FILLER_7_10
*214 FILLER_7_13
*215 FILLER_7_57
*216 FILLER_7_60
*217 FILLER_7_63
*218 FILLER_7_66
*219 FILLER_8_22
*220 FILLER_8_25
*221 FILLER_8_29
*222 FILLER_8_3
*223 FILLER_8_32
*224 FILLER_8_35
*225 FILLER_8_62
*226 FILLER_8_65
*227 FILLER_9_11
*228 FILLER_9_46
*229 FILLER_9_53
*230 FILLER_9_57
*231 FILLER_9_60
*232 FILLER_9_63
*233 PHY_EDGE_ROW_0_Left_13
*234 PHY_EDGE_ROW_0_Right_0
*235 PHY_EDGE_ROW_10_Left_23
*236 PHY_EDGE_ROW_10_Right_10
*237 PHY_EDGE_ROW_11_Left_24
*238 PHY_EDGE_ROW_11_Right_11
*239 PHY_EDGE_ROW_12_Left_25
*240 PHY_EDGE_ROW_12_Right_12
*241 PHY_EDGE_ROW_1_Left_14
*242 PHY_EDGE_ROW_1_Right_1
*243 PHY_EDGE_ROW_2_Left_15
*244 PHY_EDGE_ROW_2_Right_2
*245 PHY_EDGE_ROW_3_Left_16
*246 PHY_EDGE_ROW_3_Right_3
*247 PHY_EDGE_ROW_4_Left_17
*248 PHY_EDGE_ROW_4_Right_4
*249 PHY_EDGE_ROW_5_Left_18
*250 PHY_EDGE_ROW_5_Right_5
*251 PHY_EDGE_ROW_6_Left_19
*252 PHY_EDGE_ROW_6_Right_6
*253 PHY_EDGE_ROW_7_Left_20
*254 PHY_EDGE_ROW_7_Right_7
*255 PHY_EDGE_ROW_8_Left_21
*256 PHY_EDGE_ROW_8_Right_8
*257 PHY_EDGE_ROW_9_Left_22
*258 PHY_EDGE_ROW_9_Right_9
*259 TAP_TAPCELL_ROW_0_26
*260 TAP_TAPCELL_ROW_0_27
*261 TAP_TAPCELL_ROW_10_37
*262 TAP_TAPCELL_ROW_11_38
*263 TAP_TAPCELL_ROW_12_39
*264 TAP_TAPCELL_ROW_12_40
*265 TAP_TAPCELL_ROW_1_28
*266 TAP_TAPCELL_ROW_2_29
*267 TAP_TAPCELL_ROW_3_30
*268 TAP_TAPCELL_ROW_4_31
*269 TAP_TAPCELL_ROW_5_32
*270 TAP_TAPCELL_ROW_6_33
*271 TAP_TAPCELL_ROW_7_34
*272 TAP_TAPCELL_ROW_8_35
*273 TAP_TAPCELL_ROW_9_36
*274 _11_
*275 _12_
*276 _13_
*277 _14_
*278 _15_
*279 _16_
*280 _17_
*281 _18_
*282 _19_
*283 _20_
*284 _21_
*285 _22_
*286 _23_
*287 _24_
*288 _25_
*289 _26_
*290 _27_
*291 _28_
*292 _29_
*293 _30_
*294 _31_
*295 clkbuf_0_clk
*296 clkbuf_1_0__f_clk
*297 clkbuf_1_1__f_clk
*298 hold67
*299 hold68
*300 hold69
*301 hold70
*302 hold71
*303 hold72
*304 hold73
*305 hold74
*306 hold75
*307 input1
*308 input2
*309 input3
*310 output4
*311 output5
*312 output6
*313 output7
*314 soc_top
*315 soc_top_10
*316 soc_top_11
*317 soc_top_12
*318 soc_top_13
*319 soc_top_14
*320 soc_top_15
*321 soc_top_16
*322 soc_top_17
*323 soc_top_18
*324 soc_top_19
*325 soc_top_20
*326 soc_top_21
*327 soc_top_22
*328 soc_top_23
*329 soc_top_24
*330 soc_top_25
*331 soc_top_26
*332 soc_top_27
*333 soc_top_28
*334 soc_top_29
*335 soc_top_30
*336 soc_top_31
*337 soc_top_32
*338 soc_top_33
*339 soc_top_34
*340 soc_top_35
*341 soc_top_36
*342 soc_top_37
*343 soc_top_38
*344 soc_top_39
*345 soc_top_40
*346 soc_top_41
*347 soc_top_42
*348 soc_top_43
*349 soc_top_44
*350 soc_top_45
*351 soc_top_46
*352 soc_top_47
*353 soc_top_48
*354 soc_top_49
*355 soc_top_50
*356 soc_top_51
*357 soc_top_52
*358 soc_top_53
*359 soc_top_54
*360 soc_top_55
*361 soc_top_56
*362 soc_top_57
*363 soc_top_58
*364 soc_top_59
*365 soc_top_60
*366 soc_top_61
*367 soc_top_62
*368 soc_top_63
*369 soc_top_64
*370 soc_top_65
*371 soc_top_66
*372 soc_top_8
*373 soc_top_9

*PORTS
clk I
instruct_en0 I
instruct_en1 I
result0[0] O
result0[10] O
result0[11] O
result0[12] O
result0[13] O
result0[14] O
result0[15] O
result0[16] O
result0[17] O
result0[18] O
result0[19] O
result0[1] O
result0[20] O
result0[21] O
result0[22] O
result0[23] O
result0[24] O
result0[25] O
result0[26] O
result0[27] O
result0[28] O
result0[29] O
result0[2] O
result0[30] O
result0[31] O
result0[3] O
result0[4] O
result0[5] O
result0[6] O
result0[7] O
result0[8] O
result0[9] O
result1[0] O
result1[10] O
result1[11] O
result1[12] O
result1[13] O
result1[14] O
result1[15] O
result1[16] O
result1[17] O
result1[18] O
result1[19] O
result1[1] O
result1[20] O
result1[21] O
result1[22] O
result1[23] O
result1[24] O
result1[25] O
result1[26] O
result1[27] O
result1[28] O
result1[29] O
result1[2] O
result1[30] O
result1[31] O
result1[3] O
result1[4] O
result1[5] O
result1[6] O
result1[7] O
result1[8] O
result1[9] O
rst I

*D_NET *3 0.00488747
*CONN
*P clk I
*I *295:A I *D sky130_fd_sc_hd__clkbuf_8
*CAP
1 clk 0.00129792
2 *295:A 0.000120268
3 *3:34 0.000792658
4 *3:20 0.00197031
5 *295:A *276:B 2.00426e-05
6 *295:A *78:8 3.71887e-05
7 *3:20 result1[21] 0.000213778
8 *3:20 result1[30] 0
9 *3:20 result1[31] 2.6576e-05
10 *3:20 *53:10 0
11 *3:20 *54:10 0
12 *3:20 *58:8 0
13 *3:20 *59:10 9.71269e-05
14 *3:20 *70:11 2.41775e-05
15 *3:34 *276:B 6.80272e-05
16 *3:34 *305:A 0.000141525
17 *3:34 *48:12 6.33761e-05
18 *3:34 *59:10 1.44861e-05
*RES
1 clk *3:20 47.4618 
2 *3:20 *3:34 13.0293 
3 *3:34 *295:A 25.5479 
*END

*D_NET *4 0.000910274
*CONN
*P instruct_en0 I
*I *307:A I *D sky130_fd_sc_hd__clkdlybuf4s25_1
*CAP
1 instruct_en0 0.000455137
2 *307:A 0
3 *4:13 0.000455137
4 *4:13 *36:8 0
*RES
1 instruct_en0 *4:13 29.3405 
2 *4:13 *307:A 23 
*END

*D_NET *5 0.0013082
*CONN
*P instruct_en1 I
*I *308:A I *D sky130_fd_sc_hd__clkdlybuf4s25_1
*CAP
1 instruct_en1 0.000654099
2 *308:A 0
3 *5:13 0.000654099
*RES
1 instruct_en1 *5:13 34.6995 
2 *5:13 *308:A 23 
*END

*D_NET *6 0.00184594
*CONN
*P result0[0] O
*I *310:X O *D sky130_fd_sc_hd__clkdlybuf4s25_1
*CAP
1 result0[0] 0.000657598
2 *310:X 0.000265371
3 *6:8 0.00092297
4 result0[0] result0[1] 0
*RES
1 *310:X *6:8 42.4329 
2 *6:8 result0[0] 15.5046 
*END

*D_NET *7 0.00127954
*CONN
*P result0[10] O
*I *333:LO O *D sky130_fd_sc_hd__conb_1
*CAP
1 result0[10] 0.000577786
2 *333:LO 3.41659e-05
3 *7:8 0.000611952
4 *7:8 *36:8 5.56356e-05
*RES
1 *333:LO *7:8 38.6214 
2 *7:8 result0[10] 12.4286 
*END

*D_NET *8 0.0012122
*CONN
*P result0[11] O
*I *332:LO O *D sky130_fd_sc_hd__conb_1
*CAP
1 result0[11] 0.000564354
2 *332:LO 4.17433e-05
3 *8:8 0.000606098
4 result0[11] result0[12] 0
*RES
1 *332:LO *8:8 38.6214 
2 *8:8 result0[11] 12.4286 
*END

*D_NET *9 0.00118533
*CONN
*P result0[12] O
*I *331:LO O *D sky130_fd_sc_hd__conb_1
*CAP
1 result0[12] 0.000550923
2 *331:LO 4.17433e-05
3 *9:8 0.000592666
4 result0[12] result0[13] 0
5 result0[11] result0[12] 0
*RES
1 *331:LO *9:8 38.6214 
2 *9:8 result0[12] 12.4286 
*END

*D_NET *10 0.00118533
*CONN
*P result0[13] O
*I *330:LO O *D sky130_fd_sc_hd__conb_1
*CAP
1 result0[13] 0.000550923
2 *330:LO 4.17433e-05
3 *10:8 0.000592666
4 result0[13] result0[14] 0
5 result0[12] result0[13] 0
*RES
1 *330:LO *10:8 38.6214 
2 *10:8 result0[13] 12.4286 
*END

*D_NET *11 0.00118533
*CONN
*P result0[14] O
*I *329:LO O *D sky130_fd_sc_hd__conb_1
*CAP
1 result0[14] 0.000550923
2 *329:LO 4.17433e-05
3 *11:8 0.000592666
4 result0[14] result0[15] 0
5 result0[13] result0[14] 0
*RES
1 *329:LO *11:8 38.6214 
2 *11:8 result0[14] 12.4286 
*END

*D_NET *12 0.00121337
*CONN
*P result0[15] O
*I *328:LO O *D sky130_fd_sc_hd__conb_1
*CAP
1 result0[15] 0.000564354
2 *328:LO 4.23312e-05
3 *12:8 0.000606686
4 result0[14] result0[15] 0
*RES
1 *328:LO *12:8 38.6214 
2 *12:8 result0[15] 12.4286 
*END

*D_NET *13 0.00317043
*CONN
*P result0[16] O
*I *327:LO O *D sky130_fd_sc_hd__conb_1
*CAP
1 result0[16] 0.000846872
2 *327:LO 0.000304016
3 *13:8 0.00115089
4 result0[16] result0[17] 0.000223724
5 result0[16] result0[18] 8.59731e-05
6 result0[16] result0[19] 0
7 *13:8 result1[12] 0
8 *13:8 *40:10 0.000513492
9 *13:8 *43:12 4.54619e-05
*RES
1 *327:LO *13:8 46.7725 
2 *13:8 result0[16] 10.4099 
*END

*D_NET *14 0.00300723
*CONN
*P result0[17] O
*I *326:LO O *D sky130_fd_sc_hd__conb_1
*CAP
1 result0[17] 0.000553584
2 *326:LO 0.000242441
3 *14:8 0.000796025
4 result0[17] result0[18] 0.000256291
5 result0[17] result0[21] 0.000118924
6 result0[17] result1[15] 0
7 result0[17] *18:10 0.000261188
8 result0[17] *22:10 7.85157e-05
9 result0[17] *42:12 0
10 *14:8 *22:10 0.00040238
11 *14:8 *44:8 7.41575e-05
12 result0[16] result0[17] 0.000223724
*RES
1 *326:LO *14:8 43.8621 
2 *14:8 result0[17] 19.7496 
*END

*D_NET *15 0.00285745
*CONN
*P result0[18] O
*I *325:LO O *D sky130_fd_sc_hd__conb_1
*CAP
1 result0[18] 0.000350329
2 *325:LO 0.00046541
3 *15:10 0.000815739
4 result0[18] result0[19] 0.00047519
5 *15:10 result0[22] 2.23467e-05
6 *15:10 result1[12] 0
7 *15:10 *18:10 9.94672e-05
8 *15:10 *42:12 0.000286702
9 result0[16] result0[18] 8.59731e-05
10 result0[17] result0[18] 0.000256291
*RES
1 *325:LO *15:10 46.4825 
2 *15:10 result0[18] 9.72293 
*END

*D_NET *16 0.0028367
*CONN
*P result0[19] O
*I *324:LO O *D sky130_fd_sc_hd__conb_1
*CAP
1 result0[19] 0.000800834
2 *324:LO 5.04665e-05
3 *16:10 0.0008513
4 result0[19] result0[20] 0.000278068
5 result0[19] result0[21] 1.38508e-05
6 result0[19] result0[22] 0
7 *16:10 *40:10 0.000182181
8 *16:10 *43:12 0.000184814
9 result0[16] result0[19] 0
10 result0[18] result0[19] 0.00047519
*RES
1 *324:LO *16:10 48.4339 
2 *16:10 result0[19] 2.5816 
*END

*D_NET *17 0.00223049
*CONN
*P result0[1] O
*I *370:LO O *D sky130_fd_sc_hd__conb_1
*CAP
1 result0[1] 0.000727809
2 *370:LO 5.03844e-05
3 *17:8 0.000778193
4 result0[1] result0[2] 0.000505199
5 result0[1] *94:12 0.000168901
6 result0[0] result0[1] 0
*RES
1 *370:LO *17:8 38.6214 
2 *17:8 result0[1] 21.7396 
*END

*D_NET *18 0.00217292
*CONN
*P result0[20] O
*I *323:LO O *D sky130_fd_sc_hd__conb_1
*CAP
1 result0[20] 0.000136547
2 *323:LO 0.000394149
3 *18:10 0.000530696
4 result0[20] result0[21] 0.000239389
5 *18:10 result0[21] 0.000154687
6 *18:10 *23:10 7.87243e-05
7 result0[17] *18:10 0.000261188
8 result0[19] result0[20] 0.000278068
9 *15:10 *18:10 9.94672e-05
*RES
1 *323:LO *18:10 46.8761 
2 *18:10 result0[20] 8.95013 
*END

*D_NET *19 0.00271916
*CONN
*P result0[21] O
*I *322:LO O *D sky130_fd_sc_hd__conb_1
*CAP
1 result0[21] 0.000512143
2 *322:LO 0.000287864
3 *19:8 0.000800007
4 result0[21] result0[22] 0.000261294
5 result0[21] result0[23] 0
6 result0[21] result0[27] 0
7 result0[21] *22:10 4.98399e-06
8 result0[21] *23:10 0.000223561
9 *19:8 *27:10 0.000100543
10 *19:8 *44:8 1.91029e-06
11 result0[17] result0[21] 0.000118924
12 result0[19] result0[21] 1.38508e-05
13 result0[20] result0[21] 0.000239389
14 *18:10 result0[21] 0.000154687
*RES
1 *322:LO *19:8 42.9093 
2 *19:8 result0[21] 16.7521 
*END

*D_NET *20 0.00167749
*CONN
*P result0[22] O
*I *321:LO O *D sky130_fd_sc_hd__conb_1
*CAP
1 result0[22] 0.000528682
2 *321:LO 0.000528682
3 result0[22] result0[23] 0.000336483
4 result0[22] result0[26] 0
5 result0[19] result0[22] 0
6 result0[21] result0[22] 0.000261294
7 *15:10 result0[22] 2.23467e-05
*RES
1 *321:LO result0[22] 47.9581 
*END

*D_NET *21 0.00162145
*CONN
*P result0[23] O
*I *320:LO O *D sky130_fd_sc_hd__conb_1
*CAP
1 result0[23] 0.000524263
2 *320:LO 0.000524263
3 result0[23] result0[24] 0.000201112
4 result0[23] result0[25] 3.09659e-05
5 result0[23] *23:10 4.36401e-06
6 result0[21] result0[23] 0
7 result0[22] result0[23] 0.000336483
*RES
1 *320:LO result0[23] 49.8134 
*END

*D_NET *22 0.00189089
*CONN
*P result0[24] O
*I *319:LO O *D sky130_fd_sc_hd__conb_1
*CAP
1 result0[24] 0.000111045
2 *319:LO 0.00015164
3 *22:10 0.000262685
4 result0[24] result0[25] 0.000201112
5 *22:10 result1[15] 3.15607e-05
6 *22:10 *44:8 0.000445855
7 result0[17] *22:10 7.85157e-05
8 result0[21] *22:10 4.98399e-06
9 result0[23] result0[24] 0.000201112
10 *14:8 *22:10 0.00040238
*RES
1 *319:LO *22:10 44.2868 
2 *22:10 result0[24] 8.7784 
*END

*D_NET *23 0.00182208
*CONN
*P result0[25] O
*I *318:LO O *D sky130_fd_sc_hd__conb_1
*CAP
1 result0[25] 0.000257852
2 *318:LO 0.000224744
3 *23:10 0.000482596
4 result0[25] result0[26] 0.000318162
5 result0[21] *23:10 0.000223561
6 result0[23] result0[25] 3.09659e-05
7 result0[23] *23:10 4.36401e-06
8 result0[24] result0[25] 0.000201112
9 *18:10 *23:10 7.87243e-05
*RES
1 *318:LO *23:10 42.7125 
2 *23:10 result0[25] 9.12187 
*END

*D_NET *24 0.00169272
*CONN
*P result0[26] O
*I *317:LO O *D sky130_fd_sc_hd__conb_1
*CAP
1 result0[26] 0.000493519
2 *317:LO 0.000493519
3 result0[26] result0[27] 0.00038752
4 result0[26] result0[30] 0
5 result0[22] result0[26] 0
6 result0[25] result0[26] 0.000318162
*RES
1 *317:LO result0[26] 47.9581 
*END

*D_NET *25 0.00157295
*CONN
*P result0[27] O
*I *316:LO O *D sky130_fd_sc_hd__conb_1
*CAP
1 result0[27] 0.000463271
2 *316:LO 0.000463271
3 result0[27] result0[28] 0.000234514
4 result0[27] result0[29] 2.4375e-05
5 result0[27] result0[30] 0
6 result0[21] result0[27] 0
7 result0[26] result0[27] 0.00038752
*RES
1 *316:LO result0[27] 49.8134 
*END

*D_NET *26 0.00123734
*CONN
*P result0[28] O
*I *315:LO O *D sky130_fd_sc_hd__conb_1
*CAP
1 result0[28] 6.85775e-05
2 *315:LO 0.000295334
3 *26:10 0.000363911
4 result0[28] result0[29] 0.000234514
5 *26:10 *27:10 4.04908e-05
6 result0[27] result0[28] 0.000234514
*RES
1 *315:LO *26:10 43.4582 
2 *26:10 result0[28] 8.7784 
*END

*D_NET *27 0.00145617
*CONN
*P result0[29] O
*I *373:LO O *D sky130_fd_sc_hd__conb_1
*CAP
1 result0[29] 0.000109004
2 *373:LO 0.000277681
3 *27:10 0.000386684
4 result0[29] result0[30] 0.000282874
5 *27:10 *44:8 0
6 result0[27] result0[29] 2.4375e-05
7 result0[28] result0[29] 0.000234514
8 *19:8 *27:10 0.000100543
9 *26:10 *27:10 4.04908e-05
*RES
1 *373:LO *27:10 43.6654 
2 *27:10 result0[29] 8.95013 
*END

*D_NET *28 0.00163214
*CONN
*P result0[2] O
*I *311:X O *D sky130_fd_sc_hd__clkdlybuf4s25_1
*CAP
1 result0[2] 0.000411925
2 *311:X 0.000122568
3 *28:8 0.000534493
4 result0[2] result0[3] 0
5 *28:8 *32:8 5.79559e-05
6 result0[1] result0[2] 0.000505199
*RES
1 *311:X *28:8 39.5743 
2 *28:8 result0[2] 12.6875 
*END

*D_NET *29 0.00150795
*CONN
*P result0[30] O
*I *372:LO O *D sky130_fd_sc_hd__conb_1
*CAP
1 result0[30] 0.00043883
2 *372:LO 0.00043883
3 result0[30] result0[31] 0.000347414
4 result0[30] result1[18] 0
5 result0[26] result0[30] 0
6 result0[27] result0[30] 0
7 result0[29] result0[30] 0.000282874
*RES
1 *372:LO result0[30] 47.9581 
*END

*D_NET *30 0.00118906
*CONN
*P result0[31] O
*I *314:LO O *D sky130_fd_sc_hd__conb_1
*CAP
1 result0[31] 0.000319456
2 *314:LO 0.000319456
3 result0[31] result1[16] 0.000114535
4 result0[31] result1[17] 8.82019e-05
5 result0[30] result0[31] 0.000347414
*RES
1 *314:LO result0[31] 47.7005 
*END

*D_NET *31 0.00300632
*CONN
*P result0[3] O
*I *369:LO O *D sky130_fd_sc_hd__conb_1
*CAP
1 result0[3] 0.000428781
2 *369:LO 0.000241512
3 *31:16 0.00111121
4 *31:10 0.000923943
5 result0[3] result0[4] 0
6 *31:10 result1[0] 0
7 *31:10 *312:A 7.89339e-05
8 *31:10 *35:10 0.000221933
9 result0[2] result0[3] 0
*RES
1 *369:LO *31:10 43.365 
2 *31:10 *31:16 42.5321 
3 *31:16 result0[3] 9.87036 
*END

*D_NET *32 0.00189472
*CONN
*P result0[4] O
*I *367:LO O *D sky130_fd_sc_hd__conb_1
*CAP
1 result0[4] 0.000586532
2 *367:LO 0.000292063
3 *32:8 0.000878595
4 result0[4] result0[5] 0
5 *32:8 *95:23 7.95762e-05
6 result0[3] result0[4] 0
7 *28:8 *32:8 5.79559e-05
*RES
1 *367:LO *32:8 42.9093 
2 *32:8 result0[4] 13.0396 
*END

*D_NET *33 0.00123553
*CONN
*P result0[5] O
*I *365:LO O *D sky130_fd_sc_hd__conb_1
*CAP
1 result0[5] 0.000568362
2 *365:LO 4.68221e-05
3 *33:8 0.000615184
4 result0[5] result0[6] 0
5 *33:8 *104:10 5.1614e-06
6 result0[4] result0[5] 0
*RES
1 *365:LO *33:8 38.6214 
2 *33:8 result0[5] 12.6875 
*END

*D_NET *34 0.00125325
*CONN
*P result0[6] O
*I *337:LO O *D sky130_fd_sc_hd__conb_1
*CAP
1 result0[6] 0.00057208
2 *337:LO 5.41006e-05
3 *34:8 0.000626181
4 result0[6] result0[7] 0
5 result0[6] *35:10 0
6 *34:8 *104:10 8.91468e-07
7 result0[5] result0[6] 0
*RES
1 *337:LO *34:8 38.6214 
2 *34:8 result0[6] 12.6875 
*END

*D_NET *35 0.00135763
*CONN
*P result0[7] O
*I *336:LO O *D sky130_fd_sc_hd__conb_1
*CAP
1 result0[7] 0.000383768
2 *336:LO 0.00018408
3 *35:10 0.000567848
4 result0[7] result1[0] 0
5 result0[6] result0[7] 0
6 result0[6] *35:10 0
7 *31:10 *35:10 0.000221933
*RES
1 *336:LO *35:10 42.4639 
2 *35:10 result0[7] 8.99 
*END

*D_NET *36 0.0020751
*CONN
*P result0[8] O
*I *335:LO O *D sky130_fd_sc_hd__conb_1
*CAP
1 result0[8] 0.000544661
2 *335:LO 0.000392823
3 *36:8 0.000937484
4 result0[8] result0[9] 0
5 *36:8 *37:8 0.000144501
6 *4:13 *36:8 0
7 *7:8 *36:8 5.56356e-05
*RES
1 *335:LO *36:8 45.7679 
2 *36:8 result0[8] 12.7807 
*END

*D_NET *37 0.00137115
*CONN
*P result0[9] O
*I *334:LO O *D sky130_fd_sc_hd__conb_1
*CAP
1 result0[9] 0.000550264
2 *334:LO 6.30607e-05
3 *37:8 0.000613325
4 result0[8] result0[9] 0
5 *36:8 *37:8 0.000144501
*RES
1 *334:LO *37:8 39.5743 
2 *37:8 result0[9] 12.4286 
*END

*D_NET *38 0.00175108
*CONN
*P result1[0] O
*I *312:X O *D sky130_fd_sc_hd__clkdlybuf4s25_1
*CAP
1 result1[0] 0.000604879
2 *312:X 0.000191363
3 *38:8 0.000796242
4 result1[0] result1[1] 0
5 *38:8 *312:A 3.22051e-05
6 *38:8 *49:8 0.000102971
7 *38:8 *93:14 2.34195e-05
8 result0[7] result1[0] 0
9 *31:10 result1[0] 0
*RES
1 *312:X *38:8 41.9564 
2 *38:8 result1[0] 13.0396 
*END

*D_NET *39 0.0011854
*CONN
*P result1[10] O
*I *359:LO O *D sky130_fd_sc_hd__conb_1
*CAP
1 result1[10] 0.000550923
2 *359:LO 4.17755e-05
3 *39:8 0.000592698
4 result1[10] result1[9] 0
5 result1[10] *43:12 0
*RES
1 *359:LO *39:8 38.6214 
2 *39:8 result1[10] 12.4286 
*END

*D_NET *40 0.00186187
*CONN
*P result1[11] O
*I *358:LO O *D sky130_fd_sc_hd__conb_1
*CAP
1 result1[11] 0.000183559
2 *358:LO 0.000137821
3 *40:10 0.00032138
4 result1[11] *43:12 0.0003546
5 *40:10 *43:12 0.00016884
6 *13:8 *40:10 0.000513492
7 *16:10 *40:10 0.000182181
*RES
1 *358:LO *40:10 45.2811 
2 *40:10 result1[11] 5.91393 
*END

*D_NET *41 0.00135629
*CONN
*P result1[12] O
*I *357:LO O *D sky130_fd_sc_hd__conb_1
*CAP
1 result1[12] 0.000626856
2 *357:LO 3.66196e-05
3 *41:8 0.000663476
4 result1[12] result1[13] 0
5 result1[12] *42:12 0
6 *41:8 *42:12 2.93431e-05
7 *13:8 result1[12] 0
8 *15:10 result1[12] 0
*RES
1 *357:LO *41:8 38.6214 
2 *41:8 result1[12] 13.1329 
*END

*D_NET *42 0.0017897
*CONN
*P result1[13] O
*I *356:LO O *D sky130_fd_sc_hd__conb_1
*CAP
1 result1[13] 0.000275187
2 *356:LO 0.000461638
3 *42:12 0.000736825
4 result0[17] *42:12 0
5 result1[12] result1[13] 0
6 result1[12] *42:12 0
7 *15:10 *42:12 0.000286702
8 *41:8 *42:12 2.93431e-05
*RES
1 *356:LO *42:12 47.8082 
2 *42:12 result1[13] 5.91393 
*END

*D_NET *43 0.00271743
*CONN
*P result1[14] O
*I *355:LO O *D sky130_fd_sc_hd__conb_1
*CAP
1 result1[14] 7.20365e-05
2 *355:LO 0
3 *43:12 0.000981856
4 *43:6 0.000909819
5 result1[10] *43:12 0
6 result1[11] *43:12 0.0003546
7 *13:8 *43:12 4.54619e-05
8 *16:10 *43:12 0.000184814
9 *40:10 *43:12 0.00016884
*RES
1 *355:LO *43:6 38 
2 *43:6 *43:12 37.3714 
3 *43:12 result1[14] 16.5121 
*END

*D_NET *44 0.00324101
*CONN
*P result1[15] O
*I *354:LO O *D sky130_fd_sc_hd__conb_1
*CAP
1 result1[15] 0.000909011
2 *354:LO 0.000434753
3 *44:8 0.00134376
4 result0[17] result1[15] 0
5 *14:8 *44:8 7.41575e-05
6 *19:8 *44:8 1.91029e-06
7 *22:10 result1[15] 3.15607e-05
8 *22:10 *44:8 0.000445855
9 *27:10 *44:8 0
*RES
1 *354:LO *44:8 47.1971 
2 *44:8 result1[15] 18.7671 
*END

*D_NET *45 0.00119904
*CONN
*P result1[16] O
*I *353:LO O *D sky130_fd_sc_hd__conb_1
*CAP
1 result1[16] 5.37887e-05
2 *353:LO 0.000431196
3 *45:10 0.000484985
4 result1[16] result1[17] 0.000114535
5 result0[31] result1[16] 0.000114535
*RES
1 *353:LO *45:10 45.8404 
2 *45:10 result1[16] 8.43493 
*END

*D_NET *46 0.00134007
*CONN
*P result1[17] O
*I *352:LO O *D sky130_fd_sc_hd__conb_1
*CAP
1 result1[17] 0.000392502
2 *352:LO 0.000392502
3 result1[17] result1[18] 0.000352323
4 result0[31] result1[17] 8.82019e-05
5 result1[16] result1[17] 0.000114535
*RES
1 *352:LO result1[17] 47.7005 
*END

*D_NET *47 0.0015295
*CONN
*P result1[18] O
*I *351:LO O *D sky130_fd_sc_hd__conb_1
*CAP
1 result1[18] 0.000386941
2 *351:LO 0.000386941
3 result1[18] result1[19] 0.000403292
4 result0[30] result1[18] 0
5 result1[17] result1[18] 0.000352323
*RES
1 *351:LO result1[18] 47.9581 
*END

*D_NET *48 0.00200255
*CONN
*P result1[19] O
*I *350:LO O *D sky130_fd_sc_hd__conb_1
*CAP
1 result1[19] 0.000421697
2 *350:LO 0.000184553
3 *48:12 0.00060625
4 result1[19] result1[20] 0.000290571
5 result1[19] result1[21] 2.27221e-05
6 *48:12 result1[21] 1.0092e-05
7 *48:12 *50:12 0
8 result1[18] result1[19] 0.000403292
9 *3:34 *48:12 6.33761e-05
*RES
1 *350:LO *48:12 49.5318 
2 *48:12 result1[19] 1.72293 
*END

*D_NET *49 0.00145034
*CONN
*P result1[1] O
*I *371:LO O *D sky130_fd_sc_hd__conb_1
*CAP
1 result1[1] 0.000571226
2 *371:LO 0.000100482
3 *49:8 0.000671708
4 result1[1] result1[2] 0
5 *49:8 *93:14 3.95707e-06
6 result1[0] result1[1] 0
7 *38:8 *49:8 0.000102971
*RES
1 *371:LO *49:8 39.5743 
2 *49:8 result1[1] 12.6875 
*END

*D_NET *50 0.00132182
*CONN
*P result1[20] O
*I *349:LO O *D sky130_fd_sc_hd__conb_1
*CAP
1 result1[20] 0.000168211
2 *349:LO 0.000202274
3 *50:12 0.000370485
4 result1[20] result1[21] 0.000290276
5 result1[19] result1[20] 0.000290571
6 *48:12 *50:12 0
*RES
1 *349:LO *50:12 49.3039 
2 *50:12 result1[20] 1.12187 
*END

*D_NET *51 0.00188306
*CONN
*P result1[21] O
*I *348:LO O *D sky130_fd_sc_hd__conb_1
*CAP
1 result1[21] 0.000447505
2 *348:LO 0.000447505
3 result1[21] result1[22] 0.000451182
4 result1[21] result1[29] 0
5 result1[19] result1[21] 2.27221e-05
6 result1[20] result1[21] 0.000290276
7 *3:20 result1[21] 0.000213778
8 *48:12 result1[21] 1.0092e-05
*RES
1 *348:LO result1[21] 48.3103 
*END

*D_NET *52 0.00153197
*CONN
*P result1[22] O
*I *347:LO O *D sky130_fd_sc_hd__conb_1
*CAP
1 result1[22] 0.000423628
2 *347:LO 0.000423628
3 result1[22] result1[23] 0.000233534
4 result1[22] result1[25] 0
5 result1[22] result1[27] 0
6 result1[21] result1[22] 0.000451182
*RES
1 *347:LO result1[22] 47.9581 
*END

*D_NET *53 0.00200068
*CONN
*P result1[23] O
*I *346:LO O *D sky130_fd_sc_hd__conb_1
*CAP
1 result1[23] 7.38101e-05
2 *346:LO 0.000246563
3 *53:10 0.000320373
4 result1[23] result1[24] 0.000207664
5 result1[23] result1[25] 1.38508e-05
6 *53:10 result1[28] 0.000108697
7 *53:10 *54:10 0.000392842
8 *53:10 *61:8 0.000403344
9 result1[22] result1[23] 0.000233534
10 *3:20 *53:10 0
*RES
1 *346:LO *53:10 45.6954 
2 *53:10 result1[23] 8.7784 
*END

*D_NET *54 0.00142915
*CONN
*P result1[24] O
*I *345:LO O *D sky130_fd_sc_hd__conb_1
*CAP
1 result1[24] 7.08084e-05
2 *345:LO 0.000241369
3 *54:10 0.000312177
4 result1[24] result1[25] 0.000204285
5 result1[23] result1[24] 0.000207664
6 *3:20 *54:10 0
7 *53:10 *54:10 0.000392842
*RES
1 *345:LO *54:10 42.9818 
2 *54:10 result1[24] 8.69253 
*END

*D_NET *55 0.00165757
*CONN
*P result1[25] O
*I *344:LO O *D sky130_fd_sc_hd__conb_1
*CAP
1 result1[25] 0.000491775
2 *344:LO 0.000491775
3 result1[25] result1[26] 0.000378925
4 result1[25] result1[29] 0
5 result1[25] *56:10 4.73448e-05
6 result1[25] *65:10 2.96123e-05
7 result1[22] result1[25] 0
8 result1[23] result1[25] 1.38508e-05
9 result1[24] result1[25] 0.000204285
*RES
1 *344:LO result1[25] 49.4613 
*END

*D_NET *56 0.00220417
*CONN
*P result1[26] O
*I *343:LO O *D sky130_fd_sc_hd__conb_1
*CAP
1 result1[26] 0.00034704
2 *343:LO 0.000196519
3 *56:10 0.000543558
4 result1[26] result1[27] 0.000351994
5 *56:10 *65:10 2.36931e-05
6 *56:10 *66:8 0.000315096
7 result1[25] result1[26] 0.000378925
8 result1[25] *56:10 4.73448e-05
*RES
1 *343:LO *56:10 42.1532 
2 *56:10 result1[26] 9.46533 
*END

*D_NET *57 0.00230934
*CONN
*P result1[27] O
*I *342:LO O *D sky130_fd_sc_hd__conb_1
*CAP
1 result1[27] 0.000538153
2 *342:LO 0.000177972
3 *57:12 0.000716124
4 result1[27] result1[28] 0.000242307
5 result1[27] result1[29] 7.09046e-06
6 result1[27] result1[31] 0
7 *57:12 *61:8 0.000101762
8 *57:12 *65:10 0.000173936
9 *57:12 *67:12 0
10 result1[22] result1[27] 0
11 result1[26] result1[27] 0.000351994
*RES
1 *342:LO *57:12 49.5318 
2 *57:12 result1[27] 1.72293 
*END

*D_NET *58 0.00278641
*CONN
*P result1[28] O
*I *341:LO O *D sky130_fd_sc_hd__conb_1
*CAP
1 result1[28] 0.000326038
2 *341:LO 0.000292333
3 *58:8 0.000618371
4 result1[28] result1[29] 0.000825935
5 result1[28] result1[30] 0.000315398
6 *58:8 *65:10 5.73309e-05
7 result1[27] result1[28] 0.000242307
8 *3:20 *58:8 0
9 *53:10 result1[28] 0.000108697
*RES
1 *341:LO *58:8 43.3857 
2 *58:8 result1[28] 16.6662 
*END

*D_NET *59 0.00310501
*CONN
*P result1[29] O
*I *340:LO O *D sky130_fd_sc_hd__conb_1
*CAP
1 result1[29] 0.000662202
2 *340:LO 0.000141294
3 *59:10 0.000803496
4 result1[29] result1[30] 0.000276523
5 result1[29] result1[31] 1.73198e-05
6 result1[29] result1[6] 0.000259539
7 result1[29] *65:10 0
8 result1[21] result1[29] 0
9 result1[25] result1[29] 0
10 result1[27] result1[29] 7.09046e-06
11 result1[28] result1[29] 0.000825935
12 *3:20 *59:10 9.71269e-05
13 *3:34 *59:10 1.44861e-05
*RES
1 *340:LO *59:10 40.5479 
2 *59:10 result1[29] 21.3299 
*END

*D_NET *60 0.00197546
*CONN
*P result1[2] O
*I *313:X O *D sky130_fd_sc_hd__clkdlybuf4s25_1
*CAP
1 result1[2] 0.000562
2 *313:X 0.000402138
3 *60:8 0.000964138
4 result1[2] result1[3] 0
5 *60:8 *93:14 4.71789e-05
6 result1[1] result1[2] 0
*RES
1 *313:X *60:8 42.9093 
2 *60:8 result1[2] 12.6875 
*END

*D_NET *61 0.00284645
*CONN
*P result1[30] O
*I *339:LO O *D sky130_fd_sc_hd__conb_1
*CAP
1 result1[30] 0.000393568
2 *339:LO 0.000355811
3 *61:8 0.000749379
4 result1[30] result1[31] 0.000223477
5 result1[30] result1[6] 2.71929e-05
6 result1[28] result1[30] 0.000315398
7 result1[29] result1[30] 0.000276523
8 *3:20 result1[30] 0
9 *53:10 *61:8 0.000403344
10 *57:12 *61:8 0.000101762
*RES
1 *339:LO *61:8 45.2914 
2 *61:8 result1[30] 15.8761 
*END

*D_NET *62 0.00363527
*CONN
*P result1[31] O
*I *338:LO O *D sky130_fd_sc_hd__conb_1
*CAP
1 result1[31] 0.000886342
2 *338:LO 0.000209152
3 *62:10 0.00109549
4 result1[31] *70:11 0.000182221
5 *62:10 result1[3] 0.000446256
6 *62:10 *66:8 5.5792e-05
7 *62:10 *67:12 0.000492636
8 result1[27] result1[31] 0
9 result1[29] result1[31] 1.73198e-05
10 result1[30] result1[31] 0.000223477
11 *3:20 result1[31] 2.6576e-05
*RES
1 *338:LO *62:10 45.2811 
2 *62:10 result1[31] 10.4957 
*END

*D_NET *63 0.00203254
*CONN
*P result1[3] O
*I *368:LO O *D sky130_fd_sc_hd__conb_1
*CAP
1 result1[3] 0.000527531
2 *368:LO 3.39557e-05
3 *63:8 0.000561486
4 result1[3] result1[4] 0
5 result1[3] *67:12 0.000363361
6 result1[3] *100:25 4.41587e-05
7 *63:8 *66:8 5.5792e-05
8 result1[2] result1[3] 0
9 *62:10 result1[3] 0.000446256
*RES
1 *368:LO *63:8 38.6214 
2 *63:8 result1[3] 16.2089 
*END

*D_NET *64 0.00218562
*CONN
*P result1[4] O
*I *366:LO O *D sky130_fd_sc_hd__conb_1
*CAP
1 result1[4] 0.000673938
2 *366:LO 5.9242e-05
3 *64:8 0.00073318
4 result1[4] result1[5] 0
5 result1[4] *67:12 0.000572442
6 *64:8 *66:8 0.000146822
7 result1[3] result1[4] 0
*RES
1 *366:LO *64:8 39.5743 
2 *64:8 result1[4] 18.6739 
*END

*D_NET *65 0.00258437
*CONN
*P result1[5] O
*I *364:LO O *D sky130_fd_sc_hd__conb_1
*CAP
1 result1[5] 0.000491298
2 *364:LO 0.000560787
3 *65:10 0.00105209
4 result1[5] result1[6] 0
5 result1[5] *70:11 0.00013738
6 *65:10 result1[6] 0
7 *65:10 *70:11 5.82433e-05
8 result1[25] *65:10 2.96123e-05
9 result1[29] *65:10 0
10 result1[4] result1[5] 0
11 *56:10 *65:10 2.36931e-05
12 *57:12 *65:10 0.000173936
13 *58:8 *65:10 5.73309e-05
*RES
1 *364:LO *65:10 49.5068 
2 *65:10 result1[5] 11.7243 
*END

*D_NET *66 0.00344315
*CONN
*P result1[6] O
*I *363:LO O *D sky130_fd_sc_hd__conb_1
*CAP
1 result1[6] 0.000718978
2 *363:LO 0.000482884
3 *66:8 0.00120186
4 result1[6] result1[7] 0
5 result1[6] *70:11 0.000121557
6 *66:8 *100:25 5.76359e-05
7 result1[29] result1[6] 0.000259539
8 result1[30] result1[6] 2.71929e-05
9 result1[5] result1[6] 0
10 *56:10 *66:8 0.000315096
11 *62:10 *66:8 5.5792e-05
12 *63:8 *66:8 5.5792e-05
13 *64:8 *66:8 0.000146822
14 *65:10 result1[6] 0
*RES
1 *363:LO *66:8 48.6264 
2 *66:8 result1[6] 17.3275 
*END

*D_NET *67 0.00354785
*CONN
*P result1[7] O
*I *362:LO O *D sky130_fd_sc_hd__conb_1
*CAP
1 result1[7] 6.63001e-05
2 *362:LO 0
3 *67:12 0.0010597
4 *67:6 0.000993404
5 result1[3] *67:12 0.000363361
6 result1[4] *67:12 0.000572442
7 result1[6] result1[7] 0
8 *57:12 *67:12 0
9 *62:10 *67:12 0.000492636
*RES
1 *362:LO *67:6 38 
2 *67:6 *67:12 42.6743 
3 *67:12 result1[7] 16.4189 
*END

*D_NET *68 0.0013341
*CONN
*P result1[8] O
*I *361:LO O *D sky130_fd_sc_hd__conb_1
*CAP
1 result1[8] 0.000620357
2 *361:LO 4.6695e-05
3 *68:8 0.000667052
4 result1[8] result1[9] 0
*RES
1 *361:LO *68:8 38.6214 
2 *68:8 result1[8] 14.3757 
*END

*D_NET *69 0.00118533
*CONN
*P result1[9] O
*I *360:LO O *D sky130_fd_sc_hd__conb_1
*CAP
1 result1[9] 0.000550923
2 *360:LO 4.17433e-05
3 *69:8 0.000592666
4 result1[10] result1[9] 0
5 result1[8] result1[9] 0
*RES
1 *360:LO *69:8 38.6214 
2 *69:8 result1[9] 12.4286 
*END

*D_NET *70 0.00169202
*CONN
*P rst I
*I *309:A I *D sky130_fd_sc_hd__clkdlybuf4s25_1
*CAP
1 rst 0.000584222
2 *309:A 0
3 *70:11 0.000584222
4 result1[31] *70:11 0.000182221
5 result1[5] *70:11 0.00013738
6 result1[6] *70:11 0.000121557
7 *3:20 *70:11 2.41775e-05
8 *65:10 *70:11 5.82433e-05
*RES
1 rst *70:11 30.687 
2 *70:11 *309:A 23 
*END

*D_NET *71 0.000337077
*CONN
*I *301:A I *D sky130_fd_sc_hd__dlygate4sd3_1
*I *285:Y O *D sky130_fd_sc_hd__a31oi_2
*CAP
1 *301:A 0
2 *285:Y 6.9551e-05
3 *71:8 6.9551e-05
4 *71:8 *278:A 1.29944e-05
5 *71:8 *279:A 5.75756e-06
6 *71:8 *85:19 4.70153e-05
7 *71:8 *91:21 0.000132208
*RES
1 *285:Y *71:8 39.9057 
2 *71:8 *301:A 38 
*END

*D_NET *72 0.00111722
*CONN
*I *290:D I *D sky130_fd_sc_hd__dfrtp_2
*I *287:X O *D sky130_fd_sc_hd__and2b_2
*CAP
1 *290:D 0
2 *287:X 0.000500953
3 *72:10 0.000500953
4 *72:10 *82:15 0.000115314
*RES
1 *287:X *72:10 44.9393 
2 *72:10 *290:D 38 
*END

*D_NET *73 0.000586407
*CONN
*I *304:A I *D sky130_fd_sc_hd__dlygate4sd3_1
*I *288:Y O *D sky130_fd_sc_hd__xnor2_2
*CAP
1 *304:A 0
2 *288:Y 0.000293204
3 *73:8 0.000293204
4 *73:8 *95:23 0
*RES
1 *288:Y *73:8 43.4271 
2 *73:8 *304:A 38 
*END

*D_NET *74 0.000585263
*CONN
*I *299:A I *D sky130_fd_sc_hd__dlygate4sd3_1
*I *281:Y O *D sky130_fd_sc_hd__a31oi_2
*CAP
1 *299:A 0.000205235
2 *281:Y 0.000205235
3 *299:A *281:A1 5.56279e-05
4 *299:A *78:29 0.000119164
*RES
1 *281:Y *299:A 49.9564 
*END

*D_NET *75 0.000763552
*CONN
*I *306:A I *D sky130_fd_sc_hd__dlygate4sd3_1
*I *283:Y O *D sky130_fd_sc_hd__nor2_2
*CAP
1 *306:A 6.26915e-05
2 *283:Y 6.26915e-05
3 *306:A *283:A 0.000319085
4 *306:A *283:B 0.000319085
*RES
1 *283:Y *306:A 49.48 
*END

*D_NET *76 0.000494698
*CONN
*I *294:D I *D sky130_fd_sc_hd__dfrtp_2
*I *284:X O *D sky130_fd_sc_hd__xor2_2
*CAP
1 *294:D 0
2 *284:X 0.000229522
3 *76:12 0.000229522
4 *76:12 *284:B 3.56537e-05
*RES
1 *284:X *76:12 41.625 
2 *76:12 *294:D 38 
*END

*D_NET *77 0.000375807
*CONN
*I *275:B I *D sky130_fd_sc_hd__nor2_2
*I *274:Y O *D sky130_fd_sc_hd__nand2b_2
*CAP
1 *275:B 0
2 *274:Y 7.53329e-05
3 *77:8 7.53329e-05
4 *77:8 *274:A_N 1.37349e-05
5 *77:8 *276:A 2.60152e-05
6 *77:8 *88:16 1.14452e-05
7 *77:8 *90:22 6.07929e-05
8 *77:8 *100:8 0.000113153
*RES
1 *274:Y *77:8 40.2579 
2 *77:8 *275:B 38 
*END

*D_NET *78 0.00453035
*CONN
*I *281:A3 I *D sky130_fd_sc_hd__a31oi_2
*I *277:A3 I *D sky130_fd_sc_hd__a31o_2
*I *283:A I *D sky130_fd_sc_hd__nor2_2
*I *276:Y O *D sky130_fd_sc_hd__nor2_2
*CAP
1 *281:A3 0
2 *277:A3 0
3 *283:A 0.000506549
4 *276:Y 0.000113154
5 *78:37 0.000159086
6 *78:29 0.000526834
7 *78:8 0.000987451
8 *283:A *283:B 7.27089e-05
9 *283:A *293:RESET_B 3.61892e-05
10 *283:A *294:RESET_B 6.40115e-05
11 *283:A *80:8 6.17437e-06
12 *283:A *82:39 5.76812e-06
13 *78:29 *274:B 1.41129e-05
14 *78:29 *276:A 0.000371394
15 *78:29 *281:A1 9.64943e-05
16 *78:29 *281:B1 5.3304e-05
17 *78:29 *293:RESET_B 6.56804e-05
18 *78:29 *90:30 0.000307692
19 *78:29 *92:10 4.07715e-05
20 *78:29 *93:28 0.000161121
21 *78:37 *277:A2 0.000168852
22 *78:37 *291:CLK 0.000271201
23 *78:37 *291:RESET_B 2.02872e-05
24 *78:37 *90:30 6.07611e-06
25 *295:A *78:8 3.71887e-05
26 *299:A *78:29 0.000119164
27 *306:A *283:A 0.000319085
*RES
1 *276:Y *78:8 39.5743 
2 *78:8 *283:A 49.0821 
3 *78:8 *78:29 26.0614 
4 *78:29 *78:37 34.4121 
5 *78:37 *277:A3 23 
6 *78:29 *281:A3 23 
*END

*D_NET *79 0.00271029
*CONN
*I *287:A_N I *D sky130_fd_sc_hd__and2b_2
*I *280:A3 I *D sky130_fd_sc_hd__a31o_2
*I *285:A3 I *D sky130_fd_sc_hd__a31oi_2
*I *279:Y O *D sky130_fd_sc_hd__nor2_2
*CAP
1 *287:A_N 0
2 *280:A3 0
3 *285:A3 0
4 *279:Y 0.00022098
5 *79:36 0.000287296
6 *79:23 0.000536728
7 *79:10 0.000470413
8 *79:10 *279:B 0.000204206
9 *79:10 *285:A2 1.13812e-05
10 *79:23 *280:A2 6.17437e-06
11 *79:23 *285:A2 0.000438501
12 *79:36 *278:A 0.000168524
13 *79:36 *280:A1 4.93812e-05
14 *79:36 *280:A2 2.93431e-05
15 *79:36 *280:B1 0.00018429
16 *79:36 *86:10 0.000103067
*RES
1 *279:Y *79:10 43.0129 
2 *79:10 *285:A3 38 
3 *79:10 *79:23 21.4007 
4 *79:23 *280:A3 23 
5 *79:23 *79:36 37.1671 
6 *79:36 *287:A_N 23 
*END

*D_NET *80 0.0024809
*CONN
*I *284:B I *D sky130_fd_sc_hd__xor2_2
*I *283:B I *D sky130_fd_sc_hd__nor2_2
*I *282:X O *D sky130_fd_sc_hd__and2_2
*CAP
1 *284:B 0.000338321
2 *283:B 0.000292364
3 *282:X 0.000258236
4 *80:8 0.000888922
5 *284:B *294:RESET_B 0.00013002
6 *284:B *82:39 3.64394e-05
7 *80:8 *282:B 0.000102971
8 *283:A *283:B 7.27089e-05
9 *283:A *80:8 6.17437e-06
10 *306:A *283:B 0.000319085
11 *76:12 *284:B 3.56537e-05
*RES
1 *282:X *80:8 27.4536 
2 *80:8 *283:B 28.4064 
3 *80:8 *284:B 37.8921 
*END

*D_NET *81 0.00276401
*CONN
*I *288:B I *D sky130_fd_sc_hd__xnor2_2
*I *287:B I *D sky130_fd_sc_hd__and2b_2
*I *286:Y O *D sky130_fd_sc_hd__nand2_2
*CAP
1 *288:B 0.000147964
2 *287:B 0.00020975
3 *286:Y 0.000277232
4 *81:12 0.000634946
5 *288:B *87:10 8.59705e-05
6 *288:B *87:20 0.000305512
7 *288:B *95:23 0.000404056
8 *81:12 *278:A 9.77798e-05
9 *81:12 *278:C_N 0.000103692
10 *81:12 *280:B1 0.000113244
11 *81:12 *286:A 2.64616e-05
12 *81:12 *87:20 1.00084e-05
13 *81:12 *91:21 0.000238794
14 *81:12 *94:12 0
15 *81:12 *95:23 0.000108595
*RES
1 *286:Y *81:12 44.8979 
2 *81:12 *287:B 41.0036 
3 *81:12 *288:B 43.4271 
*END

*D_NET *82 0.002813
*CONN
*I *297:A I *D sky130_fd_sc_hd__clkbuf_8
*I *296:A I *D sky130_fd_sc_hd__clkbuf_8
*I *295:X O *D sky130_fd_sc_hd__clkbuf_8
*CAP
1 *297:A 3.61024e-05
2 *296:A 0
3 *295:X 0
4 *82:39 0.000676683
5 *82:26 0.000640581
6 *82:15 0.000422694
7 *82:6 0.0005494
8 *82:4 0.000126705
9 *297:A *84:8 2.40323e-05
10 *82:39 *293:RESET_B 4.89555e-06
11 *82:39 *83:31 9.54451e-05
12 *82:39 *84:20 1.21859e-05
13 *82:39 *106:8 6.67555e-05
14 *283:A *82:39 5.76812e-06
15 *284:B *82:39 3.64394e-05
16 *72:10 *82:15 0.000115314
*RES
1 *295:X *82:4 23 
2 *82:4 *82:6 2.01446 
3 *82:6 *82:15 23.3841 
4 *82:15 *296:A 38 
5 *82:4 *82:26 15 
6 *82:26 *82:39 11.2064 
7 *82:39 *297:A 38.7095 
*END

*D_NET *83 0.00478974
*CONN
*I *291:CLK I *D sky130_fd_sc_hd__dfrtp_2
*I *289:CLK I *D sky130_fd_sc_hd__dfrtp_2
*I *292:CLK I *D sky130_fd_sc_hd__dfrtp_2
*I *296:X O *D sky130_fd_sc_hd__clkbuf_8
*CAP
1 *291:CLK 0.000302391
2 *289:CLK 0
3 *292:CLK 4.81096e-05
4 *296:X 0.000339306
5 *83:31 0.000772106
6 *83:25 0.00147255
7 *83:10 0.000785471
8 *291:CLK *291:RESET_B 0.000188927
9 *291:CLK *90:30 1.63351e-05
10 *292:CLK *92:6 1.73399e-05
11 *83:10 *92:6 6.28859e-05
12 *83:25 *92:6 4.74874e-05
13 *83:31 *84:20 0.000344
14 *83:31 *98:10 0
15 *83:31 *106:8 2.61849e-05
16 *78:37 *291:CLK 0.000271201
17 *82:39 *83:31 9.54451e-05
*RES
1 *296:X *83:10 28.5514 
2 *83:10 *292:CLK 24.6157 
3 *83:10 *83:25 20.3857 
4 *83:25 *83:31 29.1686 
5 *83:31 *289:CLK 23 
6 *83:25 *291:CLK 44.7736 
*END

*D_NET *84 0.00260775
*CONN
*I *294:CLK I *D sky130_fd_sc_hd__dfrtp_2
*I *293:CLK I *D sky130_fd_sc_hd__dfrtp_2
*I *290:CLK I *D sky130_fd_sc_hd__dfrtp_2
*I *297:X O *D sky130_fd_sc_hd__clkbuf_8
*CAP
1 *294:CLK 0
2 *293:CLK 0
3 *290:CLK 2.69656e-05
4 *297:X 0.000395063
5 *84:38 0.000124457
6 *84:20 0.000520086
7 *84:8 0.00101264
8 *290:CLK *290:RESET_B 3.22051e-05
9 *84:20 *290:RESET_B 2.41943e-05
10 *84:20 *293:D 6.17437e-06
11 *84:20 *106:8 8.57485e-05
12 *297:A *84:8 2.40323e-05
13 *82:39 *84:20 1.21859e-05
14 *83:31 *84:20 0.000344
*RES
1 *297:X *84:8 29.3593 
2 *84:8 *84:20 39.425 
3 *84:20 *290:CLK 23.6214 
4 *84:20 *293:CLK 23 
5 *84:8 *84:38 32.2579 
6 *84:38 *294:CLK 23 
*END

*D_NET *85 0.00291884
*CONN
*I *278:A I *D sky130_fd_sc_hd__nor3b_2
*I *300:A I *D sky130_fd_sc_hd__dlygate4sd3_1
*I *286:A I *D sky130_fd_sc_hd__nand2_2
*I *279:A I *D sky130_fd_sc_hd__nor2_2
*I *289:Q O *D sky130_fd_sc_hd__dfrtp_2
*CAP
1 *278:A 0.000237617
2 *300:A 0.00026186
3 *286:A 0.000163237
4 *279:A 0.000240547
5 *289:Q 0
6 *85:21 0.000425097
7 *85:19 0.000316448
8 *85:6 0.000319378
9 *278:A *280:B1 0.000113244
10 *278:A *91:21 1.02133e-05
11 *278:A *95:23 6.66613e-05
12 *279:A *91:10 6.94508e-05
13 *279:A *91:21 1.39734e-05
14 *300:A *101:10 0.000322582
15 *71:8 *278:A 1.29944e-05
16 *71:8 *279:A 5.75756e-06
17 *71:8 *85:19 4.70153e-05
18 *79:36 *278:A 0.000168524
19 *81:12 *278:A 9.77798e-05
20 *81:12 *286:A 2.64616e-05
*RES
1 *289:Q *85:6 38 
2 *85:6 *279:A 43.1164 
3 *85:6 *85:19 1.55357 
4 *85:19 *85:21 15 
5 *85:21 *286:A 25.5479 
6 *85:21 *300:A 29.3593 
7 *85:19 *278:A 44.1314 
*END

*D_NET *86 0.0020211
*CONN
*I *286:B I *D sky130_fd_sc_hd__nand2_2
*I *279:B I *D sky130_fd_sc_hd__nor2_2
*I *290:Q O *D sky130_fd_sc_hd__dfrtp_2
*CAP
1 *286:B 0
2 *279:B 0.00036307
3 *290:Q 0.000350454
4 *86:10 0.000713524
5 *279:B *285:A2 0.000188887
6 *279:B *91:21 7.4469e-06
7 *86:10 *285:A2 4.54619e-05
8 *86:10 *91:21 4.49881e-05
9 *79:10 *279:B 0.000204206
10 *79:36 *86:10 0.000103067
*RES
1 *290:Q *86:10 43.7379 
2 *86:10 *279:B 46.5964 
3 *86:10 *286:B 38 
*END

*D_NET *87 0.00472702
*CONN
*I *303:A I *D sky130_fd_sc_hd__dlygate4sd3_1
*I *278:B I *D sky130_fd_sc_hd__nor3b_2
*I *280:A2 I *D sky130_fd_sc_hd__a31o_2
*I *285:A2 I *D sky130_fd_sc_hd__a31oi_2
*I *291:Q O *D sky130_fd_sc_hd__dfrtp_2
*CAP
1 *303:A 0.000422091
2 *278:B 0
3 *280:A2 5.03342e-05
4 *285:A2 0.0001789
5 *291:Q 0.000269486
6 *87:30 0.000415301
7 *87:20 0.000473879
8 *87:10 0.000979389
9 *285:A2 *94:12 1.13812e-05
10 *303:A *103:6 0.00039759
11 *87:10 *94:12 0
12 *87:10 *95:23 7.27411e-05
13 *87:20 *278:C_N 5.79243e-05
14 *87:20 *94:12 0
15 *87:30 *278:C_N 0.000146822
16 *87:30 *94:12 0.000129939
17 *279:B *285:A2 0.000188887
18 *288:B *87:10 8.59705e-05
19 *288:B *87:20 0.000305512
20 *79:10 *285:A2 1.13812e-05
21 *79:23 *280:A2 6.17437e-06
22 *79:23 *285:A2 0.000438501
23 *79:36 *280:A2 2.93431e-05
24 *81:12 *87:20 1.00084e-05
25 *86:10 *285:A2 4.54619e-05
*RES
1 *291:Q *87:10 42.8886 
2 *87:10 *87:20 21.4629 
3 *87:20 *87:30 19.2464 
4 *87:30 *285:A2 44.4836 
5 *87:30 *280:A2 38.6214 
6 *87:20 *278:B 23 
7 *87:10 *303:A 46.2857 
*END

*D_NET *88 0.00325863
*CONN
*I *298:A I *D sky130_fd_sc_hd__dlygate4sd3_1
*I *275:A I *D sky130_fd_sc_hd__nor2_2
*I *282:A I *D sky130_fd_sc_hd__and2_2
*I *292:Q O *D sky130_fd_sc_hd__dfrtp_2
*CAP
1 *298:A 0
2 *275:A 0
3 *282:A 0
4 *292:Q 0
5 *88:34 0.000265732
6 *88:16 0.000263168
7 *88:10 0.000556632
8 *88:4 0.000559197
9 *88:10 *292:RESET_B 1.24376e-05
10 *88:10 *93:28 9.41704e-05
11 *88:16 *276:A 0.000123682
12 *88:16 *294:RESET_B 0.000226087
13 *88:16 *90:22 0.000650518
14 *88:34 *277:A1 0.00020593
15 *88:34 *277:B1 5.40241e-05
16 *88:34 *291:RESET_B 0.000100061
17 *88:34 *90:30 0
18 *88:34 *92:10 0.000135547
19 *77:8 *88:16 1.14452e-05
*RES
1 *292:Q *88:4 23 
2 *88:4 *88:10 4.47429 
3 *88:10 *88:16 38.5964 
4 *88:16 *282:A 23 
5 *88:10 *275:A 23 
6 *88:4 *88:34 35.8207 
7 *88:34 *298:A 23 
*END

*D_NET *89 0.00130359
*CONN
*I *305:A I *D sky130_fd_sc_hd__dlygate4sd3_1
*I *282:B I *D sky130_fd_sc_hd__and2_2
*I *293:Q O *D sky130_fd_sc_hd__dfrtp_2
*CAP
1 *305:A 0.000221713
2 *282:B 0.000194303
3 *293:Q 5.45397e-05
4 *89:8 0.000470556
5 *282:B *90:22 9.15753e-05
6 *305:A *90:22 2.64108e-05
7 *3:34 *305:A 0.000141525
8 *80:8 *282:B 0.000102971
*RES
1 *293:Q *89:8 38.6214 
2 *89:8 *282:B 43.1164 
3 *89:8 *305:A 42.5779 
*END

*D_NET *90 0.00551514
*CONN
*I *274:A_N I *D sky130_fd_sc_hd__nand2b_2
*I *277:A2 I *D sky130_fd_sc_hd__a31o_2
*I *281:A2 I *D sky130_fd_sc_hd__a31oi_2
*I *302:A I *D sky130_fd_sc_hd__dlygate4sd3_1
*I *294:Q O *D sky130_fd_sc_hd__dfrtp_2
*CAP
1 *274:A_N 2.98935e-05
2 *277:A2 0.000276549
3 *281:A2 0
4 *302:A 0.000216492
5 *294:Q 0.000517277
6 *90:30 0.00079628
7 *90:22 0.00114813
8 *90:20 0.000899291
9 *274:A_N *100:8 1.02387e-05
10 *277:A2 *277:A1 5.5792e-05
11 *277:A2 *291:RESET_B 1.47795e-05
12 *90:22 *294:RESET_B 0.00017595
13 *90:30 *274:B 1.21972e-05
14 *90:30 *281:B1 2.02872e-05
15 *282:B *90:22 9.15753e-05
16 *291:CLK *90:30 1.63351e-05
17 *305:A *90:22 2.64108e-05
18 *77:8 *274:A_N 1.37349e-05
19 *77:8 *90:22 6.07929e-05
20 *78:29 *90:30 0.000307692
21 *78:37 *277:A2 0.000168852
22 *78:37 *90:30 6.07611e-06
23 *88:16 *90:22 0.000650518
24 *88:34 *90:30 0
*RES
1 *294:Q *302:A 49.9564 
2 *294:Q *90:20 41.9564 
3 *90:20 *90:22 15.2871 
4 *90:22 *90:30 36.7114 
5 *90:30 *281:A2 38 
6 *90:30 *277:A2 44.0279 
7 *90:22 *274:A_N 38.8493 
*END

*D_NET *91 0.00382692
*CONN
*I *278:C_N I *D sky130_fd_sc_hd__nor3b_2
*I *280:A1 I *D sky130_fd_sc_hd__a31o_2
*I *285:A1 I *D sky130_fd_sc_hd__a31oi_2
*I *307:X O *D sky130_fd_sc_hd__clkdlybuf4s25_1
*CAP
1 *278:C_N 0.000288146
2 *280:A1 0.000132473
3 *285:A1 6.78703e-05
4 *307:X 0.000635757
5 *91:21 0.000722353
6 *91:10 0.00100536
7 *280:A1 *280:B1 0.000100061
8 *278:A *91:21 1.02133e-05
9 *279:A *91:10 6.94508e-05
10 *279:A *91:21 1.39734e-05
11 *279:B *91:21 7.4469e-06
12 *71:8 *91:21 0.000132208
13 *79:36 *280:A1 4.93812e-05
14 *81:12 *278:C_N 0.000103692
15 *81:12 *91:21 0.000238794
16 *86:10 *91:21 4.49881e-05
17 *87:20 *278:C_N 5.79243e-05
18 *87:30 *278:C_N 0.000146822
*RES
1 *307:X *91:10 49.3307 
2 *91:10 *285:A1 39.0979 
3 *91:10 *91:21 6.48357 
4 *91:21 *280:A1 40.0507 
5 *91:21 *278:C_N 43.0543 
*END

*D_NET *92 0.00552787
*CONN
*I *277:A1 I *D sky130_fd_sc_hd__a31o_2
*I *274:B I *D sky130_fd_sc_hd__nand2b_2
*I *281:A1 I *D sky130_fd_sc_hd__a31oi_2
*I *308:X O *D sky130_fd_sc_hd__clkdlybuf4s25_1
*CAP
1 *277:A1 0.000386611
2 *274:B 0.000142108
3 *281:A1 3.9253e-05
4 *308:X 0.00126447
5 *92:12 0.000181361
6 *92:10 0.000522912
7 *92:6 0.00140078
8 *274:B *281:B1 9.67842e-05
9 *277:A1 *277:B1 0.000231289
10 *277:A1 *291:RESET_B 6.63159e-06
11 *277:A1 *93:14 8.56503e-06
12 *277:A1 *93:18 3.32576e-05
13 *277:A1 *93:28 0.000117703
14 *92:6 *292:RESET_B 6.36334e-05
15 *92:6 *93:28 1.21972e-05
16 *92:10 *293:RESET_B 9.03784e-05
17 *92:10 *93:28 0.000185755
18 *277:A2 *277:A1 5.5792e-05
19 *292:CLK *92:6 1.73399e-05
20 *299:A *281:A1 5.56279e-05
21 *78:29 *274:B 1.41129e-05
22 *78:29 *281:A1 9.64943e-05
23 *78:29 *92:10 4.07715e-05
24 *83:10 *92:6 6.28859e-05
25 *83:25 *92:6 4.74874e-05
26 *88:34 *277:A1 0.00020593
27 *88:34 *92:10 0.000135547
28 *90:30 *274:B 1.21972e-05
*RES
1 *308:X *92:6 39.82 
2 *92:6 *92:10 18.6664 
3 *92:10 *92:12 15 
4 *92:12 *281:A1 24.0979 
5 *92:12 *274:B 25.5479 
6 *92:10 *277:A1 45.4986 
*END

*D_NET *93 0.00917055
*CONN
*I *289:RESET_B I *D sky130_fd_sc_hd__dfrtp_2
*I *294:RESET_B I *D sky130_fd_sc_hd__dfrtp_2
*I *291:RESET_B I *D sky130_fd_sc_hd__dfrtp_2
*I *290:RESET_B I *D sky130_fd_sc_hd__dfrtp_2
*I *293:RESET_B I *D sky130_fd_sc_hd__dfrtp_2
*I *292:RESET_B I *D sky130_fd_sc_hd__dfrtp_2
*I *309:X O *D sky130_fd_sc_hd__clkdlybuf4s25_1
*CAP
1 *289:RESET_B 0.000305239
2 *294:RESET_B 0.000300428
3 *291:RESET_B 0.000800365
4 *290:RESET_B 0.000858795
5 *293:RESET_B 0.00112754
6 *292:RESET_B 8.61646e-05
7 *309:X 0.00081626
8 *93:28 0.000623146
9 *93:18 0.00110882
10 *93:14 0.000861288
11 *290:RESET_B *293:D 2.95423e-05
12 *291:RESET_B *277:B1 6.99547e-05
13 *93:14 *100:8 2.29099e-05
14 *93:18 *97:8 1.0092e-05
15 *93:18 *100:8 2.82108e-05
16 *93:28 *276:A 1.12487e-05
17 *93:28 *97:8 0.000166854
18 *277:A1 *291:RESET_B 6.63159e-06
19 *277:A1 *93:14 8.56503e-06
20 *277:A1 *93:18 3.32576e-05
21 *277:A1 *93:28 0.000117703
22 *277:A2 *291:RESET_B 1.47795e-05
23 *283:A *293:RESET_B 3.61892e-05
24 *283:A *294:RESET_B 6.40115e-05
25 *284:B *294:RESET_B 0.00013002
26 *290:CLK *290:RESET_B 3.22051e-05
27 *291:CLK *291:RESET_B 0.000188927
28 *38:8 *93:14 2.34195e-05
29 *49:8 *93:14 3.95707e-06
30 *60:8 *93:14 4.71789e-05
31 *78:29 *293:RESET_B 6.56804e-05
32 *78:29 *93:28 0.000161121
33 *78:37 *291:RESET_B 2.02872e-05
34 *82:39 *293:RESET_B 4.89555e-06
35 *84:20 *290:RESET_B 2.41943e-05
36 *88:10 *292:RESET_B 1.24376e-05
37 *88:10 *93:28 9.41704e-05
38 *88:16 *294:RESET_B 0.000226087
39 *88:34 *291:RESET_B 0.000100061
40 *90:22 *294:RESET_B 0.00017595
41 *92:6 *292:RESET_B 6.36334e-05
42 *92:6 *93:28 1.21972e-05
43 *92:10 *293:RESET_B 9.03784e-05
44 *92:10 *93:28 0.000185755
*RES
1 *309:X *93:14 49.5689 
2 *93:14 *93:18 1.64679 
3 *93:18 *93:28 21.9393 
4 *93:28 *292:RESET_B 1.97821 
5 *93:28 *293:RESET_B 36.5457 
6 *293:RESET_B *290:RESET_B 9.38357 
7 *93:18 *291:RESET_B 30.0282 
8 *293:RESET_B *294:RESET_B 39.3007 
9 *290:RESET_B *289:RESET_B 35.7793 
*END

*D_NET *94 0.00162748
*CONN
*I *310:A I *D sky130_fd_sc_hd__clkdlybuf4s25_1
*I *280:X O *D sky130_fd_sc_hd__a31o_2
*CAP
1 *310:A 0.000144366
2 *280:X 0.000514265
3 *94:12 0.000658631
4 result0[1] *94:12 0.000168901
5 *285:A2 *94:12 1.13812e-05
6 *81:12 *94:12 0
7 *87:10 *94:12 0
8 *87:20 *94:12 0
9 *87:30 *94:12 0.000129939
*RES
1 *280:X *94:12 49.4757 
2 *94:12 *310:A 40.5271 
*END

*D_NET *95 0.00264708
*CONN
*I *311:A I *D sky130_fd_sc_hd__clkdlybuf4s25_1
*I *280:B1 I *D sky130_fd_sc_hd__a31o_2
*I *278:Y O *D sky130_fd_sc_hd__nor3b_2
*CAP
1 *311:A 0
2 *280:B1 0.000124111
3 *278:Y 0
4 *95:23 0.000578193
5 *95:6 0.000702304
6 *278:A *280:B1 0.000113244
7 *278:A *95:23 6.66613e-05
8 *280:A1 *280:B1 0.000100061
9 *288:B *95:23 0.000404056
10 *32:8 *95:23 7.95762e-05
11 *73:8 *95:23 0
12 *79:36 *280:B1 0.00018429
13 *81:12 *280:B1 0.000113244
14 *81:12 *95:23 0.000108595
15 *87:10 *95:23 7.27411e-05
*RES
1 *278:Y *95:6 38 
2 *95:6 *280:B1 41.6043 
3 *95:6 *95:23 28.6921 
4 *95:23 *311:A 23 
*END

*D_NET *96 0.000764008
*CONN
*I *312:A I *D sky130_fd_sc_hd__clkdlybuf4s25_1
*I *277:X O *D sky130_fd_sc_hd__a31o_2
*CAP
1 *312:A 0.000209568
2 *277:X 0.000116866
3 *96:8 0.000326434
4 *31:10 *312:A 7.89339e-05
5 *38:8 *312:A 3.22051e-05
*RES
1 *277:X *96:8 39.9057 
2 *96:8 *312:A 41.9564 
*END

*D_NET *97 0.00188824
*CONN
*I *281:B1 I *D sky130_fd_sc_hd__a31oi_2
*I *276:A I *D sky130_fd_sc_hd__nor2_2
*I *298:X O *D sky130_fd_sc_hd__dlygate4sd3_1
*CAP
1 *281:B1 3.81754e-05
2 *276:A 0.000229765
3 *298:X 7.00622e-05
4 *97:8 0.000338003
5 *276:A *100:8 0.000138718
6 *97:8 *100:8 0.000193855
7 *274:B *281:B1 9.67842e-05
8 *77:8 *276:A 2.60152e-05
9 *78:29 *276:A 0.000371394
10 *78:29 *281:B1 5.3304e-05
11 *88:16 *276:A 0.000123682
12 *90:30 *281:B1 2.02872e-05
13 *93:18 *97:8 1.0092e-05
14 *93:28 *276:A 1.12487e-05
15 *93:28 *97:8 0.000166854
*RES
1 *298:X *97:8 40.61 
2 *97:8 *276:A 45.0221 
3 *97:8 *281:B1 39.0979 
*END

*D_NET *98 0.000320121
*CONN
*I *292:D I *D sky130_fd_sc_hd__dfrtp_2
*I *299:X O *D sky130_fd_sc_hd__dlygate4sd3_1
*CAP
1 *292:D 0
2 *299:X 0.000160061
3 *98:10 0.000160061
4 *83:31 *98:10 0
*RES
1 *299:X *98:10 40.175 
2 *98:10 *292:D 38 
*END

*D_NET *99 0.000707401
*CONN
*I *285:B1 I *D sky130_fd_sc_hd__a31oi_2
*I *300:X O *D sky130_fd_sc_hd__dlygate4sd3_1
*CAP
1 *285:B1 0.000199627
2 *300:X 0.000154074
3 *99:12 0.000353701
*RES
1 *300:X *99:12 41.0243 
2 *99:12 *285:B1 41.48 
*END

*D_NET *100 0.00243432
*CONN
*I *313:A I *D sky130_fd_sc_hd__clkdlybuf4s25_1
*I *277:B1 I *D sky130_fd_sc_hd__a31o_2
*I *275:Y O *D sky130_fd_sc_hd__nor2_2
*CAP
1 *313:A 0
2 *277:B1 0.000210758
3 *275:Y 0.000190801
4 *100:25 0.000333527
5 *100:10 0.000544285
6 *100:8 0.000190801
7 result1[3] *100:25 4.41587e-05
8 *274:A_N *100:8 1.02387e-05
9 *276:A *100:8 0.000138718
10 *277:A1 *277:B1 0.000231289
11 *291:RESET_B *277:B1 6.99547e-05
12 *66:8 *100:25 5.76359e-05
13 *77:8 *100:8 0.000113153
14 *88:34 *277:B1 5.40241e-05
15 *93:14 *100:8 2.29099e-05
16 *93:18 *100:8 2.82108e-05
17 *97:8 *100:8 0.000193855
*RES
1 *275:Y *100:8 43.4271 
2 *100:8 *100:10 15 
3 *100:10 *277:B1 27.4329 
4 *100:10 *100:25 36.2143 
5 *100:25 *313:A 23 
*END

*D_NET *101 0.0010905
*CONN
*I *289:D I *D sky130_fd_sc_hd__dfrtp_2
*I *301:X O *D sky130_fd_sc_hd__dlygate4sd3_1
*CAP
1 *289:D 0
2 *301:X 0.000383959
3 *101:10 0.000383959
4 *300:A *101:10 0.000322582
*RES
1 *301:X *101:10 45.2914 
2 *101:10 *289:D 38 
*END

*D_NET *102 0.000912677
*CONN
*I *284:A I *D sky130_fd_sc_hd__xor2_2
*I *302:X O *D sky130_fd_sc_hd__dlygate4sd3_1
*CAP
1 *284:A 0.000345564
2 *302:X 0.000110774
3 *102:8 0.000456338
*RES
1 *302:X *102:8 39.9057 
2 *102:8 *284:A 44.3386 
*END

*D_NET *103 0.000742154
*CONN
*I *288:A I *D sky130_fd_sc_hd__xnor2_2
*I *303:X O *D sky130_fd_sc_hd__dlygate4sd3_1
*CAP
1 *288:A 0
2 *303:X 0.000172282
3 *103:6 0.000172282
4 *303:A *103:6 0.00039759
*RES
1 *303:X *103:6 27.4329 
2 *103:6 *288:A 23 
*END

*D_NET *104 0.000650093
*CONN
*I *291:D I *D sky130_fd_sc_hd__dfrtp_2
*I *304:X O *D sky130_fd_sc_hd__dlygate4sd3_1
*CAP
1 *291:D 0
2 *304:X 0.00032202
3 *104:10 0.00032202
4 *33:8 *104:10 5.1614e-06
5 *34:8 *104:10 8.91468e-07
*RES
1 *304:X *104:10 42.5571 
2 *104:10 *291:D 38 
*END

*D_NET *105 0.000310186
*CONN
*I *276:B I *D sky130_fd_sc_hd__nor2_2
*I *305:X O *D sky130_fd_sc_hd__dlygate4sd3_1
*CAP
1 *276:B 0.000111058
2 *305:X 0.000111058
3 *295:A *276:B 2.00426e-05
4 *3:34 *276:B 6.80272e-05
*RES
1 *305:X *276:B 48.0714 
*END

*D_NET *106 0.000405855
*CONN
*I *293:D I *D sky130_fd_sc_hd__dfrtp_2
*I *306:X O *D sky130_fd_sc_hd__dlygate4sd3_1
*CAP
1 *293:D 3.46683e-05
2 *306:X 6.10567e-05
3 *106:8 9.57249e-05
4 *290:RESET_B *293:D 2.95423e-05
5 *82:39 *106:8 6.67555e-05
6 *83:31 *106:8 2.61849e-05
7 *84:20 *293:D 6.17437e-06
8 *84:20 *106:8 8.57485e-05
*RES
1 *306:X *106:8 39.9057 
2 *106:8 *293:D 38.6214 
*END
